Job Start Time: Wed Oct  8 15:27:45 MDT 2025
SLURM Job ID: 768173
SLURM Job Name: aminationTS-full-unfrz-c15_tzpop-sp
 Entering Gaussian System, Link 0=/opt/apps/Gaussian/G16C/g16/g16
 Initial command:
 /opt/apps/Gaussian/G16C/g16/l1.exe "/tmp/768173/Gau-1999643.inp" -scrdir="/tmp/768173/"
 Entering Link 1 = /opt/apps/Gaussian/G16C/g16/l1.exe PID=   1999644.
  
 Copyright (c) 1988-2019, Gaussian, Inc.  All Rights Reserved.
  
 This is part of the Gaussian(R) 16 program.  It is based on
 the Gaussian(R) 09 system (copyright 2009, Gaussian, Inc.),
 the Gaussian(R) 03 system (copyright 2003, Gaussian, Inc.),
 the Gaussian(R) 98 system (copyright 1998, Gaussian, Inc.),
 the Gaussian(R) 94 system (copyright 1995, Gaussian, Inc.),
 the Gaussian 92(TM) system (copyright 1992, Gaussian, Inc.),
 the Gaussian 90(TM) system (copyright 1990, Gaussian, Inc.),
 the Gaussian 88(TM) system (copyright 1988, Gaussian, Inc.),
 the Gaussian 86(TM) system (copyright 1986, Carnegie Mellon
 University), and the Gaussian 82(TM) system (copyright 1983,
 Carnegie Mellon University). Gaussian is a federally registered
 trademark of Gaussian, Inc.
  
 This software contains proprietary and confidential information,
 including trade secrets, belonging to Gaussian, Inc.
  
 This software is provided under written license and may be
 used, copied, transmitted, or stored only in accord with that
 written license.
  
 The following legend is applicable only to US Government
 contracts under FAR:
  
                    RESTRICTED RIGHTS LEGEND
  
 Use, reproduction and disclosure by the US Government is
 subject to restrictions as set forth in subparagraphs (a)
 and (c) of the Commercial Computer Software - Restricted
 Rights clause in FAR 52.227-19.
  
 Gaussian, Inc.
 340 Quinnipiac St., Bldg. 40, Wallingford CT 06492
  
  
 ---------------------------------------------------------------
 Warning -- This program may not be used in any manner that
 competes with the business of Gaussian, Inc. or will provide
 assistance to any competitor of Gaussian, Inc.  The licensee
 of this program is prohibited from giving any competitor of
 Gaussian, Inc. access to this program.  By using this program,
 the user acknowledges that Gaussian, Inc. is engaged in the
 business of creating and licensing software in the field of
 computational chemistry and represents and warrants to the
 licensee that it is not a competitor of Gaussian, Inc. and that
 it will not use this program in any manner prohibited above.
 ---------------------------------------------------------------
  

 Cite this work as:
 Gaussian 16, Revision C.01,
 M. J. Frisch, G. W. Trucks, H. B. Schlegel, G. E. Scuseria, 
 M. A. Robb, J. R. Cheeseman, G. Scalmani, V. Barone, 
 G. A. Petersson, H. Nakatsuji, X. Li, M. Caricato, A. V. Marenich, 
 J. Bloino, B. G. Janesko, R. Gomperts, B. Mennucci, H. P. Hratchian, 
 J. V. Ortiz, A. F. Izmaylov, J. L. Sonnenberg, D. Williams-Young, 
 F. Ding, F. Lipparini, F. Egidi, J. Goings, B. Peng, A. Petrone, 
 T. Henderson, D. Ranasinghe, V. G. Zakrzewski, J. Gao, N. Rega, 
 G. Zheng, W. Liang, M. Hada, M. Ehara, K. Toyota, R. Fukuda, 
 J. Hasegawa, M. Ishida, T. Nakajima, Y. Honda, O. Kitao, H. Nakai, 
 T. Vreven, K. Throssell, J. A. Montgomery, Jr., J. E. Peralta, 
 F. Ogliaro, M. J. Bearpark, J. J. Heyd, E. N. Brothers, K. N. Kudin, 
 V. N. Staroverov, T. A. Keith, R. Kobayashi, J. Normand, 
 K. Raghavachari, A. P. Rendell, J. C. Burant, S. S. Iyengar, 
 J. Tomasi, M. Cossi, J. M. Millam, M. Klene, C. Adamo, R. Cammi, 
 J. W. Ochterski, R. L. Martin, K. Morokuma, O. Farkas, 
 J. B. Foresman, and D. J. Fox, Gaussian, Inc., Wallingford CT, 2019.
 
 ******************************************
 Gaussian 16:  AS64L-G16RevC.01  3-Jul-2019
                 8-Oct-2025 
 ******************************************
 %chk=aminationTS-full-unfrz-c15_tzpop-sp.chk
 %nprocshared=4
 Will use up to    4 processors via shared memory.
 %mem=8GB
 ----------------------------------------------------------------------
 # wb97xd/6-311++g** nosymm int=ultrafine scrf=(smd,solvent=tetrahydrof
 uran)
 ----------------------------------------------------------------------
 1/38=1,172=1/1;
 2/12=2,15=1,17=6,18=5,40=1/2;
 3/5=4,6=6,7=1111,11=2,25=1,30=1,70=32201,72=20,74=-58,75=-5/1,2,3;
 4//1;
 5/5=2,38=5,53=20/2;
 6/7=2,8=2,9=2,10=2,28=1/1;
 99/5=1,9=1/99;
 -----------------------------------
 aminationTS-full-unfrz-c15_tzpop-sp
 -----------------------------------
 Symbolic Z-matrix:
 Charge =  0 Multiplicity = 1
 C                    -1.9084    1.0256    2.5288 
 C                    -1.8129    0.2853    3.6743 
 H                    -2.4313   -0.6111    3.7131 
 C                    -1.1531    0.6407    4.978 
 H                    -0.7287   -0.2555    5.4442 
 H                    -0.3526    1.3797    4.8749 
 H                    -1.896     1.0501    5.6759 
 C                    -1.1839    2.3409    2.3863 
 H                    -0.6806    2.4005    1.4144 
 H                    -1.9092    3.1657    2.4026 
 H                    -0.4388    2.542     3.1642 
 B                    -2.8577    0.5125    1.2636 
 C                    -3.3264    1.7934    0.3587 
 H                    -2.4802    2.3176   -0.1058 
 H                    -4.0032    1.5056   -0.4555 
 H                    -3.8624    2.5429    0.9624 
 O                    -2.0736   -0.475     0.384 
 O                    -3.9665   -0.3231    1.7564 
 C                    -4.1633   -1.4287    0.901 
 C                    -2.7155   -1.7585    0.3872 
 C                    -5.1249   -1.0652   -0.2449 
 H                    -5.4265   -1.9541   -0.8121 
 H                    -6.0252   -0.6105    0.1836 
 H                    -4.6876   -0.3506   -0.9459 
 C                    -4.8071   -2.5569    1.7074 
 H                    -5.8254   -2.2666    1.992 
 H                    -4.8715   -3.4816    1.1207 
 H                    -4.2486   -2.7629    2.6247 
 C                    -2.6669   -2.3541   -1.017 
 H                    -3.074    -1.6724   -1.766 
 H                    -1.6277   -2.5705   -1.2903 
 H                    -3.2278   -3.2962   -1.0525 
 C                    -1.9667   -2.712     1.3259 
 H                    -2.0084   -2.383     2.3669 
 H                    -2.3846   -3.7234    1.2682 
 H                    -0.9135   -2.7666    1.0309 
 P                     1.9148   -0.7847    0.6044 
 O                     0.9588   -0.4403   -0.5166 
 O                     1.3132   -1.488     1.8654 
 N                    -0.115    -0.5783    2.5725 
 H                    -0.6199   -0.6004    1.6764 
 H                     0.3977    0.3072    2.6138 
 Li                   -0.7854    0.2211   -0.908 
 C                     0.8924    2.0846   -2.4501 
 O                    -0.1201    2.2219   -1.4361 
 C                    -0.5784    3.5824   -1.3817 
 C                     0.4122    4.3892   -2.213 
 C                     0.8337    3.3665   -3.2703 
 H                     1.8661    1.9651   -1.959 
 H                     0.6759    1.1804   -3.0211 
 H                    -1.5896    3.6324   -1.8055 
 H                    -0.6224    3.8924   -0.3334 
 H                    -0.0413    5.2912   -2.6326 
 H                     1.275     4.6838   -1.6043 
 H                     0.0712    3.2894   -4.0544 
 H                     1.793     3.5984   -3.7412 
 C                    -2.3611    0.7495   -3.3408 
 O                    -1.3573   -0.1031   -2.7711 
 C                    -0.8541   -1.0156   -3.7521 
 C                    -1.2412   -0.406    -5.0925 
 C                    -2.5947    0.2283   -4.7568 
 H                    -3.2521    0.709    -2.7062 
 H                    -1.9754    1.7759   -3.3408 
 H                     0.2234   -1.119    -3.5958 
 H                    -1.3278   -1.996    -3.6085 
 H                    -0.5176    0.3636   -5.3865 
 H                    -1.2988   -1.1535   -5.8884 
 H                    -2.8843    1.0258   -5.4461 
 H                    -3.3813   -0.5349   -4.7594 
 C                     3.2243   -1.8895    0.0112 
 C                     3.7724   -2.8801    0.8319 
 C                     3.7064   -1.726    -1.2927 
 C                     4.7948   -3.6979    0.353 
 H                     3.3935   -3.016     1.8407 
 C                     4.7289   -2.5429   -1.7688 
 H                     3.2775   -0.9624   -1.9368 
 C                     5.274    -3.5289   -0.9455 
 H                     5.2146   -4.4686    0.9936 
 H                     5.0982   -2.4133   -2.7825 
 H                     6.0708   -4.1673   -1.3177 
 C                     2.7242    0.736     1.2002 
 C                     3.8463    0.6705    2.0356 
 C                     2.1709    1.9814    0.8914 
 C                     4.4073    1.836     2.5505 
 H                     4.2868   -0.2919    2.2859 
 C                     2.7283    3.1483    1.414 
 H                     1.3003    2.0342    0.2427 
 C                     3.8467    3.0772    2.242 
 H                     5.2803    1.7775    3.1947 
 H                     2.2861    4.1121    1.1748 
 H                     4.2833    3.9857    2.6481 
 
 Symmetry turned off by external request.
 Stoichiometry    C31H50BLiNO6P
 Framework group  C1[X(C31H50BLiNO6P)]
 Deg. of freedom   267
 Full point group                 C1      NOp   1
                          Input orientation:                          
 ---------------------------------------------------------------------
 Center     Atomic      Atomic             Coordinates (Angstroms)
 Number     Number       Type             X           Y           Z
 ---------------------------------------------------------------------
      1          6           0       -1.908400    1.025600    2.528800
      2          6           0       -1.812900    0.285300    3.674300
      3          1           0       -2.431300   -0.611100    3.713100
      4          6           0       -1.153100    0.640700    4.978000
      5          1           0       -0.728700   -0.255500    5.444200
      6          1           0       -0.352600    1.379700    4.874900
      7          1           0       -1.896000    1.050100    5.675900
      8          6           0       -1.183900    2.340900    2.386300
      9          1           0       -0.680600    2.400500    1.414400
     10          1           0       -1.909200    3.165700    2.402600
     11          1           0       -0.438800    2.542000    3.164200
     12          5           0       -2.857700    0.512500    1.263600
     13          6           0       -3.326400    1.793400    0.358700
     14          1           0       -2.480200    2.317600   -0.105800
     15          1           0       -4.003200    1.505600   -0.455500
     16          1           0       -3.862400    2.542900    0.962400
     17          8           0       -2.073600   -0.475000    0.384000
     18          8           0       -3.966500   -0.323100    1.756400
     19          6           0       -4.163300   -1.428700    0.901000
     20          6           0       -2.715500   -1.758500    0.387200
     21          6           0       -5.124900   -1.065200   -0.244900
     22          1           0       -5.426500   -1.954100   -0.812100
     23          1           0       -6.025200   -0.610500    0.183600
     24          1           0       -4.687600   -0.350600   -0.945900
     25          6           0       -4.807100   -2.556900    1.707400
     26          1           0       -5.825400   -2.266600    1.992000
     27          1           0       -4.871500   -3.481600    1.120700
     28          1           0       -4.248600   -2.762900    2.624700
     29          6           0       -2.666900   -2.354100   -1.017000
     30          1           0       -3.074000   -1.672400   -1.766000
     31          1           0       -1.627700   -2.570500   -1.290300
     32          1           0       -3.227800   -3.296200   -1.052500
     33          6           0       -1.966700   -2.712000    1.325900
     34          1           0       -2.008400   -2.383000    2.366900
     35          1           0       -2.384600   -3.723400    1.268200
     36          1           0       -0.913500   -2.766600    1.030900
     37         15           0        1.914800   -0.784700    0.604400
     38          8           0        0.958800   -0.440300   -0.516600
     39          8           0        1.313200   -1.488000    1.865400
     40          7           0       -0.115000   -0.578300    2.572500
     41          1           0       -0.619900   -0.600400    1.676400
     42          1           0        0.397700    0.307200    2.613800
     43          3           0       -0.785400    0.221100   -0.908000
     44          6           0        0.892400    2.084600   -2.450100
     45          8           0       -0.120100    2.221900   -1.436100
     46          6           0       -0.578400    3.582400   -1.381700
     47          6           0        0.412200    4.389200   -2.213000
     48          6           0        0.833700    3.366500   -3.270300
     49          1           0        1.866100    1.965100   -1.959000
     50          1           0        0.675900    1.180400   -3.021100
     51          1           0       -1.589600    3.632400   -1.805500
     52          1           0       -0.622400    3.892400   -0.333400
     53          1           0       -0.041300    5.291200   -2.632600
     54          1           0        1.275000    4.683800   -1.604300
     55          1           0        0.071200    3.289400   -4.054400
     56          1           0        1.793000    3.598400   -3.741200
     57          6           0       -2.361100    0.749500   -3.340800
     58          8           0       -1.357300   -0.103100   -2.771100
     59          6           0       -0.854100   -1.015600   -3.752100
     60          6           0       -1.241200   -0.406000   -5.092500
     61          6           0       -2.594700    0.228300   -4.756800
     62          1           0       -3.252100    0.709000   -2.706200
     63          1           0       -1.975400    1.775900   -3.340800
     64          1           0        0.223400   -1.119000   -3.595800
     65          1           0       -1.327800   -1.996000   -3.608500
     66          1           0       -0.517600    0.363600   -5.386500
     67          1           0       -1.298800   -1.153500   -5.888400
     68          1           0       -2.884300    1.025800   -5.446100
     69          1           0       -3.381300   -0.534900   -4.759400
     70          6           0        3.224300   -1.889500    0.011200
     71          6           0        3.772400   -2.880100    0.831900
     72          6           0        3.706400   -1.726000   -1.292700
     73          6           0        4.794800   -3.697900    0.353000
     74          1           0        3.393500   -3.016000    1.840700
     75          6           0        4.728900   -2.542900   -1.768800
     76          1           0        3.277500   -0.962400   -1.936800
     77          6           0        5.274000   -3.528900   -0.945500
     78          1           0        5.214600   -4.468600    0.993600
     79          1           0        5.098200   -2.413300   -2.782500
     80          1           0        6.070800   -4.167300   -1.317700
     81          6           0        2.724200    0.736000    1.200200
     82          6           0        3.846300    0.670500    2.035600
     83          6           0        2.170900    1.981400    0.891400
     84          6           0        4.407300    1.836000    2.550500
     85          1           0        4.286800   -0.291900    2.285900
     86          6           0        2.728300    3.148300    1.414000
     87          1           0        1.300300    2.034200    0.242700
     88          6           0        3.846700    3.077200    2.242000
     89          1           0        5.280300    1.777500    3.194700
     90          1           0        2.286100    4.112100    1.174800
     91          1           0        4.283300    3.985700    2.648100
 ---------------------------------------------------------------------
 Rotational constants (GHZ):           0.0940640           0.0709283           0.0654757
 Standard basis: 6-311++G(d,p) (5D, 7F)
  1260 basis functions,  1940 primitive gaussians,  1301 cartesian basis functions
   157 alpha electrons      157 beta electrons
       nuclear repulsion energy      5650.4545612603 Hartrees.
 NAtoms=   91 NActive=   91 NUniq=   91 SFac= 1.00D+00 NAtFMM=   60 NAOKFM=T Big=T
 Integral buffers will be    131072 words long.
 Raffenetti 2 integral format.
 Two-electron integral symmetry is turned off.
 Nuclear repulsion after empirical dispersion term =     5650.3422320205 Hartrees.
 ------------------------------------------------------------------------------
 Polarizable Continuum Model (PCM)
 =================================
 Model                : PCM.
 Atomic radii         : SMD-Coulomb.
 Polarization charges : Total charges.
 Charge compensation  : None.
 Solution method      : On-the-fly selection.
 Cavity type          : VdW (van der Waals Surface) (Alpha=1.000).
 Cavity algorithm     : GePol (No added spheres)
                        Default sphere list used, NSphG=   91.
                        Lebedev-Laikov grids with approx.  5.0 points / Ang**2.
                        Smoothing algorithm: York/Karplus (Gamma=1.0000).
                        Polarization charges: spherical gaussians, with
                                              point-specific exponents (IZeta= 3).
                        Self-potential: point-specific (ISelfS= 7).
                        Self-field    : sphere-specific E.n sum rule (ISelfD= 2).
 Solvent              : TetraHydroFuran, Eps=   7.425700 Eps(inf)=   1.974025
 ------------------------------------------------------------------------------
 ------------------------------------------------------------------------------
 Atomic radii for non-electrostatic terms: SMD-CDS.
 ------------------------------------------------------------------------------
 Nuclear repulsion after PCM non-electrostatic terms =     5650.3324087382 Hartrees.
 One-electron integrals computed using PRISM.
 NBasis=  1260 RedAO= T EigKep=  1.11D-06  NBF=  1260
 NBsUse=  1251 1.00D-06 EigRej=  8.68D-07 NBFU=  1251
 ExpMin= 7.40D-03 ExpMax= 7.75D+04 ExpMxC= 2.65D+03 IAcc=3 IRadAn=         5 AccDes= 0.00D+00
 Harris functional with IExCor= 4639 and IRadAn=       5 diagonalized for initial guess.
 HarFok:  IExCor= 4639 AccDes= 0.00D+00 IRadAn=         5 IDoV= 1 UseB2=F ITyADJ=14
 ICtDFT=  3500011 ScaDFX=  1.000000  1.000000  1.000000  1.000000
 FoFCou: FMM=F IPFlag=           0 FMFlag=      100000 FMFlg1=        2001
         NFxFlg=           0 DoJE=T BraDBF=F KetDBF=T FulRan=T
         wScrn=  0.000000 ICntrl=       500 IOpCl=  0 I1Cent=   200000004 NGrid=           0
         NMat0=    1 NMatS0=      1 NMatT0=    0 NMatD0=    1 NMtDS0=    0 NMtDT0=    0
 Symmetry not used in FoFCou.
 Requested convergence on RMS density matrix=1.00D-08 within 128 cycles.
 Requested convergence on MAX density matrix=1.00D-06.
 Requested convergence on             energy=1.00D-06.
 No special actions if energy rises.
 Inv3:  Mode=1 IEnd=    90816012.
 Iteration    1 A*A^-1 deviation from unit magnitude is 6.77D-15 for   5499.
 Iteration    1 A*A^-1 deviation from orthogonality  is 3.24D-15 for   5493   5066.
 Iteration    1 A^-1*A deviation from unit magnitude is 6.88D-15 for   5499.
 Iteration    1 A^-1*A deviation from orthogonality  is 3.94D-15 for   4297   4129.
 Error on total polarization charges =  0.07908
 SCF Done:  E(RwB97XD) =  -2091.35131685     A.U. after   18 cycles
            NFock= 18  Conv=0.30D-08     -V/T= 2.0040
 SMD-CDS (non-electrostatic) energy       (kcal/mol) =      -6.16
 (included in total energy above)

 **********************************************************************

            Population analysis using the SCF Density.

 **********************************************************************

 Alpha  occ. eigenvalues --  -77.29054 -19.25641 -19.25579 -19.22949 -19.20360
 Alpha  occ. eigenvalues --  -19.19760 -19.18209 -14.48693 -10.32543 -10.32528
 Alpha  occ. eigenvalues --  -10.32525 -10.32137 -10.31938 -10.31416 -10.29814
 Alpha  occ. eigenvalues --  -10.29738 -10.29683 -10.29624 -10.29570 -10.29493
 Alpha  occ. eigenvalues --  -10.29464 -10.29277 -10.29274 -10.29240 -10.29209
 Alpha  occ. eigenvalues --  -10.29204 -10.28056 -10.28033 -10.28017 -10.28015
 Alpha  occ. eigenvalues --  -10.27971 -10.26387 -10.26231 -10.26186 -10.25266
 Alpha  occ. eigenvalues --  -10.25063 -10.24863 -10.24635 -10.21203  -6.81519
 Alpha  occ. eigenvalues --   -6.73443  -4.88198  -4.88117  -4.88074  -1.99361
 Alpha  occ. eigenvalues --   -1.14807  -1.14269  -1.10727  -1.10476  -1.04686
 Alpha  occ. eigenvalues --   -1.04051  -0.96609  -0.96339  -0.94706  -0.88568
 Alpha  occ. eigenvalues --   -0.88468  -0.88059  -0.87124  -0.86133  -0.85228
 Alpha  occ. eigenvalues --   -0.85181  -0.84982  -0.83954  -0.83729  -0.82099
 Alpha  occ. eigenvalues --   -0.81025  -0.78085  -0.75299  -0.74823  -0.73838
 Alpha  occ. eigenvalues --   -0.72853  -0.70532  -0.70244  -0.69766  -0.69112
 Alpha  occ. eigenvalues --   -0.68955  -0.68499  -0.68423  -0.68259  -0.64915
 Alpha  occ. eigenvalues --   -0.61757  -0.61037  -0.60771  -0.60490  -0.59797
 Alpha  occ. eigenvalues --   -0.59138  -0.58737  -0.58679  -0.58294  -0.58253
 Alpha  occ. eigenvalues --   -0.55249  -0.54759  -0.54576  -0.54356  -0.53655
 Alpha  occ. eigenvalues --   -0.53089  -0.52690  -0.52395  -0.52072  -0.51837
 Alpha  occ. eigenvalues --   -0.51656  -0.51530  -0.51122  -0.51024  -0.50731
 Alpha  occ. eigenvalues --   -0.50623  -0.50480  -0.49962  -0.49203  -0.49149
 Alpha  occ. eigenvalues --   -0.48563  -0.48357  -0.47885  -0.46936  -0.46568
 Alpha  occ. eigenvalues --   -0.46447  -0.46393  -0.46249  -0.46019  -0.45284
 Alpha  occ. eigenvalues --   -0.44764  -0.44688  -0.44199  -0.44114  -0.43871
 Alpha  occ. eigenvalues --   -0.43468  -0.43269  -0.43126  -0.43043  -0.42870
 Alpha  occ. eigenvalues --   -0.42823  -0.42688  -0.42113  -0.41919  -0.41671
 Alpha  occ. eigenvalues --   -0.41441  -0.41356  -0.41260  -0.40866  -0.40535
 Alpha  occ. eigenvalues --   -0.39840  -0.39174  -0.39023  -0.37613  -0.37126
 Alpha  occ. eigenvalues --   -0.36283  -0.35815  -0.34707  -0.34625  -0.34335
 Alpha  occ. eigenvalues --   -0.34279  -0.33770  -0.33635  -0.32834  -0.31280
 Alpha  occ. eigenvalues --   -0.29184  -0.28489
 Alpha virt. eigenvalues --    0.01548   0.02327   0.02585   0.02675   0.02803
 Alpha virt. eigenvalues --    0.02976   0.04124   0.04841   0.05264   0.05372
 Alpha virt. eigenvalues --    0.05554   0.05833   0.05953   0.06171   0.06854
 Alpha virt. eigenvalues --    0.06970   0.07086   0.07190   0.07326   0.07529
 Alpha virt. eigenvalues --    0.07637   0.07830   0.07864   0.08042   0.08224
 Alpha virt. eigenvalues --    0.08538   0.08750   0.08897   0.09269   0.09375
 Alpha virt. eigenvalues --    0.09417   0.09848   0.10020   0.10253   0.10546
 Alpha virt. eigenvalues --    0.10809   0.11060   0.11130   0.11386   0.11657
 Alpha virt. eigenvalues --    0.12160   0.12332   0.12518   0.12652   0.13060
 Alpha virt. eigenvalues --    0.13250   0.13431   0.13678   0.13819   0.13929
 Alpha virt. eigenvalues --    0.14107   0.14285   0.14649   0.14886   0.15007
 Alpha virt. eigenvalues --    0.15103   0.15552   0.15611   0.15822   0.15992
 Alpha virt. eigenvalues --    0.16059   0.16218   0.16257   0.16468   0.16797
 Alpha virt. eigenvalues --    0.16903   0.16938   0.17205   0.17362   0.17452
 Alpha virt. eigenvalues --    0.17598   0.17726   0.17779   0.17934   0.18008
 Alpha virt. eigenvalues --    0.18123   0.18356   0.18473   0.18597   0.18693
 Alpha virt. eigenvalues --    0.18858   0.18974   0.19081   0.19198   0.19371
 Alpha virt. eigenvalues --    0.19556   0.19751   0.19885   0.20049   0.20121
 Alpha virt. eigenvalues --    0.20214   0.20307   0.20414   0.20576   0.20700
 Alpha virt. eigenvalues --    0.20895   0.20976   0.21051   0.21215   0.21447
 Alpha virt. eigenvalues --    0.21517   0.21747   0.21801   0.21917   0.22169
 Alpha virt. eigenvalues --    0.22235   0.22331   0.22727   0.22767   0.22791
 Alpha virt. eigenvalues --    0.22892   0.23071   0.23171   0.23290   0.23509
 Alpha virt. eigenvalues --    0.23606   0.23701   0.23795   0.23977   0.24101
 Alpha virt. eigenvalues --    0.24117   0.24292   0.24439   0.24610   0.24768
 Alpha virt. eigenvalues --    0.24867   0.25002   0.25052   0.25271   0.25439
 Alpha virt. eigenvalues --    0.25556   0.25630   0.25795   0.25945   0.26010
 Alpha virt. eigenvalues --    0.26193   0.26378   0.26463   0.26572   0.26636
 Alpha virt. eigenvalues --    0.26851   0.26930   0.27022   0.27285   0.27363
 Alpha virt. eigenvalues --    0.27559   0.27694   0.27855   0.27953   0.28138
 Alpha virt. eigenvalues --    0.28152   0.28265   0.28489   0.28637   0.28898
 Alpha virt. eigenvalues --    0.28996   0.29087   0.29213   0.29628   0.29890
 Alpha virt. eigenvalues --    0.29964   0.30055   0.30135   0.30395   0.30429
 Alpha virt. eigenvalues --    0.30617   0.30633   0.30838   0.31062   0.31174
 Alpha virt. eigenvalues --    0.31326   0.31401   0.31593   0.31906   0.32006
 Alpha virt. eigenvalues --    0.32078   0.32236   0.32431   0.32635   0.32742
 Alpha virt. eigenvalues --    0.32790   0.32998   0.33174   0.33330   0.33604
 Alpha virt. eigenvalues --    0.33749   0.33924   0.34233   0.34353   0.34433
 Alpha virt. eigenvalues --    0.34739   0.35006   0.35100   0.35215   0.35323
 Alpha virt. eigenvalues --    0.35483   0.35593   0.35763   0.36001   0.36087
 Alpha virt. eigenvalues --    0.36336   0.36405   0.36624   0.36733   0.37051
 Alpha virt. eigenvalues --    0.37183   0.37254   0.37485   0.37541   0.37889
 Alpha virt. eigenvalues --    0.37926   0.38289   0.38412   0.38593   0.38670
 Alpha virt. eigenvalues --    0.38898   0.39136   0.39309   0.39378   0.39504
 Alpha virt. eigenvalues --    0.39662   0.39743   0.40070   0.40222   0.40252
 Alpha virt. eigenvalues --    0.40590   0.40709   0.40960   0.41090   0.41202
 Alpha virt. eigenvalues --    0.41454   0.41574   0.41705   0.41976   0.42162
 Alpha virt. eigenvalues --    0.42365   0.42495   0.42572   0.42662   0.43006
 Alpha virt. eigenvalues --    0.43297   0.43363   0.43652   0.43864   0.43915
 Alpha virt. eigenvalues --    0.44078   0.44223   0.44357   0.44663   0.45038
 Alpha virt. eigenvalues --    0.45369   0.45392   0.45502   0.45836   0.45992
 Alpha virt. eigenvalues --    0.46328   0.46520   0.46642   0.46717   0.47076
 Alpha virt. eigenvalues --    0.47172   0.47573   0.47742   0.48190   0.48317
 Alpha virt. eigenvalues --    0.48348   0.48670   0.48803   0.48892   0.49347
 Alpha virt. eigenvalues --    0.49521   0.49603   0.49807   0.50552   0.50946
 Alpha virt. eigenvalues --    0.51477   0.51683   0.51883   0.52350   0.52644
 Alpha virt. eigenvalues --    0.52859   0.53281   0.53872   0.54221   0.54380
 Alpha virt. eigenvalues --    0.54738   0.55056   0.55378   0.55721   0.56365
 Alpha virt. eigenvalues --    0.56416   0.56692   0.57040   0.57543   0.57902
 Alpha virt. eigenvalues --    0.58480   0.58632   0.58754   0.59155   0.59655
 Alpha virt. eigenvalues --    0.60077   0.60211   0.60810   0.61170   0.61429
 Alpha virt. eigenvalues --    0.61616   0.61966   0.61993   0.62535   0.62783
 Alpha virt. eigenvalues --    0.62862   0.63434   0.63791   0.63939   0.64094
 Alpha virt. eigenvalues --    0.64402   0.64722   0.65013   0.65331   0.65441
 Alpha virt. eigenvalues --    0.65954   0.66281   0.66399   0.66660   0.66738
 Alpha virt. eigenvalues --    0.67009   0.67727   0.67904   0.68028   0.68285
 Alpha virt. eigenvalues --    0.68412   0.68838   0.69263   0.69362   0.69815
 Alpha virt. eigenvalues --    0.69945   0.70321   0.70478   0.70812   0.71105
 Alpha virt. eigenvalues --    0.71153   0.71329   0.71683   0.72093   0.72200
 Alpha virt. eigenvalues --    0.72475   0.72860   0.72987   0.73179   0.73319
 Alpha virt. eigenvalues --    0.73655   0.73996   0.74477   0.74547   0.74687
 Alpha virt. eigenvalues --    0.74853   0.75263   0.75345   0.75714   0.75893
 Alpha virt. eigenvalues --    0.76047   0.76578   0.76790   0.77244   0.77521
 Alpha virt. eigenvalues --    0.77694   0.77848   0.78061   0.78395   0.78605
 Alpha virt. eigenvalues --    0.78878   0.79267   0.79441   0.79963   0.80426
 Alpha virt. eigenvalues --    0.80564   0.80804   0.81088   0.81325   0.81494
 Alpha virt. eigenvalues --    0.81882   0.82030   0.82185   0.82340   0.82829
 Alpha virt. eigenvalues --    0.83116   0.83245   0.83573   0.83780   0.83981
 Alpha virt. eigenvalues --    0.84251   0.84400   0.84515   0.84795   0.84914
 Alpha virt. eigenvalues --    0.85192   0.85371   0.85745   0.85902   0.86366
 Alpha virt. eigenvalues --    0.86532   0.86765   0.87000   0.87268   0.87447
 Alpha virt. eigenvalues --    0.87528   0.87800   0.88071   0.88323   0.88402
 Alpha virt. eigenvalues --    0.88732   0.89125   0.89224   0.89543   0.89687
 Alpha virt. eigenvalues --    0.90064   0.90344   0.90528   0.90679   0.90941
 Alpha virt. eigenvalues --    0.91101   0.91283   0.91473   0.92070   0.92276
 Alpha virt. eigenvalues --    0.92626   0.93046   0.93141   0.93440   0.93690
 Alpha virt. eigenvalues --    0.93926   0.94444   0.94751   0.94905   0.95368
 Alpha virt. eigenvalues --    0.95679   0.95930   0.95991   0.96366   0.97066
 Alpha virt. eigenvalues --    0.97280   0.97640   0.97798   0.98231   0.98576
 Alpha virt. eigenvalues --    0.99072   0.99211   0.99424   0.99678   1.00112
 Alpha virt. eigenvalues --    1.00367   1.00687   1.01287   1.01474   1.01779
 Alpha virt. eigenvalues --    1.02456   1.02738   1.03275   1.03647   1.04197
 Alpha virt. eigenvalues --    1.04499   1.05365   1.05708   1.05979   1.06457
 Alpha virt. eigenvalues --    1.07136   1.07604   1.08005   1.08035   1.09041
 Alpha virt. eigenvalues --    1.09777   1.10095   1.10640   1.11159   1.11444
 Alpha virt. eigenvalues --    1.12015   1.12066   1.12730   1.12963   1.13452
 Alpha virt. eigenvalues --    1.13831   1.14039   1.14570   1.14961   1.15028
 Alpha virt. eigenvalues --    1.15821   1.16324   1.16623   1.16822   1.17140
 Alpha virt. eigenvalues --    1.17887   1.18352   1.18501   1.18749   1.18982
 Alpha virt. eigenvalues --    1.19486   1.20790   1.21054   1.21556   1.21854
 Alpha virt. eigenvalues --    1.22710   1.23719   1.23988   1.24183   1.24512
 Alpha virt. eigenvalues --    1.25010   1.25100   1.26479   1.26978   1.27685
 Alpha virt. eigenvalues --    1.28518   1.28994   1.29249   1.30035   1.30172
 Alpha virt. eigenvalues --    1.30516   1.31058   1.31238   1.31694   1.32196
 Alpha virt. eigenvalues --    1.32640   1.33817   1.33948   1.34963   1.35296
 Alpha virt. eigenvalues --    1.35445   1.35887   1.36349   1.37380   1.38352
 Alpha virt. eigenvalues --    1.39696   1.39985   1.40605   1.40916   1.41064
 Alpha virt. eigenvalues --    1.42593   1.42898   1.43524   1.43998   1.44186
 Alpha virt. eigenvalues --    1.44732   1.45043   1.45564   1.46322   1.47261
 Alpha virt. eigenvalues --    1.47402   1.47612   1.49112   1.50096   1.50651
 Alpha virt. eigenvalues --    1.50827   1.51845   1.52300   1.52676   1.53297
 Alpha virt. eigenvalues --    1.53704   1.54211   1.54747   1.55168   1.55633
 Alpha virt. eigenvalues --    1.56860   1.57412   1.57780   1.58182   1.58585
 Alpha virt. eigenvalues --    1.58799   1.59520   1.59883   1.59929   1.60481
 Alpha virt. eigenvalues --    1.61165   1.61461   1.61949   1.62241   1.62478
 Alpha virt. eigenvalues --    1.63408   1.63667   1.64012   1.64176   1.64330
 Alpha virt. eigenvalues --    1.64712   1.65405   1.65665   1.65774   1.65891
 Alpha virt. eigenvalues --    1.66277   1.66527   1.66822   1.66932   1.67455
 Alpha virt. eigenvalues --    1.67710   1.67882   1.67955   1.68348   1.68745
 Alpha virt. eigenvalues --    1.69054   1.69382   1.69931   1.70161   1.70773
 Alpha virt. eigenvalues --    1.71203   1.71351   1.71413   1.71931   1.72128
 Alpha virt. eigenvalues --    1.72741   1.72922   1.73420   1.73845   1.74262
 Alpha virt. eigenvalues --    1.74618   1.74822   1.75016   1.75989   1.76052
 Alpha virt. eigenvalues --    1.76189   1.76646   1.76830   1.77000   1.77395
 Alpha virt. eigenvalues --    1.77639   1.77768   1.77871   1.78323   1.78468
 Alpha virt. eigenvalues --    1.79013   1.79153   1.79547   1.79925   1.80014
 Alpha virt. eigenvalues --    1.80694   1.81140   1.81527   1.81929   1.82496
 Alpha virt. eigenvalues --    1.82775   1.83156   1.83278   1.83682   1.84009
 Alpha virt. eigenvalues --    1.84304   1.84704   1.85003   1.85181   1.85428
 Alpha virt. eigenvalues --    1.86163   1.86914   1.87162   1.87380   1.87694
 Alpha virt. eigenvalues --    1.87830   1.88312   1.88677   1.88795   1.89232
 Alpha virt. eigenvalues --    1.89646   1.89914   1.90148   1.91004   1.91162
 Alpha virt. eigenvalues --    1.91285   1.91496   1.91925   1.92419   1.92934
 Alpha virt. eigenvalues --    1.93373   1.93419   1.93646   1.93914   1.94369
 Alpha virt. eigenvalues --    1.94592   1.94880   1.95256   1.96181   1.96978
 Alpha virt. eigenvalues --    1.97406   1.97990   1.98189   1.99049   1.99329
 Alpha virt. eigenvalues --    1.99745   2.00130   2.00744   2.01280   2.01402
 Alpha virt. eigenvalues --    2.02143   2.02283   2.02486   2.02883   2.03150
 Alpha virt. eigenvalues --    2.03624   2.04703   2.04768   2.05411   2.05540
 Alpha virt. eigenvalues --    2.05646   2.06378   2.06999   2.07360   2.07726
 Alpha virt. eigenvalues --    2.07917   2.08110   2.08277   2.08569   2.08923
 Alpha virt. eigenvalues --    2.09570   2.09861   2.09893   2.10729   2.11046
 Alpha virt. eigenvalues --    2.11278   2.11631   2.12360   2.13051   2.13163
 Alpha virt. eigenvalues --    2.13835   2.14503   2.15047   2.15275   2.15779
 Alpha virt. eigenvalues --    2.16102   2.16880   2.17242   2.17503   2.18423
 Alpha virt. eigenvalues --    2.18875   2.19601   2.19912   2.20407   2.21379
 Alpha virt. eigenvalues --    2.21763   2.22341   2.22963   2.23542   2.23585
 Alpha virt. eigenvalues --    2.24228   2.24779   2.25482   2.25936   2.26901
 Alpha virt. eigenvalues --    2.27986   2.28223   2.28725   2.29305   2.29890
 Alpha virt. eigenvalues --    2.30296   2.30862   2.31695   2.31823   2.32801
 Alpha virt. eigenvalues --    2.33247   2.34215   2.34951   2.36211   2.36807
 Alpha virt. eigenvalues --    2.37228   2.37699   2.38842   2.39349   2.40488
 Alpha virt. eigenvalues --    2.40678   2.41124   2.41430   2.41495   2.41971
 Alpha virt. eigenvalues --    2.42369   2.42510   2.43060   2.43150   2.43439
 Alpha virt. eigenvalues --    2.44917   2.45545   2.45696   2.46300   2.46723
 Alpha virt. eigenvalues --    2.47470   2.47606   2.48403   2.49496   2.50917
 Alpha virt. eigenvalues --    2.51979   2.52293   2.52777   2.53481   2.54001
 Alpha virt. eigenvalues --    2.55446   2.56014   2.56635   2.57669   2.58580
 Alpha virt. eigenvalues --    2.58989   2.59182   2.59392   2.59715   2.60316
 Alpha virt. eigenvalues --    2.61126   2.62063   2.62503   2.63444   2.63812
 Alpha virt. eigenvalues --    2.64075   2.64652   2.65098   2.65732   2.65954
 Alpha virt. eigenvalues --    2.66482   2.66867   2.67243   2.67652   2.67994
 Alpha virt. eigenvalues --    2.68649   2.69007   2.69425   2.70245   2.70659
 Alpha virt. eigenvalues --    2.71218   2.71669   2.72338   2.72634   2.73241
 Alpha virt. eigenvalues --    2.73320   2.73923   2.74229   2.74661   2.75122
 Alpha virt. eigenvalues --    2.75447   2.75954   2.76050   2.76116   2.77631
 Alpha virt. eigenvalues --    2.77921   2.78102   2.78630   2.79444   2.80174
 Alpha virt. eigenvalues --    2.80588   2.81315   2.81721   2.81995   2.82548
 Alpha virt. eigenvalues --    2.82903   2.83824   2.83891   2.84416   2.84762
 Alpha virt. eigenvalues --    2.84988   2.85434   2.85703   2.86251   2.86643
 Alpha virt. eigenvalues --    2.87233   2.87409   2.88034   2.88756   2.89063
 Alpha virt. eigenvalues --    2.89664   2.89782   2.90263   2.90879   2.91481
 Alpha virt. eigenvalues --    2.92042   2.92326   2.93307   2.93551   2.93821
 Alpha virt. eigenvalues --    2.94070   2.94552   2.94881   2.95228   2.95584
 Alpha virt. eigenvalues --    2.95650   2.95950   2.96582   2.96771   2.96875
 Alpha virt. eigenvalues --    2.97054   2.97971   2.98847   2.98976   2.99321
 Alpha virt. eigenvalues --    2.99537   3.00239   3.00585   3.01403   3.01617
 Alpha virt. eigenvalues --    3.01811   3.02870   3.03164   3.03796   3.04268
 Alpha virt. eigenvalues --    3.04729   3.05126   3.05230   3.05640   3.06213
 Alpha virt. eigenvalues --    3.06359   3.07152   3.07540   3.07663   3.08069
 Alpha virt. eigenvalues --    3.08676   3.08944   3.09757   3.10289   3.11029
 Alpha virt. eigenvalues --    3.11273   3.12086   3.14308   3.15059   3.15692
 Alpha virt. eigenvalues --    3.16075   3.16914   3.17848   3.18784   3.19558
 Alpha virt. eigenvalues --    3.20296   3.20861   3.20942   3.21647   3.22140
 Alpha virt. eigenvalues --    3.22416   3.22715   3.24155   3.25157   3.25815
 Alpha virt. eigenvalues --    3.26947   3.27848   3.28878   3.29346   3.29902
 Alpha virt. eigenvalues --    3.31162   3.31470   3.32293   3.32882   3.33331
 Alpha virt. eigenvalues --    3.33472   3.34428   3.35187   3.36765   3.37123
 Alpha virt. eigenvalues --    3.37951   3.38140   3.40079   3.40699   3.42658
 Alpha virt. eigenvalues --    3.42836   3.43516   3.44048   3.44276   3.45596
 Alpha virt. eigenvalues --    3.46222   3.47976   3.48508   3.48644   3.49624
 Alpha virt. eigenvalues --    3.50374   3.51458   3.52796   3.54892   3.55405
 Alpha virt. eigenvalues --    3.56076   3.59093   3.62101   3.62781   3.66569
 Alpha virt. eigenvalues --    3.67180   3.67718   3.69078   3.70091   3.73715
 Alpha virt. eigenvalues --    3.74202   3.76757   3.78673   3.79073   3.83071
 Alpha virt. eigenvalues --    3.84751   3.88732   3.89696   3.90218   3.91658
 Alpha virt. eigenvalues --    3.91933   3.92844   3.93216   3.93489   3.94151
 Alpha virt. eigenvalues --    3.94484   3.95863   3.96335   3.96514   3.96852
 Alpha virt. eigenvalues --    3.98280   3.98632   3.99522   3.99838   4.00698
 Alpha virt. eigenvalues --    4.02798   4.03951   4.07911   4.08469   4.08658
 Alpha virt. eigenvalues --    4.10787   4.12114   4.14301   4.14940   4.15311
 Alpha virt. eigenvalues --    4.17452   4.19847   4.25500   4.25783   4.26209
 Alpha virt. eigenvalues --    4.27082   4.28316   4.28717   4.31549   4.32502
 Alpha virt. eigenvalues --    4.33040   4.34224   4.36727   4.39153   4.39667
 Alpha virt. eigenvalues --    4.40632   4.42053   4.43744   4.45264   4.47585
 Alpha virt. eigenvalues --    4.51981   4.53894   4.56086   4.71235   4.84143
 Alpha virt. eigenvalues --    4.95062   4.96105   5.33966   5.34835   5.37225
 Alpha virt. eigenvalues --    5.42463   5.43661   5.46450   5.46817   5.51365
 Alpha virt. eigenvalues --    5.59398   5.61365   5.62871   5.65894   5.72072
 Alpha virt. eigenvalues --    5.73919   5.77347   5.78249   5.83580   5.91719
 Alpha virt. eigenvalues --    7.66766  14.29659  14.37259  14.46238  14.94606
 Alpha virt. eigenvalues --   23.77356  23.80742  23.96157  23.97104  24.01751
 Alpha virt. eigenvalues --   24.02038  24.03282  24.05407  24.06709  24.10519
 Alpha virt. eigenvalues --   24.10892  24.11069  24.11801  24.11925  24.12421
 Alpha virt. eigenvalues --   24.13005  24.13358  24.13886  24.14655  24.17303
 Alpha virt. eigenvalues --   24.17647  24.20302  24.20445  24.21532  24.21891
 Alpha virt. eigenvalues --   24.22815  24.23103  24.24410  24.32126  24.32452
 Alpha virt. eigenvalues --   24.32856  35.73680  50.14596  50.17002  50.17444
 Alpha virt. eigenvalues --   50.20037  50.25610  50.26370 163.92703
          Condensed to atoms (all electrons):
 Mulliken charges:
               1
     1  C   -0.183730
     2  C    0.153497
     3  H    0.261953
     4  C   -0.729369
     5  H    0.202713
     6  H    0.174438
     7  H    0.212155
     8  C   -0.977618
     9  H   -0.043338
    10  H    0.260835
    11  H    0.124845
    12  B    0.763714
    13  C   -0.678319
    14  H    0.138938
    15  H    0.132789
    16  H    0.153443
    17  O    0.099632
    18  O   -0.076199
    19  C    0.211052
    20  C   -0.632650
    21  C   -0.249334
    22  H    0.191290
    23  H    0.210717
    24  H    0.055364
    25  C   -0.822516
    26  H    0.191123
    27  H    0.182906
    28  H    0.182908
    29  C   -0.935625
    30  H    0.219814
    31  H    0.247108
    32  H    0.242807
    33  C   -0.289918
    34  H    0.226704
    35  H    0.205055
    36  H    0.190084
    37  P   -0.236409
    38  O   -0.024308
    39  O    0.268585
    40  N   -0.384553
    41  H   -0.073735
    42  H    0.147492
    43  Li  -0.591624
    44  C   -0.015793
    45  O    0.098835
    46  C   -0.014229
    47  C   -0.759076
    48  C   -0.612729
    49  H    0.214616
    50  H    0.096013
    51  H    0.206130
    52  H    0.180368
    53  H    0.265588
    54  H    0.168007
    55  H    0.173518
    56  H    0.258644
    57  C   -0.047711
    58  O    0.151430
    59  C   -0.136943
    60  C   -0.496607
    61  C   -0.592892
    62  H    0.231299
    63  H    0.124444
    64  H    0.221012
    65  H    0.165012
    66  H    0.186174
    67  H    0.249304
    68  H    0.240987
    69  H    0.204741
    70  C    0.564217
    71  C   -0.199715
    72  C   -0.071470
    73  C   -0.365964
    74  H    0.277908
    75  C   -0.153296
    76  H    0.337208
    77  C   -0.505228
    78  H    0.285023
    79  H    0.286976
    80  H    0.254634
    81  C   -0.697333
    82  C   -0.018948
    83  C    0.342241
    84  C   -0.433757
    85  H    0.310367
    86  C    0.005440
    87  H   -0.029177
    88  C   -0.521395
    89  H    0.274983
    90  H    0.308380
    91  H    0.266048
 Sum of Mulliken charges =  -0.00000
 Mulliken charges with hydrogens summed into heavy atoms:
               1
     1  C   -0.183730
     2  C    0.415450
     4  C   -0.140063
     8  C   -0.635275
    12  B    0.763714
    13  C   -0.253150
    17  O    0.099632
    18  O   -0.076199
    19  C    0.211052
    20  C   -0.632650
    21  C    0.208036
    25  C   -0.265579
    29  C   -0.225897
    33  C    0.331925
    37  P   -0.236409
    38  O   -0.024308
    39  O    0.268585
    40  N   -0.310796
    43  Li  -0.591624
    44  C    0.294836
    45  O    0.098835
    46  C    0.372269
    47  C   -0.325481
    48  C   -0.180566
    57  C    0.308032
    58  O    0.151430
    59  C    0.249080
    60  C   -0.061128
    61  C   -0.147164
    70  C    0.564217
    71  C    0.078193
    72  C    0.265739
    73  C   -0.080941
    75  C    0.133680
    77  C   -0.250594
    81  C   -0.697333
    82  C    0.291418
    83  C    0.313064
    84  C   -0.158774
    86  C    0.313820
    88  C   -0.255346
 Electronic spatial extent (au):  <R**2>=          20728.0522
 Charge=             -0.0000 electrons
 Dipole moment (field-independent basis, Debye):
    X=              6.4937    Y=              4.3758    Z=             -9.4008  Tot=             12.2348
 Quadrupole moment (field-independent basis, Debye-Ang):
   XX=           -260.1016   YY=           -232.0646   ZZ=           -228.1660
   XY=              1.9883   XZ=             19.8468   YZ=              1.6593
 Traceless Quadrupole moment (field-independent basis, Debye-Ang):
   XX=            -19.9909   YY=              8.0461   ZZ=             11.9447
   XY=              1.9883   XZ=             19.8468   YZ=              1.6593
 Octapole moment (field-independent basis, Debye-Ang**2):
  XXX=            209.4552  YYY=             47.2801  ZZZ=           -157.0523  XYY=             62.6880
  XXY=            -76.4123  XXZ=            -64.9159  XZZ=             25.7977  YZZ=             26.8097
  YYZ=            -32.8860  XYZ=             20.1186
 Hexadecapole moment (field-independent basis, Debye-Ang**3):
 XXXX=         -13239.8557 YYYY=          -6560.6233 ZZZZ=          -7930.7100 XXXY=           -192.6169
 XXXZ=            111.7281 YYYX=             -1.9863 YYYZ=             49.8536 ZZZX=            -62.4981
 ZZZY=            146.2576 XXYY=          -2978.8043 XXZZ=          -3400.3475 YYZZ=          -2439.2301
 XXYZ=            153.9572 YYXZ=             11.2153 ZZXY=             14.5107
 N-N= 5.650332408738D+03 E-N=-1.619470448900D+04  KE= 2.083009796757D+03
 Unable to Open any file for archive entry.
 1\1\GINC-NODE17\SP\RwB97XD\6-311++G(d,p)\C31H50B1Li1N1O6P1\WHUGHES2\08
 -Oct-2025\0\\# wb97xd/6-311++g** nosymm int=ultrafine scrf=(smd,solven
 t=tetrahydrofuran)\\aminationTS-full-unfrz-c15_tzpop-sp\\0,1\C,0,-1.90
 84,1.0256,2.5288\C,0,-1.8129,0.2853,3.6743\H,0,-2.4313,-0.6111,3.7131\
 C,0,-1.1531,0.6407,4.978\H,0,-0.7287,-0.2555,5.4442\H,0,-0.3526,1.3797
 ,4.8749\H,0,-1.896,1.0501,5.6759\C,0,-1.1839,2.3409,2.3863\H,0,-0.6806
 ,2.4005,1.4144\H,0,-1.9092,3.1657,2.4026\H,0,-0.4388,2.542,3.1642\B,0,
 -2.8577,0.5125,1.2636\C,0,-3.3264,1.7934,0.3587\H,0,-2.4802,2.3176,-0.
 1058\H,0,-4.0032,1.5056,-0.4555\H,0,-3.8624,2.5429,0.9624\O,0,-2.0736,
 -0.475,0.384\O,0,-3.9665,-0.3231,1.7564\C,0,-4.1633,-1.4287,0.901\C,0,
 -2.7155,-1.7585,0.3872\C,0,-5.1249,-1.0652,-0.2449\H,0,-5.4265,-1.9541
 ,-0.8121\H,0,-6.0252,-0.6105,0.1836\H,0,-4.6876,-0.3506,-0.9459\C,0,-4
 .8071,-2.5569,1.7074\H,0,-5.8254,-2.2666,1.992\H,0,-4.8715,-3.4816,1.1
 207\H,0,-4.2486,-2.7629,2.6247\C,0,-2.6669,-2.3541,-1.017\H,0,-3.074,-
 1.6724,-1.766\H,0,-1.6277,-2.5705,-1.2903\H,0,-3.2278,-3.2962,-1.0525\
 C,0,-1.9667,-2.712,1.3259\H,0,-2.0084,-2.383,2.3669\H,0,-2.3846,-3.723
 4,1.2682\H,0,-0.9135,-2.7666,1.0309\P,0,1.9148,-0.7847,0.6044\O,0,0.95
 88,-0.4403,-0.5166\O,0,1.3132,-1.488,1.8654\N,0,-0.115,-0.5783,2.5725\
 H,0,-0.6199,-0.6004,1.6764\H,0,0.3977,0.3072,2.6138\Li,0,-0.7854,0.221
 1,-0.908\C,0,0.8924,2.0846,-2.4501\O,0,-0.1201,2.2219,-1.4361\C,0,-0.5
 784,3.5824,-1.3817\C,0,0.4122,4.3892,-2.213\C,0,0.8337,3.3665,-3.2703\
 H,0,1.8661,1.9651,-1.959\H,0,0.6759,1.1804,-3.0211\H,0,-1.5896,3.6324,
 -1.8055\H,0,-0.6224,3.8924,-0.3334\H,0,-0.0413,5.2912,-2.6326\H,0,1.27
 5,4.6838,-1.6043\H,0,0.0712,3.2894,-4.0544\H,0,1.793,3.5984,-3.7412\C,
 0,-2.3611,0.7495,-3.3408\O,0,-1.3573,-0.1031,-2.7711\C,0,-0.8541,-1.01
 56,-3.7521\C,0,-1.2412,-0.406,-5.0925\C,0,-2.5947,0.2283,-4.7568\H,0,-
 3.2521,0.709,-2.7062\H,0,-1.9754,1.7759,-3.3408\H,0,0.2234,-1.119,-3.5
 958\H,0,-1.3278,-1.996,-3.6085\H,0,-0.5176,0.3636,-5.3865\H,0,-1.2988,
 -1.1535,-5.8884\H,0,-2.8843,1.0258,-5.4461\H,0,-3.3813,-0.5349,-4.7594
 \C,0,3.2243,-1.8895,0.0112\C,0,3.7724,-2.8801,0.8319\C,0,3.7064,-1.726
 ,-1.2927\C,0,4.7948,-3.6979,0.353\H,0,3.3935,-3.016,1.8407\C,0,4.7289,
 -2.5429,-1.7688\H,0,3.2775,-0.9624,-1.9368\C,0,5.274,-3.5289,-0.9455\H
 ,0,5.2146,-4.4686,0.9936\H,0,5.0982,-2.4133,-2.7825\H,0,6.0708,-4.1673
 ,-1.3177\C,0,2.7242,0.736,1.2002\C,0,3.8463,0.6705,2.0356\C,0,2.1709,1
 .9814,0.8914\C,0,4.4073,1.836,2.5505\H,0,4.2868,-0.2919,2.2859\C,0,2.7
 283,3.1483,1.414\H,0,1.3003,2.0342,0.2427\C,0,3.8467,3.0772,2.242\H,0,
 5.2803,1.7775,3.1947\H,0,2.2861,4.1121,1.1748\H,0,4.2833,3.9857,2.6481
 \\Version=AS64L-G16RevC.01\HF=-2091.3513169\RMSD=3.009e-09\Dipole=2.55
 48164,1.721574,-3.6985708\Quadrupole=-14.8627195,5.9821125,8.880607,1.
 478268,14.7555728,1.2336256\PG=C01 [X(C31H50B1Li1N1O6P1)]\\@
 The archive entry for this job was punched.


 COMMON SENSE IS NOT SO COMMON.   -- VOLTAIRE
 Job cpu time:       0 days  8 hours 14 minutes 22.3 seconds.
 Elapsed time:       0 days  2 hours  4 minutes 42.6 seconds.
 File lengths (MBytes):  RWF=   1330 Int=      0 D2E=      0 Chk=     95 Scr=      1
 Normal termination of Gaussian 16 at Wed Oct  8 17:32:28 2025.
