Job Start Time: Wed Oct  8 15:27:45 MDT 2025
SLURM Job ID: 768174
SLURM Job Name: aminationTS-full-unfrz-c7_tzpop-sp
 Entering Gaussian System, Link 0=/opt/apps/Gaussian/G16C/g16/g16
 Initial command:
 /opt/apps/Gaussian/G16C/g16/l1.exe "/tmp/768174/Gau-1999631.inp" -scrdir="/tmp/768174/"
 Entering Link 1 = /opt/apps/Gaussian/G16C/g16/l1.exe PID=   1999633.
  
 Copyright (c) 1988-2019, Gaussian, Inc.  All Rights Reserved.
  
 This is part of the Gaussian(R) 16 program.  It is based on
 the Gaussian(R) 09 system (copyright 2009, Gaussian, Inc.),
 the Gaussian(R) 03 system (copyright 2003, Gaussian, Inc.),
 the Gaussian(R) 98 system (copyright 1998, Gaussian, Inc.),
 the Gaussian(R) 94 system (copyright 1995, Gaussian, Inc.),
 the Gaussian 92(TM) system (copyright 1992, Gaussian, Inc.),
 the Gaussian 90(TM) system (copyright 1990, Gaussian, Inc.),
 the Gaussian 88(TM) system (copyright 1988, Gaussian, Inc.),
 the Gaussian 86(TM) system (copyright 1986, Carnegie Mellon
 University), and the Gaussian 82(TM) system (copyright 1983,
 Carnegie Mellon University). Gaussian is a federally registered
 trademark of Gaussian, Inc.
  
 This software contains proprietary and confidential information,
 including trade secrets, belonging to Gaussian, Inc.
  
 This software is provided under written license and may be
 used, copied, transmitted, or stored only in accord with that
 written license.
  
 The following legend is applicable only to US Government
 contracts under FAR:
  
                    RESTRICTED RIGHTS LEGEND
  
 Use, reproduction and disclosure by the US Government is
 subject to restrictions as set forth in subparagraphs (a)
 and (c) of the Commercial Computer Software - Restricted
 Rights clause in FAR 52.227-19.
  
 Gaussian, Inc.
 340 Quinnipiac St., Bldg. 40, Wallingford CT 06492
  
  
 ---------------------------------------------------------------
 Warning -- This program may not be used in any manner that
 competes with the business of Gaussian, Inc. or will provide
 assistance to any competitor of Gaussian, Inc.  The licensee
 of this program is prohibited from giving any competitor of
 Gaussian, Inc. access to this program.  By using this program,
 the user acknowledges that Gaussian, Inc. is engaged in the
 business of creating and licensing software in the field of
 computational chemistry and represents and warrants to the
 licensee that it is not a competitor of Gaussian, Inc. and that
 it will not use this program in any manner prohibited above.
 ---------------------------------------------------------------
  

 Cite this work as:
 Gaussian 16, Revision C.01,
 M. J. Frisch, G. W. Trucks, H. B. Schlegel, G. E. Scuseria, 
 M. A. Robb, J. R. Cheeseman, G. Scalmani, V. Barone, 
 G. A. Petersson, H. Nakatsuji, X. Li, M. Caricato, A. V. Marenich, 
 J. Bloino, B. G. Janesko, R. Gomperts, B. Mennucci, H. P. Hratchian, 
 J. V. Ortiz, A. F. Izmaylov, J. L. Sonnenberg, D. Williams-Young, 
 F. Ding, F. Lipparini, F. Egidi, J. Goings, B. Peng, A. Petrone, 
 T. Henderson, D. Ranasinghe, V. G. Zakrzewski, J. Gao, N. Rega, 
 G. Zheng, W. Liang, M. Hada, M. Ehara, K. Toyota, R. Fukuda, 
 J. Hasegawa, M. Ishida, T. Nakajima, Y. Honda, O. Kitao, H. Nakai, 
 T. Vreven, K. Throssell, J. A. Montgomery, Jr., J. E. Peralta, 
 F. Ogliaro, M. J. Bearpark, J. J. Heyd, E. N. Brothers, K. N. Kudin, 
 V. N. Staroverov, T. A. Keith, R. Kobayashi, J. Normand, 
 K. Raghavachari, A. P. Rendell, J. C. Burant, S. S. Iyengar, 
 J. Tomasi, M. Cossi, J. M. Millam, M. Klene, C. Adamo, R. Cammi, 
 J. W. Ochterski, R. L. Martin, K. Morokuma, O. Farkas, 
 J. B. Foresman, and D. J. Fox, Gaussian, Inc., Wallingford CT, 2019.
 
 ******************************************
 Gaussian 16:  AS64L-G16RevC.01  3-Jul-2019
                 8-Oct-2025 
 ******************************************
 %chk=aminationTS-full-unfrz-c7_tzpop-sp.chk
 %nprocshared=4
 Will use up to    4 processors via shared memory.
 %mem=8GB
 ----------------------------------------------------------------------
 # wb97xd/6-311++g** nosymm int=ultrafine scrf=(smd,solvent=tetrahydrof
 uran)
 ----------------------------------------------------------------------
 1/38=1,172=1/1;
 2/12=2,15=1,17=6,18=5,40=1/2;
 3/5=4,6=6,7=1111,11=2,25=1,30=1,70=32201,72=20,74=-58,75=-5/1,2,3;
 4//1;
 5/5=2,38=5,53=20/2;
 6/7=2,8=2,9=2,10=2,28=1/1;
 99/5=1,9=1/99;
 ----------------------------------
 aminationTS-full-unfrz-c7_tzpop-sp
 ----------------------------------
 Symbolic Z-matrix:
 Charge =  0 Multiplicity = 1
 C                    -2.3786    1.1118    2.0285 
 C                    -2.3327    0.7585    3.3484 
 H                    -2.8915   -0.1392    3.619 
 C                    -1.7162    1.4935    4.501 
 H                    -1.0329    2.2892    4.1934 
 H                    -2.5044    1.944     5.1199 
 H                    -1.1658    0.8007    5.1502 
 C                    -1.7248    2.366     1.5171 
 H                    -2.4971    3.1019    1.2579 
 H                    -1.027     2.8358    2.2167 
 H                    -1.1735    2.1495    0.5956 
 B                    -3.2768    0.2338    0.9513 
 C                    -4.2751    1.2426    0.1349 
 H                    -4.845     1.8903    0.8206 
 H                    -3.7432    1.9091   -0.5591 
 H                    -5.0151    0.6873   -0.4578 
 O                    -2.3052   -0.5175    0.0463 
 O                    -4.0351   -0.8612    1.5907 
 C                    -3.6288   -2.1355    1.1369 
 C                    -2.8085   -1.8393   -0.1754 
 C                    -4.8719   -2.9969    0.8967 
 H                    -5.583    -2.4986    0.2323 
 H                    -4.6086   -3.9702    0.4639 
 H                    -5.3778   -3.1789    1.8521 
 C                    -2.7947   -2.8249    2.2283 
 H                    -1.8547   -2.3058    2.4267 
 H                    -3.3751   -2.8324    3.1579 
 H                    -2.5556   -3.8628    1.9678 
 C                    -3.6821   -1.8388   -1.436 
 H                    -3.0859   -1.4689   -2.2746 
 H                    -4.0244   -2.85     -1.6843 
 H                    -4.5593   -1.1967   -1.3266 
 C                    -1.6273   -2.7799   -0.4053 
 H                    -1.9711   -3.8186   -0.4824 
 H                    -1.1235   -2.5183   -1.3421 
 H                    -0.8899   -2.7152    0.3994 
 P                     1.7396   -0.6092    0.6536 
 O                     0.8408   -0.3926   -0.5479 
 O                     1.0562   -1.134     1.9487 
 N                    -0.4621   -0.0714    2.2943 
 H                    -0.6071   -0.6718    3.1086 
 H                    -0.9622   -0.5339    1.5211 
 Li                   -0.8809    0.1571   -1.1257 
 C                    -1.3437    3.3499   -1.8062 
 O                    -0.6062    2.1278   -1.7672 
 C                     0.7661    2.5027   -1.8945 
 C                     0.9083    3.7037   -0.9663 
 C                    -0.4649    4.4002   -1.097 
 H                    -1.5207    3.6214   -2.8567 
 H                    -2.3054    3.1767   -1.3221 
 H                     1.3657    1.6349   -1.6232 
 H                     0.9681    2.7823   -2.9402 
 H                     1.0756    3.3586    0.0592 
 H                     1.7437    4.3495   -1.2506 
 H                    -0.8714    4.6651   -0.1172 
 H                    -0.4022    5.3151   -1.6934 
 C                    -1.7526    0.186    -3.9656 
 O                    -0.9833   -0.5382   -3.0079 
 C                     0.1818   -1.0036   -3.6853 
 C                     0.5783    0.1287   -4.6406 
 C                    -0.7337    0.9233   -4.8437 
 H                    -2.3485   -0.5253   -4.5556 
 H                    -2.4289    0.8455   -3.4169 
 H                     0.9297   -1.2257   -2.923 
 H                    -0.068    -1.9229   -4.2348 
 H                     1.3478    0.759    -4.1864 
 H                     0.9782   -0.2665   -5.5787 
 H                    -0.6169    1.9575   -4.5093 
 H                    -1.0541    0.9399   -5.8892 
 C                     3.0062   -1.8463    0.2451 
 C                     2.7518   -2.7633   -0.7794 
 C                     4.2023   -1.9328    0.9657 
 C                     3.6836   -3.7544   -1.0826 
 H                     1.8219   -2.6999   -1.338 
 C                     5.1351   -2.9212    0.66 
 H                     4.4111   -1.2248    1.7645 
 C                     4.8763   -3.8328   -0.3644 
 H                     3.4791   -4.4637   -1.88 
 H                     6.0638   -2.9801    1.2209 
 H                     5.6045   -4.6036   -0.602 
 C                     2.6279    0.9317    1.0397 
 C                     2.3735    1.6317    2.2222 
 C                     3.5463    1.4508    0.1188 
 C                     3.0185    2.8426    2.4741 
 H                     1.6621    1.2326    2.9382 
 C                     4.1948    2.6557    0.3731 
 H                     3.7598    0.9114   -0.8018 
 C                     3.9277    3.3557    1.5509 
 H                     2.8104    3.3836    3.3933 
 H                     4.9065    3.0502   -0.347 
 H                     4.431     4.2984    1.7484 
 
 Symmetry turned off by external request.
 Stoichiometry    C31H50BLiNO6P
 Framework group  C1[X(C31H50BLiNO6P)]
 Deg. of freedom   267
 Full point group                 C1      NOp   1
                          Input orientation:                          
 ---------------------------------------------------------------------
 Center     Atomic      Atomic             Coordinates (Angstroms)
 Number     Number       Type             X           Y           Z
 ---------------------------------------------------------------------
      1          6           0       -2.378600    1.111800    2.028500
      2          6           0       -2.332700    0.758500    3.348400
      3          1           0       -2.891500   -0.139200    3.619000
      4          6           0       -1.716200    1.493500    4.501000
      5          1           0       -1.032900    2.289200    4.193400
      6          1           0       -2.504400    1.944000    5.119900
      7          1           0       -1.165800    0.800700    5.150200
      8          6           0       -1.724800    2.366000    1.517100
      9          1           0       -2.497100    3.101900    1.257900
     10          1           0       -1.027000    2.835800    2.216700
     11          1           0       -1.173500    2.149500    0.595600
     12          5           0       -3.276800    0.233800    0.951300
     13          6           0       -4.275100    1.242600    0.134900
     14          1           0       -4.845000    1.890300    0.820600
     15          1           0       -3.743200    1.909100   -0.559100
     16          1           0       -5.015100    0.687300   -0.457800
     17          8           0       -2.305200   -0.517500    0.046300
     18          8           0       -4.035100   -0.861200    1.590700
     19          6           0       -3.628800   -2.135500    1.136900
     20          6           0       -2.808500   -1.839300   -0.175400
     21          6           0       -4.871900   -2.996900    0.896700
     22          1           0       -5.583000   -2.498600    0.232300
     23          1           0       -4.608600   -3.970200    0.463900
     24          1           0       -5.377800   -3.178900    1.852100
     25          6           0       -2.794700   -2.824900    2.228300
     26          1           0       -1.854700   -2.305800    2.426700
     27          1           0       -3.375100   -2.832400    3.157900
     28          1           0       -2.555600   -3.862800    1.967800
     29          6           0       -3.682100   -1.838800   -1.436000
     30          1           0       -3.085900   -1.468900   -2.274600
     31          1           0       -4.024400   -2.850000   -1.684300
     32          1           0       -4.559300   -1.196700   -1.326600
     33          6           0       -1.627300   -2.779900   -0.405300
     34          1           0       -1.971100   -3.818600   -0.482400
     35          1           0       -1.123500   -2.518300   -1.342100
     36          1           0       -0.889900   -2.715200    0.399400
     37         15           0        1.739600   -0.609200    0.653600
     38          8           0        0.840800   -0.392600   -0.547900
     39          8           0        1.056200   -1.134000    1.948700
     40          7           0       -0.462100   -0.071400    2.294300
     41          1           0       -0.607100   -0.671800    3.108600
     42          1           0       -0.962200   -0.533900    1.521100
     43          3           0       -0.880900    0.157100   -1.125700
     44          6           0       -1.343700    3.349900   -1.806200
     45          8           0       -0.606200    2.127800   -1.767200
     46          6           0        0.766100    2.502700   -1.894500
     47          6           0        0.908300    3.703700   -0.966300
     48          6           0       -0.464900    4.400200   -1.097000
     49          1           0       -1.520700    3.621400   -2.856700
     50          1           0       -2.305400    3.176700   -1.322100
     51          1           0        1.365700    1.634900   -1.623200
     52          1           0        0.968100    2.782300   -2.940200
     53          1           0        1.075600    3.358600    0.059200
     54          1           0        1.743700    4.349500   -1.250600
     55          1           0       -0.871400    4.665100   -0.117200
     56          1           0       -0.402200    5.315100   -1.693400
     57          6           0       -1.752600    0.186000   -3.965600
     58          8           0       -0.983300   -0.538200   -3.007900
     59          6           0        0.181800   -1.003600   -3.685300
     60          6           0        0.578300    0.128700   -4.640600
     61          6           0       -0.733700    0.923300   -4.843700
     62          1           0       -2.348500   -0.525300   -4.555600
     63          1           0       -2.428900    0.845500   -3.416900
     64          1           0        0.929700   -1.225700   -2.923000
     65          1           0       -0.068000   -1.922900   -4.234800
     66          1           0        1.347800    0.759000   -4.186400
     67          1           0        0.978200   -0.266500   -5.578700
     68          1           0       -0.616900    1.957500   -4.509300
     69          1           0       -1.054100    0.939900   -5.889200
     70          6           0        3.006200   -1.846300    0.245100
     71          6           0        2.751800   -2.763300   -0.779400
     72          6           0        4.202300   -1.932800    0.965700
     73          6           0        3.683600   -3.754400   -1.082600
     74          1           0        1.821900   -2.699900   -1.338000
     75          6           0        5.135100   -2.921200    0.660000
     76          1           0        4.411100   -1.224800    1.764500
     77          6           0        4.876300   -3.832800   -0.364400
     78          1           0        3.479100   -4.463700   -1.880000
     79          1           0        6.063800   -2.980100    1.220900
     80          1           0        5.604500   -4.603600   -0.602000
     81          6           0        2.627900    0.931700    1.039700
     82          6           0        2.373500    1.631700    2.222200
     83          6           0        3.546300    1.450800    0.118800
     84          6           0        3.018500    2.842600    2.474100
     85          1           0        1.662100    1.232600    2.938200
     86          6           0        4.194800    2.655700    0.373100
     87          1           0        3.759800    0.911400   -0.801800
     88          6           0        3.927700    3.355700    1.550900
     89          1           0        2.810400    3.383600    3.393300
     90          1           0        4.906500    3.050200   -0.347000
     91          1           0        4.431000    4.298400    1.748400
 ---------------------------------------------------------------------
 Rotational constants (GHZ):           0.0962244           0.0727568           0.0712417
 Standard basis: 6-311++G(d,p) (5D, 7F)
  1260 basis functions,  1940 primitive gaussians,  1301 cartesian basis functions
   157 alpha electrons      157 beta electrons
       nuclear repulsion energy      5721.1576399865 Hartrees.
 NAtoms=   91 NActive=   91 NUniq=   91 SFac= 1.00D+00 NAtFMM=   60 NAOKFM=T Big=T
 Integral buffers will be    131072 words long.
 Raffenetti 2 integral format.
 Two-electron integral symmetry is turned off.
 Nuclear repulsion after empirical dispersion term =     5721.0412666864 Hartrees.
 ------------------------------------------------------------------------------
 Polarizable Continuum Model (PCM)
 =================================
 Model                : PCM.
 Atomic radii         : SMD-Coulomb.
 Polarization charges : Total charges.
 Charge compensation  : None.
 Solution method      : On-the-fly selection.
 Cavity type          : VdW (van der Waals Surface) (Alpha=1.000).
 Cavity algorithm     : GePol (No added spheres)
                        Default sphere list used, NSphG=   91.
                        Lebedev-Laikov grids with approx.  5.0 points / Ang**2.
                        Smoothing algorithm: York/Karplus (Gamma=1.0000).
                        Polarization charges: spherical gaussians, with
                                              point-specific exponents (IZeta= 3).
                        Self-potential: point-specific (ISelfS= 7).
                        Self-field    : sphere-specific E.n sum rule (ISelfD= 2).
 Solvent              : TetraHydroFuran, Eps=   7.425700 Eps(inf)=   1.974025
 ------------------------------------------------------------------------------
 ------------------------------------------------------------------------------
 Atomic radii for non-electrostatic terms: SMD-CDS.
 ------------------------------------------------------------------------------
 Nuclear repulsion after PCM non-electrostatic terms =     5721.0318376101 Hartrees.
 One-electron integrals computed using PRISM.
 NBasis=  1260 RedAO= T EigKep=  1.20D-06  NBF=  1260
 NBsUse=  1250 1.00D-06 EigRej=  9.72D-07 NBFU=  1250
 ExpMin= 7.40D-03 ExpMax= 7.75D+04 ExpMxC= 2.65D+03 IAcc=3 IRadAn=         5 AccDes= 0.00D+00
 Harris functional with IExCor= 4639 and IRadAn=       5 diagonalized for initial guess.
 HarFok:  IExCor= 4639 AccDes= 0.00D+00 IRadAn=         5 IDoV= 1 UseB2=F ITyADJ=14
 ICtDFT=  3500011 ScaDFX=  1.000000  1.000000  1.000000  1.000000
 FoFCou: FMM=F IPFlag=           0 FMFlag=      100000 FMFlg1=        2001
         NFxFlg=           0 DoJE=T BraDBF=F KetDBF=T FulRan=T
         wScrn=  0.000000 ICntrl=       500 IOpCl=  0 I1Cent=   200000004 NGrid=           0
         NMat0=    1 NMatS0=      1 NMatT0=    0 NMatD0=    1 NMtDS0=    0 NMtDT0=    0
 Symmetry not used in FoFCou.
 Requested convergence on RMS density matrix=1.00D-08 within 128 cycles.
 Requested convergence on MAX density matrix=1.00D-06.
 Requested convergence on             energy=1.00D-06.
 No special actions if energy rises.
 Inv3:  Mode=1 IEnd=    90486192.
 Iteration    1 A*A^-1 deviation from unit magnitude is 9.33D-15 for   5482.
 Iteration    1 A*A^-1 deviation from orthogonality  is 2.62D-15 for   4142   1492.
 Iteration    1 A^-1*A deviation from unit magnitude is 9.10D-15 for   5482.
 Iteration    1 A^-1*A deviation from orthogonality  is 8.08D-11 for   3599   3547.
 Error on total polarization charges =  0.07741
 SCF Done:  E(RwB97XD) =  -2091.35766016     A.U. after   17 cycles
            NFock= 17  Conv=0.65D-08     -V/T= 2.0040
 SMD-CDS (non-electrostatic) energy       (kcal/mol) =      -5.92
 (included in total energy above)

 **********************************************************************

            Population analysis using the SCF Density.

 **********************************************************************

 Alpha  occ. eigenvalues --  -77.28936 -19.25941 -19.25775 -19.22485 -19.20801
 Alpha  occ. eigenvalues --  -19.19599 -19.18167 -14.48546 -10.32373 -10.32355
 Alpha  occ. eigenvalues --  -10.32185 -10.32114 -10.31855 -10.31623 -10.29658
 Alpha  occ. eigenvalues --  -10.29644 -10.29605 -10.29520 -10.29500 -10.29392
 Alpha  occ. eigenvalues --  -10.29381 -10.29341 -10.29189 -10.29187 -10.29174
 Alpha  occ. eigenvalues --  -10.29097 -10.28592 -10.27666 -10.27643 -10.27580
 Alpha  occ. eigenvalues --  -10.27361 -10.26879 -10.26824 -10.25864 -10.25313
 Alpha  occ. eigenvalues --  -10.25098 -10.25059 -10.24935 -10.21350  -6.81604
 Alpha  occ. eigenvalues --   -6.73303  -4.88051  -4.87976  -4.87948  -1.99352
 Alpha  occ. eigenvalues --   -1.15266  -1.14949  -1.10918  -1.10267  -1.04370
 Alpha  occ. eigenvalues --   -1.04287  -0.96548  -0.96245  -0.94937  -0.88368
 Alpha  occ. eigenvalues --   -0.87607  -0.87532  -0.87307  -0.86131  -0.85172
 Alpha  occ. eigenvalues --   -0.85088  -0.84845  -0.83572  -0.83292  -0.82211
 Alpha  occ. eigenvalues --   -0.81278  -0.78241  -0.75380  -0.74870  -0.74023
 Alpha  occ. eigenvalues --   -0.72737  -0.70422  -0.70300  -0.69568  -0.69250
 Alpha  occ. eigenvalues --   -0.68946  -0.68515  -0.68341  -0.68116  -0.64772
 Alpha  occ. eigenvalues --   -0.62158  -0.61587  -0.60794  -0.60169  -0.59731
 Alpha  occ. eigenvalues --   -0.59224  -0.58682  -0.58125  -0.57370  -0.57073
 Alpha  occ. eigenvalues --   -0.55295  -0.55095  -0.54604  -0.54248  -0.53928
 Alpha  occ. eigenvalues --   -0.53749  -0.53428  -0.53141  -0.52538  -0.52264
 Alpha  occ. eigenvalues --   -0.51222  -0.51074  -0.50949  -0.50825  -0.50547
 Alpha  occ. eigenvalues --   -0.50205  -0.49924  -0.49615  -0.48954  -0.48795
 Alpha  occ. eigenvalues --   -0.48552  -0.48282  -0.47528  -0.46952  -0.46757
 Alpha  occ. eigenvalues --   -0.46661  -0.46573  -0.46051  -0.45786  -0.45520
 Alpha  occ. eigenvalues --   -0.45384  -0.44608  -0.44274  -0.43753  -0.43697
 Alpha  occ. eigenvalues --   -0.43592  -0.43283  -0.43213  -0.42858  -0.42810
 Alpha  occ. eigenvalues --   -0.42597  -0.42413  -0.42246  -0.41995  -0.41936
 Alpha  occ. eigenvalues --   -0.41491  -0.41262  -0.41049  -0.40460  -0.40179
 Alpha  occ. eigenvalues --   -0.39886  -0.39450  -0.38351  -0.37726  -0.37100
 Alpha  occ. eigenvalues --   -0.36609  -0.35558  -0.35346  -0.34939  -0.34545
 Alpha  occ. eigenvalues --   -0.34233  -0.33742  -0.33501  -0.32980  -0.31574
 Alpha  occ. eigenvalues --   -0.29554  -0.28248
 Alpha virt. eigenvalues --    0.00756   0.02288   0.02528   0.02654   0.02731
 Alpha virt. eigenvalues --    0.03431   0.04486   0.04595   0.05354   0.05515
 Alpha virt. eigenvalues --    0.05604   0.05768   0.05934   0.06222   0.06864
 Alpha virt. eigenvalues --    0.07045   0.07117   0.07182   0.07286   0.07603
 Alpha virt. eigenvalues --    0.07692   0.07802   0.07924   0.07957   0.08319
 Alpha virt. eigenvalues --    0.08628   0.08720   0.08973   0.09214   0.09530
 Alpha virt. eigenvalues --    0.09650   0.09844   0.10118   0.10156   0.10569
 Alpha virt. eigenvalues --    0.10898   0.11145   0.11552   0.11741   0.12022
 Alpha virt. eigenvalues --    0.12172   0.12344   0.12681   0.12752   0.13077
 Alpha virt. eigenvalues --    0.13249   0.13343   0.13483   0.13954   0.14035
 Alpha virt. eigenvalues --    0.14271   0.14417   0.14698   0.14971   0.15162
 Alpha virt. eigenvalues --    0.15267   0.15485   0.15600   0.15783   0.15893
 Alpha virt. eigenvalues --    0.16101   0.16299   0.16491   0.16631   0.16893
 Alpha virt. eigenvalues --    0.17036   0.17277   0.17375   0.17405   0.17659
 Alpha virt. eigenvalues --    0.17703   0.17837   0.17976   0.18033   0.18150
 Alpha virt. eigenvalues --    0.18341   0.18503   0.18694   0.18751   0.18856
 Alpha virt. eigenvalues --    0.19106   0.19165   0.19304   0.19564   0.19629
 Alpha virt. eigenvalues --    0.19741   0.19900   0.19949   0.20094   0.20145
 Alpha virt. eigenvalues --    0.20514   0.20591   0.20778   0.20883   0.20973
 Alpha virt. eigenvalues --    0.21103   0.21295   0.21380   0.21425   0.21535
 Alpha virt. eigenvalues --    0.21628   0.21762   0.21866   0.21898   0.22158
 Alpha virt. eigenvalues --    0.22271   0.22385   0.22548   0.22661   0.22704
 Alpha virt. eigenvalues --    0.22866   0.23066   0.23141   0.23256   0.23366
 Alpha virt. eigenvalues --    0.23577   0.23663   0.23746   0.23947   0.24116
 Alpha virt. eigenvalues --    0.24356   0.24448   0.24510   0.24599   0.24842
 Alpha virt. eigenvalues --    0.24996   0.25012   0.25220   0.25295   0.25486
 Alpha virt. eigenvalues --    0.25547   0.25759   0.25897   0.26090   0.26144
 Alpha virt. eigenvalues --    0.26223   0.26418   0.26605   0.26614   0.26707
 Alpha virt. eigenvalues --    0.27108   0.27259   0.27412   0.27507   0.27613
 Alpha virt. eigenvalues --    0.27810   0.27950   0.28046   0.28148   0.28514
 Alpha virt. eigenvalues --    0.28673   0.28787   0.29008   0.29168   0.29339
 Alpha virt. eigenvalues --    0.29484   0.29611   0.29644   0.29766   0.29979
 Alpha virt. eigenvalues --    0.30058   0.30231   0.30334   0.30641   0.30775
 Alpha virt. eigenvalues --    0.30888   0.30954   0.31133   0.31364   0.31433
 Alpha virt. eigenvalues --    0.31494   0.31649   0.31841   0.31949   0.32140
 Alpha virt. eigenvalues --    0.32480   0.32575   0.32740   0.32874   0.33025
 Alpha virt. eigenvalues --    0.33253   0.33394   0.33445   0.33638   0.33791
 Alpha virt. eigenvalues --    0.33927   0.34178   0.34419   0.34707   0.34732
 Alpha virt. eigenvalues --    0.34841   0.35109   0.35164   0.35479   0.35576
 Alpha virt. eigenvalues --    0.35848   0.35920   0.36227   0.36254   0.36367
 Alpha virt. eigenvalues --    0.36644   0.36817   0.36838   0.36957   0.37286
 Alpha virt. eigenvalues --    0.37412   0.37633   0.37846   0.37937   0.38206
 Alpha virt. eigenvalues --    0.38272   0.38536   0.38872   0.39039   0.39105
 Alpha virt. eigenvalues --    0.39207   0.39394   0.39580   0.39722   0.39803
 Alpha virt. eigenvalues --    0.39937   0.40325   0.40429   0.40576   0.40595
 Alpha virt. eigenvalues --    0.40804   0.40857   0.41095   0.41290   0.41341
 Alpha virt. eigenvalues --    0.41509   0.41701   0.41893   0.42126   0.42315
 Alpha virt. eigenvalues --    0.42393   0.42717   0.43027   0.43143   0.43404
 Alpha virt. eigenvalues --    0.43571   0.43832   0.43897   0.44055   0.44166
 Alpha virt. eigenvalues --    0.44301   0.44541   0.44938   0.45136   0.45226
 Alpha virt. eigenvalues --    0.45769   0.45883   0.45980   0.46195   0.46221
 Alpha virt. eigenvalues --    0.46316   0.46545   0.46773   0.46905   0.47031
 Alpha virt. eigenvalues --    0.47256   0.47290   0.47969   0.48166   0.48321
 Alpha virt. eigenvalues --    0.48605   0.48971   0.49271   0.49509   0.49866
 Alpha virt. eigenvalues --    0.50193   0.50545   0.50602   0.50953   0.51355
 Alpha virt. eigenvalues --    0.51762   0.52191   0.52514   0.52887   0.53056
 Alpha virt. eigenvalues --    0.53598   0.53889   0.54144   0.54549   0.55009
 Alpha virt. eigenvalues --    0.55343   0.55467   0.55849   0.56070   0.56388
 Alpha virt. eigenvalues --    0.56540   0.56646   0.57008   0.57797   0.57835
 Alpha virt. eigenvalues --    0.58463   0.58886   0.59669   0.59776   0.60364
 Alpha virt. eigenvalues --    0.60687   0.60850   0.60935   0.61514   0.61955
 Alpha virt. eigenvalues --    0.62082   0.62560   0.62660   0.62871   0.63571
 Alpha virt. eigenvalues --    0.63629   0.63687   0.64083   0.64269   0.64368
 Alpha virt. eigenvalues --    0.64748   0.65172   0.65451   0.65512   0.66123
 Alpha virt. eigenvalues --    0.66256   0.66296   0.66535   0.66793   0.67095
 Alpha virt. eigenvalues --    0.67611   0.67846   0.68213   0.68411   0.68550
 Alpha virt. eigenvalues --    0.68905   0.69250   0.69322   0.69734   0.69954
 Alpha virt. eigenvalues --    0.70253   0.70703   0.70994   0.71203   0.71367
 Alpha virt. eigenvalues --    0.71688   0.72130   0.72378   0.72442   0.72781
 Alpha virt. eigenvalues --    0.73075   0.73283   0.73873   0.73976   0.74149
 Alpha virt. eigenvalues --    0.74339   0.74753   0.74990   0.75341   0.75371
 Alpha virt. eigenvalues --    0.75534   0.75785   0.76395   0.76474   0.76842
 Alpha virt. eigenvalues --    0.77051   0.77176   0.77568   0.78109   0.78451
 Alpha virt. eigenvalues --    0.78711   0.78893   0.79160   0.79526   0.79763
 Alpha virt. eigenvalues --    0.80198   0.80311   0.80569   0.81001   0.81252
 Alpha virt. eigenvalues --    0.81346   0.81490   0.81932   0.82027   0.82284
 Alpha virt. eigenvalues --    0.82362   0.82460   0.82925   0.83087   0.83392
 Alpha virt. eigenvalues --    0.83622   0.83876   0.84090   0.84435   0.84534
 Alpha virt. eigenvalues --    0.84923   0.85046   0.85301   0.85661   0.85930
 Alpha virt. eigenvalues --    0.86026   0.86400   0.86429   0.86690   0.87006
 Alpha virt. eigenvalues --    0.87183   0.87195   0.87600   0.87731   0.87867
 Alpha virt. eigenvalues --    0.88264   0.88606   0.88679   0.88892   0.88957
 Alpha virt. eigenvalues --    0.89319   0.89789   0.90005   0.90011   0.90246
 Alpha virt. eigenvalues --    0.90645   0.90970   0.91231   0.91506   0.91683
 Alpha virt. eigenvalues --    0.91919   0.91970   0.92461   0.92611   0.93056
 Alpha virt. eigenvalues --    0.93230   0.93669   0.94309   0.94453   0.94612
 Alpha virt. eigenvalues --    0.94660   0.95280   0.95524   0.95985   0.96132
 Alpha virt. eigenvalues --    0.96239   0.96418   0.96564   0.96934   0.97482
 Alpha virt. eigenvalues --    0.97722   0.97917   0.98081   0.98178   0.99094
 Alpha virt. eigenvalues --    0.99347   0.99489   0.99908   1.00404   1.01222
 Alpha virt. eigenvalues --    1.01235   1.01930   1.02420   1.02646   1.02792
 Alpha virt. eigenvalues --    1.02922   1.03410   1.03966   1.04558   1.05036
 Alpha virt. eigenvalues --    1.05267   1.05695   1.06392   1.06444   1.06708
 Alpha virt. eigenvalues --    1.07299   1.07851   1.08163   1.08815   1.09008
 Alpha virt. eigenvalues --    1.09531   1.09861   1.10659   1.10899   1.11207
 Alpha virt. eigenvalues --    1.12096   1.12915   1.13314   1.14105   1.14251
 Alpha virt. eigenvalues --    1.14858   1.15250   1.15534   1.15757   1.16179
 Alpha virt. eigenvalues --    1.16356   1.16730   1.16867   1.17654   1.18003
 Alpha virt. eigenvalues --    1.18815   1.19816   1.20200   1.20352   1.21498
 Alpha virt. eigenvalues --    1.21675   1.21888   1.22240   1.22914   1.23899
 Alpha virt. eigenvalues --    1.23973   1.24353   1.24660   1.24916   1.25171
 Alpha virt. eigenvalues --    1.26141   1.26577   1.26676   1.27023   1.28053
 Alpha virt. eigenvalues --    1.28590   1.28958   1.29545   1.30065   1.30519
 Alpha virt. eigenvalues --    1.31093   1.31500   1.32445   1.33173   1.33681
 Alpha virt. eigenvalues --    1.34275   1.34940   1.35170   1.35640   1.36638
 Alpha virt. eigenvalues --    1.36860   1.37482   1.37877   1.38259   1.39100
 Alpha virt. eigenvalues --    1.39435   1.40437   1.41513   1.41609   1.42450
 Alpha virt. eigenvalues --    1.42637   1.43120   1.43369   1.44356   1.45035
 Alpha virt. eigenvalues --    1.45417   1.45803   1.46227   1.46585   1.48131
 Alpha virt. eigenvalues --    1.48502   1.49088   1.50131   1.50193   1.50726
 Alpha virt. eigenvalues --    1.51169   1.51694   1.52571   1.53424   1.54311
 Alpha virt. eigenvalues --    1.54629   1.55427   1.55677   1.56225   1.56579
 Alpha virt. eigenvalues --    1.57237   1.57342   1.58268   1.58551   1.59398
 Alpha virt. eigenvalues --    1.59530   1.60575   1.60992   1.61079   1.61675
 Alpha virt. eigenvalues --    1.62092   1.62241   1.62844   1.62976   1.63223
 Alpha virt. eigenvalues --    1.63541   1.63844   1.64056   1.64407   1.64595
 Alpha virt. eigenvalues --    1.65380   1.65587   1.65906   1.66065   1.66203
 Alpha virt. eigenvalues --    1.66649   1.67388   1.67453   1.67636   1.67933
 Alpha virt. eigenvalues --    1.68285   1.68446   1.69326   1.69355   1.69582
 Alpha virt. eigenvalues --    1.69847   1.70226   1.70451   1.70759   1.71155
 Alpha virt. eigenvalues --    1.71469   1.71773   1.72386   1.72670   1.72949
 Alpha virt. eigenvalues --    1.73223   1.73907   1.73964   1.74530   1.74766
 Alpha virt. eigenvalues --    1.74878   1.75181   1.75663   1.75972   1.76046
 Alpha virt. eigenvalues --    1.76326   1.76757   1.76803   1.77003   1.77628
 Alpha virt. eigenvalues --    1.77820   1.78440   1.78803   1.78948   1.79425
 Alpha virt. eigenvalues --    1.79939   1.80504   1.80844   1.81142   1.81397
 Alpha virt. eigenvalues --    1.82080   1.82207   1.82576   1.83143   1.83534
 Alpha virt. eigenvalues --    1.83779   1.84305   1.84382   1.84775   1.85116
 Alpha virt. eigenvalues --    1.85167   1.85918   1.86454   1.86566   1.86610
 Alpha virt. eigenvalues --    1.86961   1.87619   1.87925   1.88082   1.88802
 Alpha virt. eigenvalues --    1.89123   1.89216   1.89972   1.90133   1.90597
 Alpha virt. eigenvalues --    1.90897   1.91015   1.91295   1.92003   1.92106
 Alpha virt. eigenvalues --    1.92494   1.93173   1.93325   1.93788   1.94204
 Alpha virt. eigenvalues --    1.94814   1.94839   1.95018   1.95636   1.96159
 Alpha virt. eigenvalues --    1.96415   1.96807   1.97167   1.98017   1.98159
 Alpha virt. eigenvalues --    1.98798   1.98984   1.99429   2.00058   2.00956
 Alpha virt. eigenvalues --    2.01124   2.01376   2.01868   2.02229   2.02480
 Alpha virt. eigenvalues --    2.02919   2.03206   2.03279   2.03968   2.04462
 Alpha virt. eigenvalues --    2.04582   2.05215   2.05330   2.05651   2.05969
 Alpha virt. eigenvalues --    2.06388   2.06749   2.07030   2.07289   2.08251
 Alpha virt. eigenvalues --    2.08572   2.09090   2.09460   2.09556   2.09864
 Alpha virt. eigenvalues --    2.10043   2.10348   2.10720   2.10747   2.11064
 Alpha virt. eigenvalues --    2.11721   2.12629   2.13191   2.13732   2.13832
 Alpha virt. eigenvalues --    2.14771   2.15269   2.16029   2.16343   2.16707
 Alpha virt. eigenvalues --    2.17162   2.17526   2.17818   2.18836   2.19173
 Alpha virt. eigenvalues --    2.19410   2.19774   2.20292   2.20628   2.21117
 Alpha virt. eigenvalues --    2.21805   2.22619   2.23380   2.23623   2.24238
 Alpha virt. eigenvalues --    2.24706   2.25114   2.25543   2.26057   2.26357
 Alpha virt. eigenvalues --    2.27431   2.28350   2.28672   2.29451   2.30036
 Alpha virt. eigenvalues --    2.30185   2.30576   2.31536   2.32877   2.33074
 Alpha virt. eigenvalues --    2.33691   2.34436   2.35416   2.36302   2.36493
 Alpha virt. eigenvalues --    2.37135   2.37409   2.38635   2.38866   2.39516
 Alpha virt. eigenvalues --    2.40671   2.40716   2.41607   2.42177   2.42529
 Alpha virt. eigenvalues --    2.42582   2.42731   2.43098   2.43733   2.44014
 Alpha virt. eigenvalues --    2.45527   2.45606   2.46708   2.47084   2.47659
 Alpha virt. eigenvalues --    2.49780   2.50513   2.50892   2.51584   2.52743
 Alpha virt. eigenvalues --    2.53162   2.54007   2.54606   2.54817   2.55813
 Alpha virt. eigenvalues --    2.57861   2.58593   2.58754   2.58931   2.59391
 Alpha virt. eigenvalues --    2.59853   2.60352   2.61137   2.61400   2.61962
 Alpha virt. eigenvalues --    2.62673   2.62932   2.63175   2.63600   2.64226
 Alpha virt. eigenvalues --    2.64505   2.64954   2.65793   2.66022   2.66147
 Alpha virt. eigenvalues --    2.67009   2.67313   2.67956   2.68094   2.69107
 Alpha virt. eigenvalues --    2.69534   2.69717   2.70536   2.71046   2.71384
 Alpha virt. eigenvalues --    2.71915   2.72188   2.72773   2.73050   2.73111
 Alpha virt. eigenvalues --    2.73434   2.73605   2.74275   2.74620   2.74826
 Alpha virt. eigenvalues --    2.75487   2.76171   2.76774   2.76938   2.77440
 Alpha virt. eigenvalues --    2.77800   2.78469   2.79263   2.79966   2.80334
 Alpha virt. eigenvalues --    2.80722   2.80871   2.81714   2.82203   2.82442
 Alpha virt. eigenvalues --    2.83083   2.83958   2.84289   2.84464   2.85745
 Alpha virt. eigenvalues --    2.86076   2.86621   2.86785   2.87500   2.88054
 Alpha virt. eigenvalues --    2.88103   2.88777   2.89287   2.89506   2.89881
 Alpha virt. eigenvalues --    2.90270   2.90553   2.91334   2.92050   2.92275
 Alpha virt. eigenvalues --    2.92533   2.93137   2.93393   2.93703   2.94097
 Alpha virt. eigenvalues --    2.94358   2.94565   2.95484   2.96103   2.96482
 Alpha virt. eigenvalues --    2.96965   2.97457   2.97596   2.97803   2.98313
 Alpha virt. eigenvalues --    2.98420   2.99020   2.99410   2.99611   2.99752
 Alpha virt. eigenvalues --    3.00331   3.00787   3.01335   3.01942   3.02454
 Alpha virt. eigenvalues --    3.02923   3.03287   3.04231   3.04633   3.04821
 Alpha virt. eigenvalues --    3.05404   3.05724   3.06099   3.06627   3.06848
 Alpha virt. eigenvalues --    3.07268   3.07432   3.07794   3.08112   3.08763
 Alpha virt. eigenvalues --    3.09041   3.09600   3.10795   3.11710   3.12267
 Alpha virt. eigenvalues --    3.13040   3.13772   3.13929   3.14220   3.15315
 Alpha virt. eigenvalues --    3.15780   3.17894   3.18840   3.19377   3.20530
 Alpha virt. eigenvalues --    3.21118   3.21614   3.22070   3.23057   3.23287
 Alpha virt. eigenvalues --    3.23503   3.24944   3.25328   3.25869   3.26479
 Alpha virt. eigenvalues --    3.27346   3.27885   3.29124   3.29525   3.30043
 Alpha virt. eigenvalues --    3.30947   3.31741   3.32724   3.33598   3.33937
 Alpha virt. eigenvalues --    3.34669   3.35204   3.35709   3.36921   3.37300
 Alpha virt. eigenvalues --    3.38108   3.39372   3.40625   3.40908   3.42245
 Alpha virt. eigenvalues --    3.42925   3.45702   3.46215   3.46304   3.47812
 Alpha virt. eigenvalues --    3.49500   3.50567   3.50838   3.51129   3.52184
 Alpha virt. eigenvalues --    3.53263   3.53919   3.54326   3.54398   3.57989
 Alpha virt. eigenvalues --    3.60992   3.61980   3.63664   3.65649   3.67013
 Alpha virt. eigenvalues --    3.67729   3.68595   3.69272   3.73083   3.73897
 Alpha virt. eigenvalues --    3.74291   3.77029   3.78328   3.80428   3.81892
 Alpha virt. eigenvalues --    3.88151   3.89050   3.89533   3.90947   3.91276
 Alpha virt. eigenvalues --    3.92765   3.93008   3.93442   3.94100   3.94645
 Alpha virt. eigenvalues --    3.95022   3.95365   3.96079   3.96748   3.97872
 Alpha virt. eigenvalues --    3.98455   3.99866   4.02438   4.04030   4.04743
 Alpha virt. eigenvalues --    4.05093   4.08485   4.11090   4.11877   4.14562
 Alpha virt. eigenvalues --    4.15079   4.15219   4.15731   4.16395   4.18422
 Alpha virt. eigenvalues --    4.20043   4.20800   4.22349   4.26284   4.26725
 Alpha virt. eigenvalues --    4.27091   4.27491   4.28921   4.29216   4.30124
 Alpha virt. eigenvalues --    4.32745   4.35647   4.39837   4.41454   4.42236
 Alpha virt. eigenvalues --    4.44324   4.48033   4.50022   4.50372   4.52989
 Alpha virt. eigenvalues --    4.54867   4.60016   4.74312   4.82890   4.95268
 Alpha virt. eigenvalues --    4.95515   5.34479   5.35814   5.37578   5.43813
 Alpha virt. eigenvalues --    5.44771   5.47457   5.48550   5.51736   5.56171
 Alpha virt. eigenvalues --    5.59913   5.62600   5.67245   5.72011   5.73134
 Alpha virt. eigenvalues --    5.78963   5.79523   5.80398   5.90851   7.68567
 Alpha virt. eigenvalues --   14.31854  14.39451  14.44861  14.96202  23.77456
 Alpha virt. eigenvalues --   23.82160  23.93756  23.99270  24.00534  24.02655
 Alpha virt. eigenvalues --   24.03375  24.05110  24.06558  24.10321  24.11191
 Alpha virt. eigenvalues --   24.11511  24.11935  24.12646  24.13265  24.13472
 Alpha virt. eigenvalues --   24.13601  24.14413  24.15202  24.18181  24.19325
 Alpha virt. eigenvalues --   24.19544  24.20324  24.20793  24.21369  24.22813
 Alpha virt. eigenvalues --   24.23253  24.23673  24.32259  24.32547  24.32632
 Alpha virt. eigenvalues --   35.73283  50.14666  50.15737  50.17388  50.21178
 Alpha virt. eigenvalues --   50.24395  50.27061 163.94168
          Condensed to atoms (all electrons):
 Mulliken charges:
               1
     1  C   -0.421868
     2  C    0.177920
     3  H    0.243774
     4  C   -0.850047
     5  H    0.155988
     6  H    0.209512
     7  H    0.195799
     8  C   -0.739820
     9  H    0.322600
    10  H    0.136090
    11  H    0.032083
    12  B    1.376088
    13  C   -0.762265
    14  H    0.153294
    15  H    0.132756
    16  H    0.138308
    17  O   -0.131790
    18  O   -0.167883
    19  C   -0.276941
    20  C   -0.164589
    21  C   -0.816230
    22  H    0.183384
    23  H    0.189193
    24  H    0.186502
    25  C   -0.452213
    26  H    0.135746
    27  H    0.220920
    28  H    0.185898
    29  C   -0.475801
    30  H    0.111148
    31  H    0.204737
    32  H    0.134626
    33  C   -0.845987
    34  H    0.261376
    35  H    0.211869
    36  H    0.255624
    37  P    0.011548
    38  O   -0.172300
    39  O    0.093034
    40  N   -0.192179
    41  H    0.440431
    42  H   -0.172294
    43  Li  -0.120779
    44  C   -0.043712
    45  O    0.054422
    46  C   -0.087368
    47  C   -0.416309
    48  C   -0.736981
    49  H    0.232175
    50  H    0.121418
    51  H    0.082640
    52  H    0.210828
    53  H    0.142029
    54  H    0.247149
    55  H    0.203061
    56  H    0.246303
    57  C   -0.243391
    58  O    0.078901
    59  C   -0.032116
    60  C   -0.575950
    61  C   -0.504045
    62  H    0.227118
    63  H    0.115629
    64  H    0.087958
    65  H    0.245353
    66  H    0.154328
    67  H    0.257709
    68  H    0.143474
    69  H    0.250367
    70  C   -0.472213
    71  C    0.340988
    72  C    0.147957
    73  C   -0.136039
    74  H    0.199306
    75  C   -0.427386
    76  H    0.302050
    77  C   -0.398852
    78  H    0.292432
    79  H    0.275314
    80  H    0.259811
    81  C   -0.076150
    82  C   -0.121063
    83  C    0.093131
    84  C   -0.463049
    85  H    0.306756
    86  C   -0.511788
    87  H    0.296904
    88  C   -0.537361
    89  H    0.288642
    90  H    0.282631
    91  H    0.259723
 Sum of Mulliken charges =  -0.00000
 Mulliken charges with hydrogens summed into heavy atoms:
               1
     1  C   -0.421868
     2  C    0.421694
     4  C   -0.288748
     8  C   -0.249047
    12  B    1.376088
    13  C   -0.337906
    17  O   -0.131790
    18  O   -0.167883
    19  C   -0.276941
    20  C   -0.164589
    21  C   -0.257152
    25  C    0.090352
    29  C   -0.025289
    33  C   -0.117118
    37  P    0.011548
    38  O   -0.172300
    39  O    0.093034
    40  N    0.075958
    43  Li  -0.120779
    44  C    0.309881
    45  O    0.054422
    46  C    0.206099
    47  C   -0.027131
    48  C   -0.287617
    57  C    0.099357
    58  O    0.078901
    59  C    0.301195
    60  C   -0.163914
    61  C   -0.110204
    70  C   -0.472213
    71  C    0.540294
    72  C    0.450007
    73  C    0.156393
    75  C   -0.152071
    77  C   -0.139040
    81  C   -0.076150
    82  C    0.185693
    83  C    0.390035
    84  C   -0.174407
    86  C   -0.229157
    88  C   -0.277638
 Electronic spatial extent (au):  <R**2>=          19818.3683
 Charge=              0.0000 electrons
 Dipole moment (field-independent basis, Debye):
    X=              7.3487    Y=              3.8078    Z=             -6.1718  Tot=             10.3244
 Quadrupole moment (field-independent basis, Debye-Ang):
   XX=           -271.5926   YY=           -231.1295   ZZ=           -226.2841
   XY=              1.9523   XZ=              6.3873   YZ=              5.3558
 Traceless Quadrupole moment (field-independent basis, Debye-Ang):
   XX=            -28.5905   YY=             11.8726   ZZ=             16.7180
   XY=              1.9523   XZ=              6.3873   YZ=              5.3558
 Octapole moment (field-independent basis, Debye-Ang**2):
  XXX=            283.6842  YYY=             28.3328  ZZZ=            -55.3288  XYY=             66.9331
  XXY=            -23.5287  XXZ=            -44.4187  XZZ=             -1.0547  YZZ=             25.2745
  YYZ=            -36.1624  XYZ=             14.9134
 Hexadecapole moment (field-independent basis, Debye-Ang**3):
 XXXX=         -12655.6944 YYYY=          -7432.4383 ZZZZ=          -6587.2579 XXXY=           -295.9463
 XXXZ=            348.3303 YYYX=           -144.1953 YYYZ=             89.2211 ZZZX=             94.9288
 ZZZY=             65.0711 XXYY=          -2974.9619 XXZZ=          -3282.5555 YYZZ=          -2392.3396
 XXYZ=             25.3567 YYXZ=              2.8530 ZZXY=            -46.7904
 N-N= 5.721031837610D+03 E-N=-1.633615797130D+04  KE= 2.083029116804D+03
 Unable to Open any file for archive entry.
 1\1\GINC-NODE17\SP\RwB97XD\6-311++G(d,p)\C31H50B1Li1N1O6P1\WHUGHES2\08
 -Oct-2025\0\\# wb97xd/6-311++g** nosymm int=ultrafine scrf=(smd,solven
 t=tetrahydrofuran)\\aminationTS-full-unfrz-c7_tzpop-sp\\0,1\C,0,-2.378
 6,1.1118,2.0285\C,0,-2.3327,0.7585,3.3484\H,0,-2.8915,-0.1392,3.619\C,
 0,-1.7162,1.4935,4.501\H,0,-1.0329,2.2892,4.1934\H,0,-2.5044,1.944,5.1
 199\H,0,-1.1658,0.8007,5.1502\C,0,-1.7248,2.366,1.5171\H,0,-2.4971,3.1
 019,1.2579\H,0,-1.027,2.8358,2.2167\H,0,-1.1735,2.1495,0.5956\B,0,-3.2
 768,0.2338,0.9513\C,0,-4.2751,1.2426,0.1349\H,0,-4.845,1.8903,0.8206\H
 ,0,-3.7432,1.9091,-0.5591\H,0,-5.0151,0.6873,-0.4578\O,0,-2.3052,-0.51
 75,0.0463\O,0,-4.0351,-0.8612,1.5907\C,0,-3.6288,-2.1355,1.1369\C,0,-2
 .8085,-1.8393,-0.1754\C,0,-4.8719,-2.9969,0.8967\H,0,-5.583,-2.4986,0.
 2323\H,0,-4.6086,-3.9702,0.4639\H,0,-5.3778,-3.1789,1.8521\C,0,-2.7947
 ,-2.8249,2.2283\H,0,-1.8547,-2.3058,2.4267\H,0,-3.3751,-2.8324,3.1579\
 H,0,-2.5556,-3.8628,1.9678\C,0,-3.6821,-1.8388,-1.436\H,0,-3.0859,-1.4
 689,-2.2746\H,0,-4.0244,-2.85,-1.6843\H,0,-4.5593,-1.1967,-1.3266\C,0,
 -1.6273,-2.7799,-0.4053\H,0,-1.9711,-3.8186,-0.4824\H,0,-1.1235,-2.518
 3,-1.3421\H,0,-0.8899,-2.7152,0.3994\P,0,1.7396,-0.6092,0.6536\O,0,0.8
 408,-0.3926,-0.5479\O,0,1.0562,-1.134,1.9487\N,0,-0.4621,-0.0714,2.294
 3\H,0,-0.6071,-0.6718,3.1086\H,0,-0.9622,-0.5339,1.5211\Li,0,-0.8809,0
 .1571,-1.1257\C,0,-1.3437,3.3499,-1.8062\O,0,-0.6062,2.1278,-1.7672\C,
 0,0.7661,2.5027,-1.8945\C,0,0.9083,3.7037,-0.9663\C,0,-0.4649,4.4002,-
 1.097\H,0,-1.5207,3.6214,-2.8567\H,0,-2.3054,3.1767,-1.3221\H,0,1.3657
 ,1.6349,-1.6232\H,0,0.9681,2.7823,-2.9402\H,0,1.0756,3.3586,0.0592\H,0
 ,1.7437,4.3495,-1.2506\H,0,-0.8714,4.6651,-0.1172\H,0,-0.4022,5.3151,-
 1.6934\C,0,-1.7526,0.186,-3.9656\O,0,-0.9833,-0.5382,-3.0079\C,0,0.181
 8,-1.0036,-3.6853\C,0,0.5783,0.1287,-4.6406\C,0,-0.7337,0.9233,-4.8437
 \H,0,-2.3485,-0.5253,-4.5556\H,0,-2.4289,0.8455,-3.4169\H,0,0.9297,-1.
 2257,-2.923\H,0,-0.068,-1.9229,-4.2348\H,0,1.3478,0.759,-4.1864\H,0,0.
 9782,-0.2665,-5.5787\H,0,-0.6169,1.9575,-4.5093\H,0,-1.0541,0.9399,-5.
 8892\C,0,3.0062,-1.8463,0.2451\C,0,2.7518,-2.7633,-0.7794\C,0,4.2023,-
 1.9328,0.9657\C,0,3.6836,-3.7544,-1.0826\H,0,1.8219,-2.6999,-1.338\C,0
 ,5.1351,-2.9212,0.66\H,0,4.4111,-1.2248,1.7645\C,0,4.8763,-3.8328,-0.3
 644\H,0,3.4791,-4.4637,-1.88\H,0,6.0638,-2.9801,1.2209\H,0,5.6045,-4.6
 036,-0.602\C,0,2.6279,0.9317,1.0397\C,0,2.3735,1.6317,2.2222\C,0,3.546
 3,1.4508,0.1188\C,0,3.0185,2.8426,2.4741\H,0,1.6621,1.2326,2.9382\C,0,
 4.1948,2.6557,0.3731\H,0,3.7598,0.9114,-0.8018\C,0,3.9277,3.3557,1.550
 9\H,0,2.8104,3.3836,3.3933\H,0,4.9065,3.0502,-0.347\H,0,4.431,4.2984,1
 .7484\\Version=AS64L-G16RevC.01\HF=-2091.3576602\RMSD=6.507e-09\Dipole
 =2.8911937,1.4980855,-2.4281868\Quadrupole=-21.2563539,8.8269591,12.42
 93948,1.4515103,4.7488149,3.9819329\PG=C01 [X(C31H50B1Li1N1O6P1)]\\@
 The archive entry for this job was punched.


 LET US LEARN TO DREAM, GENTLEMEN, THEN PERHAPS WE SHALL
 DISCOVER THE TRUTH;  BUT LET US BEWARE OF PUBLISHING
 OUR DREAMS ABROAD BEFORE THEY HAVE BEEN SCRUTINIZED
 BY OUR VIGILANT INTELLECT ... LET US ALWAYS ALLOW
 THE FRUIT TO HANG UNTIL IT IS RIPE.  UNRIPE FRUIT
 BRINGS EVEN THE GROWER BUT LITTLE PROFIT; IT DAMAGES
 THE HEALTH OF THOSE WHO CONSUME IT; IT ENDANGERS
 PARTICULARLY THE YOUTH WHO CANNOT YET DISTINGUISH
 BETWEEN RIPE AND UNRIPE FRUIT.

                                  -- KEKULE, 1890
 Job cpu time:       0 days  8 hours  8 minutes 43.5 seconds.
 Elapsed time:       0 days  2 hours  3 minutes 25.4 seconds.
 File lengths (MBytes):  RWF=   1328 Int=      0 D2E=      0 Chk=     95 Scr=      1
 Normal termination of Gaussian 16 at Wed Oct  8 17:31:11 2025.
