Job Start Time: Fri Oct 10 11:05:30 MDT 2025
SLURM Job ID: 768336
SLURM Job Name: aminationTS-full-unfrz-c17_sp_tzpop
 Entering Gaussian System, Link 0=/opt/apps/Gaussian/G16C/g16/g16
 Initial command:
 /opt/apps/Gaussian/G16C/g16/l1.exe "/tmp/768336/Gau-3546812.inp" -scrdir="/tmp/768336/"
 Entering Link 1 = /opt/apps/Gaussian/G16C/g16/l1.exe PID=   3546813.
  
 Copyright (c) 1988-2019, Gaussian, Inc.  All Rights Reserved.
  
 This is part of the Gaussian(R) 16 program.  It is based on
 the Gaussian(R) 09 system (copyright 2009, Gaussian, Inc.),
 the Gaussian(R) 03 system (copyright 2003, Gaussian, Inc.),
 the Gaussian(R) 98 system (copyright 1998, Gaussian, Inc.),
 the Gaussian(R) 94 system (copyright 1995, Gaussian, Inc.),
 the Gaussian 92(TM) system (copyright 1992, Gaussian, Inc.),
 the Gaussian 90(TM) system (copyright 1990, Gaussian, Inc.),
 the Gaussian 88(TM) system (copyright 1988, Gaussian, Inc.),
 the Gaussian 86(TM) system (copyright 1986, Carnegie Mellon
 University), and the Gaussian 82(TM) system (copyright 1983,
 Carnegie Mellon University). Gaussian is a federally registered
 trademark of Gaussian, Inc.
  
 This software contains proprietary and confidential information,
 including trade secrets, belonging to Gaussian, Inc.
  
 This software is provided under written license and may be
 used, copied, transmitted, or stored only in accord with that
 written license.
  
 The following legend is applicable only to US Government
 contracts under FAR:
  
                    RESTRICTED RIGHTS LEGEND
  
 Use, reproduction and disclosure by the US Government is
 subject to restrictions as set forth in subparagraphs (a)
 and (c) of the Commercial Computer Software - Restricted
 Rights clause in FAR 52.227-19.
  
 Gaussian, Inc.
 340 Quinnipiac St., Bldg. 40, Wallingford CT 06492
  
  
 ---------------------------------------------------------------
 Warning -- This program may not be used in any manner that
 competes with the business of Gaussian, Inc. or will provide
 assistance to any competitor of Gaussian, Inc.  The licensee
 of this program is prohibited from giving any competitor of
 Gaussian, Inc. access to this program.  By using this program,
 the user acknowledges that Gaussian, Inc. is engaged in the
 business of creating and licensing software in the field of
 computational chemistry and represents and warrants to the
 licensee that it is not a competitor of Gaussian, Inc. and that
 it will not use this program in any manner prohibited above.
 ---------------------------------------------------------------
  

 Cite this work as:
 Gaussian 16, Revision C.01,
 M. J. Frisch, G. W. Trucks, H. B. Schlegel, G. E. Scuseria, 
 M. A. Robb, J. R. Cheeseman, G. Scalmani, V. Barone, 
 G. A. Petersson, H. Nakatsuji, X. Li, M. Caricato, A. V. Marenich, 
 J. Bloino, B. G. Janesko, R. Gomperts, B. Mennucci, H. P. Hratchian, 
 J. V. Ortiz, A. F. Izmaylov, J. L. Sonnenberg, D. Williams-Young, 
 F. Ding, F. Lipparini, F. Egidi, J. Goings, B. Peng, A. Petrone, 
 T. Henderson, D. Ranasinghe, V. G. Zakrzewski, J. Gao, N. Rega, 
 G. Zheng, W. Liang, M. Hada, M. Ehara, K. Toyota, R. Fukuda, 
 J. Hasegawa, M. Ishida, T. Nakajima, Y. Honda, O. Kitao, H. Nakai, 
 T. Vreven, K. Throssell, J. A. Montgomery, Jr., J. E. Peralta, 
 F. Ogliaro, M. J. Bearpark, J. J. Heyd, E. N. Brothers, K. N. Kudin, 
 V. N. Staroverov, T. A. Keith, R. Kobayashi, J. Normand, 
 K. Raghavachari, A. P. Rendell, J. C. Burant, S. S. Iyengar, 
 J. Tomasi, M. Cossi, J. M. Millam, M. Klene, C. Adamo, R. Cammi, 
 J. W. Ochterski, R. L. Martin, K. Morokuma, O. Farkas, 
 J. B. Foresman, and D. J. Fox, Gaussian, Inc., Wallingford CT, 2019.
 
 ******************************************
 Gaussian 16:  AS64L-G16RevC.01  3-Jul-2019
                10-Oct-2025 
 ******************************************
 %chk=aminationTS-full-unfrz-c17_sp_tzpop.chk
 %nprocshared=32
 Will use up to   32 processors via shared memory.
 %mem=64GB
 ----------------------------------------------------------------------
 # wb97xd/6-311++g** nosymm int=ultrafine scrf=(smd,solvent=tetrahydrof
 uran)
 ----------------------------------------------------------------------
 1/38=1,172=1/1;
 2/12=2,15=1,17=6,18=5,40=1/2;
 3/5=4,6=6,7=1111,11=2,25=1,30=1,70=32201,72=20,74=-58,75=-5/1,2,3;
 4//1;
 5/5=2,38=5,53=20/2;
 6/7=2,8=2,9=2,10=2,28=1/1;
 99/5=1,9=1/99;
 -----------------------------------
 aminationTS-full-unfrz-c17_sp_tzpop
 -----------------------------------
 Symbolic Z-matrix:
 Charge =  0 Multiplicity = 1
 6                    -5.02305  -0.40554   0.81778 
 6                    -5.04203  -0.14456   2.16138 
 1                    -4.07525  -0.02001   2.64994 
 6                    -6.23443   0.14283   3.03504 
 1                    -6.49708   1.20908   2.99607 
 1                    -7.121    -0.4274    2.74046 
 1                    -6.01455  -0.09557   4.0825 
 6                    -6.29443  -0.43649   0.02048 
 1                    -7.20852  -0.40596   0.6222 
 1                    -6.30347   0.43052  -0.65502 
 1                    -6.32425  -1.318    -0.62628 
 5                    -3.58748  -0.4688   -0.01698 
 6                    -2.88652   1.00281   0.05795 
 1                    -2.67895   1.31691   1.09088 
 1                    -1.93563   1.03178  -0.49413 
 1                    -3.53548   1.77776  -0.38088 
 8                    -2.69209  -1.56957   0.56767 
 8                    -3.76423  -0.90071  -1.41763 
 6                    -3.31861  -2.23002  -1.58995 
 6                    -2.19021  -2.36797  -0.51599 
 6                    -2.82459  -2.40407  -3.02542 
 1                    -3.67262  -2.33341  -3.71668 
 1                    -2.10524  -1.62646  -3.2973 
 1                    -2.35372  -3.38469  -3.16858 
 6                    -4.47118  -3.21875  -1.35212 
 1                    -4.17112  -4.2499   -1.57341 
 1                    -4.84133  -3.18637  -0.32374 
 1                    -5.30097  -2.95914  -2.01924 
 6                    -0.85851  -1.77937  -0.99353 
 1                    -0.16504  -1.73773  -0.14912 
 1                    -0.40292  -2.40576  -1.76911 
 1                    -0.9837   -0.76963  -1.39375 
 6                    -1.95023  -3.79231  -0.02721 
 1                    -2.83845  -4.21626   0.44676 
 1                    -1.66069  -4.43797  -0.86524 
 1                    -1.13739  -3.80487   0.70698 
 15                   -3.39101  -4.31749   3.45908 
 8                    -2.24361  -3.35446   3.22406 
 8                    -4.60891  -4.2004    2.49061 
 7                    -4.98524  -2.41991   2.06137 
 1                    -4.87576  -2.11892   3.03332 
 1                    -4.05472  -2.33967   1.62858 
 3                    -1.77304  -1.74513   2.2843 
 6                    -2.39523  -0.71672   4.9943 
 8                    -2.03975  -0.26563   3.68453 
 6                    -1.88393   1.15756   3.75388 
 6                    -1.50549   1.48711   5.21278 
 6                    -1.52558   0.11969   5.92 
 1                    -3.46667  -0.5317    5.17021 
 1                    -2.20763  -1.78861   5.02853 
 1                    -1.12076   1.44187   3.02672 
 1                    -2.82975   1.63693   3.47047 
 1                    -0.52642   1.96929   5.27973 
 1                    -2.24265   2.16615   5.65112 
 1                    -0.51898  -0.31061   5.96699 
 1                    -1.92627   0.17056   6.9361 
 6                     0.75288  -2.32686   3.51553 
 8                     0.22159  -1.78964   2.2896 
 6                     0.85341  -0.53475   1.98631 
 6                     1.53936  -0.09851   3.27299 
 6                     1.9452   -1.44645   3.87502 
 1                    -0.0317   -2.28387   4.2787 
 1                     1.01504  -3.3743    3.34376 
 1                     1.58294  -0.6925    1.18124 
 1                     0.08433   0.15578   1.62714 
 1                     2.38653   0.56652   3.08472 
 1                     0.83109   0.41503   3.93152 
 1                     2.85779  -1.8182    3.39539 
 1                     2.11485  -1.40559   4.95456 
 6                    -2.7999   -6.02681   3.34422 
 6                    -1.51897  -6.27807   2.84557 
 6                    -3.61855  -7.09589   3.72556 
 6                    -1.06085  -7.58926   2.72394 
 1                    -0.88478  -5.44497   2.55588 
 6                    -3.15872  -8.40454   3.60598 
 1                    -4.61464  -6.90738   4.11966 
 6                    -1.87999  -8.6516    3.10335 
 1                    -0.06466  -7.7801    2.33411 
 1                    -3.79674  -9.23199   3.90381 
 1                    -1.52235  -9.67352   3.00998 
 6                    -4.02492  -4.08037   5.14884 
 6                    -3.13956  -4.10056   6.23395 
 6                    -5.38121  -3.83047   5.37415 
 6                    -3.60422  -3.86636   7.52448 
 1                    -2.08211  -4.29559   6.06857 
 6                    -5.84648  -3.58886   6.6675 
 1                    -6.07325  -3.82345   4.53597 
 6                    -4.95926  -3.60601   7.74157 
 1                    -2.91176  -3.88437   8.36174 
 1                    -6.90187  -3.391     6.83393 
 1                    -5.32137  -3.42062   8.74926 
 
 Symmetry turned off by external request.
 Stoichiometry    C31H50BLiNO6P
 Framework group  C1[X(C31H50BLiNO6P)]
 Deg. of freedom   267
 Full point group                 C1      NOp   1
                          Input orientation:                          
 ---------------------------------------------------------------------
 Center     Atomic      Atomic             Coordinates (Angstroms)
 Number     Number       Type             X           Y           Z
 ---------------------------------------------------------------------
      1          6           0       -5.023049   -0.405538    0.817781
      2          6           0       -5.042031   -0.144564    2.161381
      3          1           0       -4.075247   -0.020012    2.649936
      4          6           0       -6.234429    0.142833    3.035038
      5          1           0       -6.497084    1.209080    2.996065
      6          1           0       -7.120999   -0.427395    2.740458
      7          1           0       -6.014549   -0.095568    4.082498
      8          6           0       -6.294429   -0.436493    0.020479
      9          1           0       -7.208521   -0.405962    0.622204
     10          1           0       -6.303469    0.430515   -0.655019
     11          1           0       -6.324253   -1.317997   -0.626277
     12          5           0       -3.587478   -0.468797   -0.016975
     13          6           0       -2.886516    1.002813    0.057948
     14          1           0       -2.678949    1.316906    1.090878
     15          1           0       -1.935627    1.031777   -0.494130
     16          1           0       -3.535479    1.777757   -0.380879
     17          8           0       -2.692092   -1.569568    0.567666
     18          8           0       -3.764227   -0.900712   -1.417627
     19          6           0       -3.318610   -2.230018   -1.589946
     20          6           0       -2.190213   -2.367971   -0.515987
     21          6           0       -2.824594   -2.404073   -3.025421
     22          1           0       -3.672619   -2.333409   -3.716678
     23          1           0       -2.105242   -1.626462   -3.297295
     24          1           0       -2.353717   -3.384685   -3.168582
     25          6           0       -4.471177   -3.218745   -1.352115
     26          1           0       -4.171119   -4.249903   -1.573409
     27          1           0       -4.841325   -3.186368   -0.323743
     28          1           0       -5.300972   -2.959136   -2.019239
     29          6           0       -0.858510   -1.779368   -0.993532
     30          1           0       -0.165044   -1.737734   -0.149121
     31          1           0       -0.402921   -2.405761   -1.769111
     32          1           0       -0.983698   -0.769633   -1.393750
     33          6           0       -1.950226   -3.792307   -0.027209
     34          1           0       -2.838449   -4.216255    0.446758
     35          1           0       -1.660685   -4.437973   -0.865241
     36          1           0       -1.137391   -3.804874    0.706984
     37         15           0       -3.391006   -4.317486    3.459075
     38          8           0       -2.243606   -3.354459    3.224059
     39          8           0       -4.608909   -4.200404    2.490607
     40          7           0       -4.985242   -2.419913    2.061367
     41          1           0       -4.875757   -2.118919    3.033322
     42          1           0       -4.054722   -2.339667    1.628575
     43          3           0       -1.773038   -1.745131    2.284299
     44          6           0       -2.395225   -0.716721    4.994301
     45          8           0       -2.039750   -0.265629    3.684529
     46          6           0       -1.883931    1.157565    3.753875
     47          6           0       -1.505486    1.487108    5.212776
     48          6           0       -1.525577    0.119690    5.919997
     49          1           0       -3.466674   -0.531697    5.170208
     50          1           0       -2.207625   -1.788607    5.028528
     51          1           0       -1.120763    1.441870    3.026718
     52          1           0       -2.829754    1.636934    3.470468
     53          1           0       -0.526417    1.969291    5.279732
     54          1           0       -2.242649    2.166150    5.651121
     55          1           0       -0.518977   -0.310609    5.966994
     56          1           0       -1.926269    0.170556    6.936097
     57          6           0        0.752882   -2.326863    3.515526
     58          8           0        0.221589   -1.789639    2.289601
     59          6           0        0.853410   -0.534750    1.986314
     60          6           0        1.539356   -0.098512    3.272989
     61          6           0        1.945197   -1.446453    3.875019
     62          1           0       -0.031703   -2.283872    4.278700
     63          1           0        1.015043   -3.374295    3.343756
     64          1           0        1.582935   -0.692500    1.181244
     65          1           0        0.084326    0.155783    1.627138
     66          1           0        2.386533    0.566520    3.084718
     67          1           0        0.831092    0.415027    3.931524
     68          1           0        2.857792   -1.818195    3.395387
     69          1           0        2.114846   -1.405591    4.954562
     70          6           0       -2.799902   -6.026814    3.344216
     71          6           0       -1.518973   -6.278072    2.845567
     72          6           0       -3.618550   -7.095895    3.725559
     73          6           0       -1.060845   -7.589264    2.723935
     74          1           0       -0.884784   -5.444973    2.555878
     75          6           0       -3.158723   -8.404541    3.605975
     76          1           0       -4.614640   -6.907378    4.119658
     77          6           0       -1.879986   -8.651605    3.103349
     78          1           0       -0.064662   -7.780104    2.334108
     79          1           0       -3.796735   -9.231993    3.903812
     80          1           0       -1.522350   -9.673515    3.009985
     81          6           0       -4.024925   -4.080374    5.148840
     82          6           0       -3.139558   -4.100560    6.233948
     83          6           0       -5.381211   -3.830466    5.374147
     84          6           0       -3.604219   -3.866362    7.524476
     85          1           0       -2.082107   -4.295590    6.068571
     86          6           0       -5.846476   -3.588861    6.667501
     87          1           0       -6.073247   -3.823454    4.535969
     88          6           0       -4.959255   -3.606010    7.741574
     89          1           0       -2.911761   -3.884370    8.361740
     90          1           0       -6.901870   -3.391001    6.833926
     91          1           0       -5.321371   -3.420617    8.749260
 ---------------------------------------------------------------------
 Rotational constants (GHZ):           0.0932162           0.0754283           0.0676294
 Standard basis: 6-311++G(d,p) (5D, 7F)
  1260 basis functions,  1940 primitive gaussians,  1301 cartesian basis functions
   157 alpha electrons      157 beta electrons
       nuclear repulsion energy      5699.9014130852 Hartrees.
 NAtoms=   91 NActive=   91 NUniq=   91 SFac= 1.00D+00 NAtFMM=   60 NAOKFM=T Big=T
 Integral buffers will be    131072 words long.
 Raffenetti 2 integral format.
 Two-electron integral symmetry is turned off.
 Nuclear repulsion after empirical dispersion term =     5699.7857491139 Hartrees.
 ------------------------------------------------------------------------------
 Polarizable Continuum Model (PCM)
 =================================
 Model                : PCM.
 Atomic radii         : SMD-Coulomb.
 Polarization charges : Total charges.
 Charge compensation  : None.
 Solution method      : On-the-fly selection.
 Cavity type          : VdW (van der Waals Surface) (Alpha=1.000).
 Cavity algorithm     : GePol (No added spheres)
                        Default sphere list used, NSphG=   91.
                        Lebedev-Laikov grids with approx.  5.0 points / Ang**2.
                        Smoothing algorithm: York/Karplus (Gamma=1.0000).
                        Polarization charges: spherical gaussians, with
                                              point-specific exponents (IZeta= 3).
                        Self-potential: point-specific (ISelfS= 7).
                        Self-field    : sphere-specific E.n sum rule (ISelfD= 2).
 Solvent              : TetraHydroFuran, Eps=   7.425700 Eps(inf)=   1.974025
 ------------------------------------------------------------------------------
 ------------------------------------------------------------------------------
 Atomic radii for non-electrostatic terms: SMD-CDS.
 ------------------------------------------------------------------------------
 Nuclear repulsion after PCM non-electrostatic terms =     5699.7763608938 Hartrees.
 One-electron integrals computed using PRISM.
 NBasis=  1260 RedAO= T EigKep=  1.05D-06  NBF=  1260
 NBsUse=  1251 1.00D-06 EigRej=  9.33D-07 NBFU=  1251
 ExpMin= 7.40D-03 ExpMax= 7.75D+04 ExpMxC= 2.65D+03 IAcc=3 IRadAn=         5 AccDes= 0.00D+00
 Harris functional with IExCor= 4639 and IRadAn=       5 diagonalized for initial guess.
 HarFok:  IExCor= 4639 AccDes= 0.00D+00 IRadAn=         5 IDoV= 1 UseB2=F ITyADJ=14
 ICtDFT=  3500011 ScaDFX=  1.000000  1.000000  1.000000  1.000000
 FoFCou: FMM=F IPFlag=           0 FMFlag=      100000 FMFlg1=        2001
         NFxFlg=           0 DoJE=T BraDBF=F KetDBF=T FulRan=T
         wScrn=  0.000000 ICntrl=       500 IOpCl=  0 I1Cent=   200000004 NGrid=           0
         NMat0=    1 NMatS0=      1 NMatT0=    0 NMatD0=    1 NMtDS0=    0 NMtDT0=    0
 Symmetry not used in FoFCou.
 Requested convergence on RMS density matrix=1.00D-08 within 128 cycles.
 Requested convergence on MAX density matrix=1.00D-06.
 Requested convergence on             energy=1.00D-06.
 No special actions if energy rises.
 Inv3:  Mode=1 IEnd=    89795523.
 Iteration    1 A*A^-1 deviation from unit magnitude is 6.88D-15 for   5461.
 Iteration    1 A*A^-1 deviation from orthogonality  is 5.16D-15 for   5470   2560.
 Iteration    1 A^-1*A deviation from unit magnitude is 6.88D-15 for   5461.
 Iteration    1 A^-1*A deviation from orthogonality  is 3.34D-15 for   2050   2012.
 Error on total polarization charges =  0.07830
 SCF Done:  E(RwB97XD) =  -2091.35411426     A.U. after   17 cycles
            NFock= 17  Conv=0.56D-08     -V/T= 2.0040
 SMD-CDS (non-electrostatic) energy       (kcal/mol) =      -5.89
 (included in total energy above)

 **********************************************************************

            Population analysis using the SCF Density.

 **********************************************************************

 Alpha  occ. eigenvalues --  -77.29080 -19.26428 -19.25688 -19.22691 -19.20910
 Alpha  occ. eigenvalues --  -19.19834 -19.18058 -14.48690 -10.32779 -10.32619
 Alpha  occ. eigenvalues --  -10.32391 -10.32370 -10.31983 -10.31289 -10.29889
 Alpha  occ. eigenvalues --  -10.29782 -10.29753 -10.29720 -10.29696 -10.29660
 Alpha  occ. eigenvalues --  -10.29563 -10.29480 -10.29433 -10.29412 -10.29207
 Alpha  occ. eigenvalues --  -10.29190 -10.28131 -10.28068 -10.28058 -10.28030
 Alpha  occ. eigenvalues --  -10.28011 -10.26975 -10.26904 -10.25558 -10.25184
 Alpha  occ. eigenvalues --  -10.25045 -10.24967 -10.24539 -10.21401  -6.81651
 Alpha  occ. eigenvalues --   -6.73479  -4.88232  -4.88151  -4.88111  -1.99535
 Alpha  occ. eigenvalues --   -1.15378  -1.14474  -1.10936  -1.10530  -1.04562
 Alpha  occ. eigenvalues --   -1.04201  -0.96716  -0.96415  -0.94831  -0.88622
 Alpha  occ. eigenvalues --   -0.88293  -0.88178  -0.87325  -0.86237  -0.85393
 Alpha  occ. eigenvalues --   -0.85213  -0.85068  -0.84130  -0.83629  -0.82122
 Alpha  occ. eigenvalues --   -0.80923  -0.78022  -0.75482  -0.75294  -0.73385
 Alpha  occ. eigenvalues --   -0.72869  -0.70643  -0.70361  -0.69816  -0.69372
 Alpha  occ. eigenvalues --   -0.69103  -0.68787  -0.68498  -0.68406  -0.64946
 Alpha  occ. eigenvalues --   -0.61917  -0.61667  -0.60980  -0.60798  -0.59499
 Alpha  occ. eigenvalues --   -0.59395  -0.58744  -0.58502  -0.58206  -0.57400
 Alpha  occ. eigenvalues --   -0.55343  -0.54996  -0.54761  -0.54492  -0.54086
 Alpha  occ. eigenvalues --   -0.53542  -0.53076  -0.52413  -0.52327  -0.52184
 Alpha  occ. eigenvalues --   -0.51661  -0.51438  -0.51322  -0.51084  -0.50936
 Alpha  occ. eigenvalues --   -0.50563  -0.50342  -0.49953  -0.49336  -0.48922
 Alpha  occ. eigenvalues --   -0.48876  -0.48468  -0.47127  -0.47068  -0.46672
 Alpha  occ. eigenvalues --   -0.46632  -0.46449  -0.46278  -0.45611  -0.45209
 Alpha  occ. eigenvalues --   -0.44956  -0.44627  -0.44486  -0.44071  -0.43966
 Alpha  occ. eigenvalues --   -0.43815  -0.43495  -0.43332  -0.43029  -0.42856
 Alpha  occ. eigenvalues --   -0.42689  -0.42545  -0.42391  -0.42226  -0.41603
 Alpha  occ. eigenvalues --   -0.41592  -0.41410  -0.41171  -0.40711  -0.40617
 Alpha  occ. eigenvalues --   -0.39902  -0.39088  -0.38650  -0.38281  -0.37377
 Alpha  occ. eigenvalues --   -0.36649  -0.35785  -0.35507  -0.34941  -0.34503
 Alpha  occ. eigenvalues --   -0.34317  -0.34013  -0.33732  -0.33143  -0.31483
 Alpha  occ. eigenvalues --   -0.29679  -0.28078
 Alpha virt. eigenvalues --    0.00756   0.02257   0.02506   0.02638   0.02774
 Alpha virt. eigenvalues --    0.02872   0.04284   0.04588   0.05287   0.05404
 Alpha virt. eigenvalues --    0.05662   0.05705   0.05849   0.06204   0.06778
 Alpha virt. eigenvalues --    0.06961   0.06990   0.07088   0.07270   0.07495
 Alpha virt. eigenvalues --    0.07594   0.07773   0.07861   0.08057   0.08317
 Alpha virt. eigenvalues --    0.08648   0.08771   0.08792   0.09254   0.09309
 Alpha virt. eigenvalues --    0.09564   0.09773   0.09951   0.10136   0.10477
 Alpha virt. eigenvalues --    0.10796   0.11053   0.11127   0.11517   0.11743
 Alpha virt. eigenvalues --    0.11969   0.12224   0.12348   0.12717   0.12922
 Alpha virt. eigenvalues --    0.13087   0.13247   0.13661   0.13697   0.14042
 Alpha virt. eigenvalues --    0.14366   0.14613   0.14721   0.14858   0.15060
 Alpha virt. eigenvalues --    0.15151   0.15365   0.15481   0.15604   0.15896
 Alpha virt. eigenvalues --    0.16136   0.16212   0.16539   0.16601   0.16728
 Alpha virt. eigenvalues --    0.17064   0.17213   0.17267   0.17427   0.17453
 Alpha virt. eigenvalues --    0.17513   0.17781   0.17887   0.17932   0.18135
 Alpha virt. eigenvalues --    0.18239   0.18328   0.18527   0.18569   0.18630
 Alpha virt. eigenvalues --    0.18964   0.19094   0.19150   0.19302   0.19542
 Alpha virt. eigenvalues --    0.19584   0.19755   0.19869   0.20070   0.20220
 Alpha virt. eigenvalues --    0.20265   0.20336   0.20489   0.20680   0.20789
 Alpha virt. eigenvalues --    0.20898   0.21031   0.21063   0.21179   0.21322
 Alpha virt. eigenvalues --    0.21445   0.21599   0.21735   0.21938   0.22056
 Alpha virt. eigenvalues --    0.22099   0.22306   0.22490   0.22552   0.22779
 Alpha virt. eigenvalues --    0.22948   0.23048   0.23226   0.23356   0.23498
 Alpha virt. eigenvalues --    0.23659   0.23773   0.23891   0.24002   0.24149
 Alpha virt. eigenvalues --    0.24217   0.24402   0.24445   0.24601   0.24763
 Alpha virt. eigenvalues --    0.24850   0.25038   0.25273   0.25345   0.25419
 Alpha virt. eigenvalues --    0.25598   0.25737   0.25834   0.25975   0.26036
 Alpha virt. eigenvalues --    0.26164   0.26245   0.26355   0.26510   0.26646
 Alpha virt. eigenvalues --    0.26792   0.26974   0.27033   0.27250   0.27330
 Alpha virt. eigenvalues --    0.27579   0.27630   0.27802   0.28096   0.28163
 Alpha virt. eigenvalues --    0.28240   0.28476   0.28692   0.28762   0.29010
 Alpha virt. eigenvalues --    0.29147   0.29198   0.29287   0.29700   0.29726
 Alpha virt. eigenvalues --    0.29871   0.30195   0.30321   0.30426   0.30635
 Alpha virt. eigenvalues --    0.30720   0.30752   0.30892   0.31083   0.31211
 Alpha virt. eigenvalues --    0.31319   0.31433   0.31570   0.31599   0.31799
 Alpha virt. eigenvalues --    0.31932   0.32170   0.32245   0.32367   0.32426
 Alpha virt. eigenvalues --    0.32799   0.32919   0.33163   0.33475   0.33568
 Alpha virt. eigenvalues --    0.33875   0.34008   0.34136   0.34168   0.34544
 Alpha virt. eigenvalues --    0.34699   0.34959   0.34977   0.35095   0.35319
 Alpha virt. eigenvalues --    0.35523   0.35780   0.35916   0.35949   0.36081
 Alpha virt. eigenvalues --    0.36234   0.36422   0.36494   0.36764   0.37146
 Alpha virt. eigenvalues --    0.37197   0.37303   0.37524   0.37814   0.37949
 Alpha virt. eigenvalues --    0.38173   0.38378   0.38521   0.38660   0.38771
 Alpha virt. eigenvalues --    0.39014   0.39090   0.39141   0.39373   0.39398
 Alpha virt. eigenvalues --    0.39716   0.39802   0.39924   0.40261   0.40431
 Alpha virt. eigenvalues --    0.40602   0.40952   0.41006   0.41035   0.41303
 Alpha virt. eigenvalues --    0.41448   0.41528   0.41597   0.41782   0.41909
 Alpha virt. eigenvalues --    0.42320   0.42442   0.42632   0.42784   0.43048
 Alpha virt. eigenvalues --    0.43280   0.43367   0.43552   0.43936   0.43993
 Alpha virt. eigenvalues --    0.44202   0.44287   0.44722   0.44855   0.45023
 Alpha virt. eigenvalues --    0.45473   0.45528   0.45721   0.45973   0.46183
 Alpha virt. eigenvalues --    0.46673   0.46771   0.46843   0.47187   0.47486
 Alpha virt. eigenvalues --    0.47656   0.47836   0.47895   0.48101   0.48610
 Alpha virt. eigenvalues --    0.48821   0.48982   0.49442   0.49602   0.49760
 Alpha virt. eigenvalues --    0.50116   0.50176   0.50638   0.50865   0.51271
 Alpha virt. eigenvalues --    0.51689   0.51798   0.52034   0.52308   0.52799
 Alpha virt. eigenvalues --    0.52969   0.53181   0.53643   0.53963   0.54314
 Alpha virt. eigenvalues --    0.54528   0.55186   0.55315   0.55873   0.55991
 Alpha virt. eigenvalues --    0.56503   0.56726   0.57187   0.57762   0.57783
 Alpha virt. eigenvalues --    0.57940   0.58211   0.58691   0.59202   0.59628
 Alpha virt. eigenvalues --    0.60177   0.60683   0.60997   0.61085   0.61417
 Alpha virt. eigenvalues --    0.61961   0.62244   0.62766   0.63179   0.63429
 Alpha virt. eigenvalues --    0.63784   0.64059   0.64202   0.64256   0.64382
 Alpha virt. eigenvalues --    0.64817   0.65060   0.65457   0.65541   0.65717
 Alpha virt. eigenvalues --    0.65999   0.66326   0.66481   0.67017   0.67225
 Alpha virt. eigenvalues --    0.67350   0.67416   0.67717   0.68088   0.68500
 Alpha virt. eigenvalues --    0.68884   0.68893   0.69151   0.69771   0.69923
 Alpha virt. eigenvalues --    0.69998   0.70474   0.70751   0.70912   0.71023
 Alpha virt. eigenvalues --    0.71297   0.71532   0.71683   0.71933   0.72393
 Alpha virt. eigenvalues --    0.72655   0.73065   0.73130   0.73464   0.73665
 Alpha virt. eigenvalues --    0.74131   0.74399   0.74659   0.74912   0.75109
 Alpha virt. eigenvalues --    0.75313   0.75726   0.76102   0.76163   0.76397
 Alpha virt. eigenvalues --    0.76648   0.76872   0.76977   0.77329   0.77449
 Alpha virt. eigenvalues --    0.78050   0.78237   0.78473   0.79004   0.79094
 Alpha virt. eigenvalues --    0.79507   0.79763   0.80168   0.80277   0.80598
 Alpha virt. eigenvalues --    0.80671   0.80931   0.81095   0.81127   0.81453
 Alpha virt. eigenvalues --    0.82088   0.82274   0.82467   0.82857   0.82996
 Alpha virt. eigenvalues --    0.83238   0.83466   0.83685   0.83735   0.84072
 Alpha virt. eigenvalues --    0.84217   0.84480   0.84619   0.84708   0.85234
 Alpha virt. eigenvalues --    0.85395   0.85593   0.85852   0.86059   0.86457
 Alpha virt. eigenvalues --    0.86572   0.86756   0.86912   0.87203   0.87575
 Alpha virt. eigenvalues --    0.87831   0.87994   0.88140   0.88294   0.88606
 Alpha virt. eigenvalues --    0.88772   0.89252   0.89360   0.89511   0.90083
 Alpha virt. eigenvalues --    0.90152   0.90296   0.90569   0.90740   0.91223
 Alpha virt. eigenvalues --    0.91661   0.91754   0.91917   0.92429   0.92484
 Alpha virt. eigenvalues --    0.92579   0.93013   0.93427   0.93753   0.94090
 Alpha virt. eigenvalues --    0.94271   0.94845   0.94955   0.95102   0.95192
 Alpha virt. eigenvalues --    0.95434   0.95800   0.96032   0.96147   0.96447
 Alpha virt. eigenvalues --    0.96684   0.97069   0.97665   0.97756   0.98127
 Alpha virt. eigenvalues --    0.98365   0.98662   0.99047   0.99452   0.99935
 Alpha virt. eigenvalues --    1.00161   1.00370   1.00711   1.01129   1.01619
 Alpha virt. eigenvalues --    1.02230   1.03030   1.03108   1.03765   1.04309
 Alpha virt. eigenvalues --    1.04608   1.04935   1.05063   1.05827   1.06067
 Alpha virt. eigenvalues --    1.06388   1.06727   1.07406   1.07967   1.08779
 Alpha virt. eigenvalues --    1.09193   1.09652   1.10487   1.10887   1.11183
 Alpha virt. eigenvalues --    1.11947   1.12188   1.12695   1.12710   1.13069
 Alpha virt. eigenvalues --    1.14101   1.14550   1.14652   1.15311   1.15668
 Alpha virt. eigenvalues --    1.16270   1.16294   1.16866   1.17290   1.17664
 Alpha virt. eigenvalues --    1.17937   1.18240   1.18705   1.19613   1.19749
 Alpha virt. eigenvalues --    1.20362   1.21278   1.21684   1.22183   1.23039
 Alpha virt. eigenvalues --    1.23474   1.23685   1.24050   1.24755   1.25430
 Alpha virt. eigenvalues --    1.25812   1.26200   1.26646   1.26762   1.27262
 Alpha virt. eigenvalues --    1.28431   1.28662   1.29404   1.29743   1.30234
 Alpha virt. eigenvalues --    1.30733   1.31184   1.31638   1.32083   1.32474
 Alpha virt. eigenvalues --    1.33285   1.33486   1.33981   1.34970   1.35525
 Alpha virt. eigenvalues --    1.35645   1.36753   1.37613   1.38006   1.38586
 Alpha virt. eigenvalues --    1.39009   1.39847   1.40144   1.40187   1.40806
 Alpha virt. eigenvalues --    1.41257   1.41947   1.42642   1.42993   1.43274
 Alpha virt. eigenvalues --    1.44489   1.44711   1.45577   1.45907   1.47031
 Alpha virt. eigenvalues --    1.47348   1.47787   1.49154   1.49644   1.49993
 Alpha virt. eigenvalues --    1.50735   1.51767   1.52108   1.52541   1.53241
 Alpha virt. eigenvalues --    1.54021   1.54231   1.55214   1.55799   1.56530
 Alpha virt. eigenvalues --    1.56641   1.56895   1.57738   1.58103   1.58742
 Alpha virt. eigenvalues --    1.59096   1.59806   1.60074   1.60375   1.61051
 Alpha virt. eigenvalues --    1.61670   1.62132   1.62344   1.62580   1.62890
 Alpha virt. eigenvalues --    1.62992   1.63473   1.63827   1.63885   1.64503
 Alpha virt. eigenvalues --    1.64763   1.65072   1.65540   1.65848   1.65984
 Alpha virt. eigenvalues --    1.66492   1.66648   1.66951   1.67072   1.67598
 Alpha virt. eigenvalues --    1.68505   1.68612   1.69068   1.69155   1.69502
 Alpha virt. eigenvalues --    1.70052   1.70362   1.70643   1.70815   1.70996
 Alpha virt. eigenvalues --    1.71197   1.71669   1.72201   1.72247   1.72719
 Alpha virt. eigenvalues --    1.73015   1.73428   1.73603   1.74223   1.74543
 Alpha virt. eigenvalues --    1.74742   1.74930   1.75184   1.75555   1.75904
 Alpha virt. eigenvalues --    1.76177   1.76390   1.76432   1.76940   1.77207
 Alpha virt. eigenvalues --    1.77486   1.77810   1.78300   1.78967   1.79190
 Alpha virt. eigenvalues --    1.79271   1.79632   1.80036   1.80393   1.80612
 Alpha virt. eigenvalues --    1.81138   1.81506   1.81950   1.82198   1.82277
 Alpha virt. eigenvalues --    1.82696   1.83467   1.83708   1.84130   1.84507
 Alpha virt. eigenvalues --    1.84638   1.84902   1.85073   1.85561   1.85834
 Alpha virt. eigenvalues --    1.86545   1.86604   1.86964   1.87335   1.87549
 Alpha virt. eigenvalues --    1.88243   1.88559   1.88923   1.89048   1.89171
 Alpha virt. eigenvalues --    1.89859   1.90029   1.90379   1.90468   1.91124
 Alpha virt. eigenvalues --    1.91237   1.92304   1.92706   1.92901   1.93853
 Alpha virt. eigenvalues --    1.93911   1.94451   1.94735   1.95080   1.95603
 Alpha virt. eigenvalues --    1.96008   1.96322   1.96892   1.97225   1.97579
 Alpha virt. eigenvalues --    1.97948   1.98496   1.98739   1.98872   1.99418
 Alpha virt. eigenvalues --    2.00008   2.00560   2.00791   2.01539   2.01767
 Alpha virt. eigenvalues --    2.01999   2.02422   2.02836   2.03024   2.03272
 Alpha virt. eigenvalues --    2.03579   2.03916   2.04249   2.05115   2.05493
 Alpha virt. eigenvalues --    2.05778   2.06089   2.06747   2.07108   2.07268
 Alpha virt. eigenvalues --    2.07514   2.08126   2.08764   2.08889   2.09356
 Alpha virt. eigenvalues --    2.09797   2.09977   2.10350   2.11130   2.11205
 Alpha virt. eigenvalues --    2.11581   2.11793   2.12498   2.13039   2.13769
 Alpha virt. eigenvalues --    2.14090   2.14601   2.14820   2.15293   2.15858
 Alpha virt. eigenvalues --    2.16259   2.16457   2.17073   2.17157   2.17895
 Alpha virt. eigenvalues --    2.18171   2.18692   2.19168   2.19676   2.20064
 Alpha virt. eigenvalues --    2.21235   2.21685   2.22040   2.22780   2.23542
 Alpha virt. eigenvalues --    2.24391   2.24995   2.25370   2.26359   2.26527
 Alpha virt. eigenvalues --    2.26887   2.28299   2.28585   2.29285   2.29571
 Alpha virt. eigenvalues --    2.30386   2.31444   2.32042   2.32930   2.33208
 Alpha virt. eigenvalues --    2.33647   2.33866   2.35039   2.35296   2.36098
 Alpha virt. eigenvalues --    2.36775   2.38320   2.38478   2.39309   2.39861
 Alpha virt. eigenvalues --    2.40312   2.40562   2.41502   2.42189   2.42333
 Alpha virt. eigenvalues --    2.42531   2.42644   2.43048   2.43824   2.44242
 Alpha virt. eigenvalues --    2.44782   2.46070   2.46164   2.46840   2.47569
 Alpha virt. eigenvalues --    2.47938   2.48556   2.48773   2.50743   2.51360
 Alpha virt. eigenvalues --    2.52306   2.52858   2.52942   2.53869   2.54918
 Alpha virt. eigenvalues --    2.55110   2.56942   2.57637   2.58403   2.58775
 Alpha virt. eigenvalues --    2.59584   2.60077   2.60260   2.60523   2.60544
 Alpha virt. eigenvalues --    2.61203   2.62242   2.62703   2.63027   2.63373
 Alpha virt. eigenvalues --    2.63683   2.63955   2.64275   2.65043   2.65411
 Alpha virt. eigenvalues --    2.65766   2.66090   2.67061   2.67465   2.68193
 Alpha virt. eigenvalues --    2.68545   2.69104   2.69960   2.70576   2.70975
 Alpha virt. eigenvalues --    2.71321   2.71841   2.72686   2.72819   2.73262
 Alpha virt. eigenvalues --    2.73307   2.73662   2.74034   2.74646   2.74967
 Alpha virt. eigenvalues --    2.75584   2.76419   2.76730   2.77052   2.77336
 Alpha virt. eigenvalues --    2.78081   2.78878   2.79115   2.79586   2.80246
 Alpha virt. eigenvalues --    2.80784   2.81146   2.81887   2.81953   2.82251
 Alpha virt. eigenvalues --    2.82637   2.83511   2.83700   2.84157   2.84456
 Alpha virt. eigenvalues --    2.84618   2.85150   2.85763   2.86052   2.86666
 Alpha virt. eigenvalues --    2.87471   2.87810   2.87934   2.88613   2.88890
 Alpha virt. eigenvalues --    2.89829   2.90077   2.90441   2.90861   2.91298
 Alpha virt. eigenvalues --    2.91453   2.92083   2.92751   2.93023   2.93063
 Alpha virt. eigenvalues --    2.93641   2.94100   2.95003   2.95245   2.95853
 Alpha virt. eigenvalues --    2.96424   2.96836   2.97198   2.98074   2.98166
 Alpha virt. eigenvalues --    2.98414   2.98652   2.98784   2.99079   2.99384
 Alpha virt. eigenvalues --    2.99811   3.00420   3.00741   3.01234   3.01392
 Alpha virt. eigenvalues --    3.01823   3.02614   3.02832   3.03249   3.04374
 Alpha virt. eigenvalues --    3.04796   3.04952   3.05911   3.06157   3.06892
 Alpha virt. eigenvalues --    3.07063   3.07281   3.07605   3.07868   3.08571
 Alpha virt. eigenvalues --    3.08776   3.09877   3.10190   3.11134   3.11859
 Alpha virt. eigenvalues --    3.12891   3.13400   3.13490   3.14385   3.15433
 Alpha virt. eigenvalues --    3.16321   3.17730   3.18269   3.18610   3.19226
 Alpha virt. eigenvalues --    3.20128   3.20796   3.21534   3.22583   3.23385
 Alpha virt. eigenvalues --    3.23930   3.24432   3.25116   3.25288   3.26316
 Alpha virt. eigenvalues --    3.26946   3.27393   3.28098   3.28860   3.29271
 Alpha virt. eigenvalues --    3.29803   3.30012   3.31375   3.32047   3.32371
 Alpha virt. eigenvalues --    3.33096   3.34202   3.34847   3.35387   3.35823
 Alpha virt. eigenvalues --    3.37213   3.38431   3.40372   3.41410   3.41720
 Alpha virt. eigenvalues --    3.42921   3.43031   3.44577   3.45189   3.45861
 Alpha virt. eigenvalues --    3.46744   3.47602   3.48364   3.49116   3.49764
 Alpha virt. eigenvalues --    3.50698   3.51370   3.52101   3.52719   3.55698
 Alpha virt. eigenvalues --    3.56584   3.57494   3.62001   3.63435   3.63925
 Alpha virt. eigenvalues --    3.67115   3.68036   3.68431   3.69608   3.73289
 Alpha virt. eigenvalues --    3.73762   3.75209   3.78609   3.79179   3.83703
 Alpha virt. eigenvalues --    3.84668   3.87608   3.89013   3.89937   3.91801
 Alpha virt. eigenvalues --    3.92368   3.92906   3.93261   3.93410   3.93638
 Alpha virt. eigenvalues --    3.94110   3.94556   3.95556   3.96609   3.97471
 Alpha virt. eigenvalues --    3.97998   3.98693   3.99207   4.00629   4.01860
 Alpha virt. eigenvalues --    4.02660   4.03539   4.06500   4.08385   4.10850
 Alpha virt. eigenvalues --    4.11291   4.13729   4.14877   4.15081   4.17432
 Alpha virt. eigenvalues --    4.18268   4.20010   4.22422   4.25134   4.25710
 Alpha virt. eigenvalues --    4.26379   4.28026   4.28280   4.29234   4.29517
 Alpha virt. eigenvalues --    4.31617   4.34752   4.37570   4.39280   4.39540
 Alpha virt. eigenvalues --    4.41788   4.42961   4.44217   4.47037   4.47859
 Alpha virt. eigenvalues --    4.51586   4.53444   4.57665   4.72349   4.84156
 Alpha virt. eigenvalues --    4.94929   4.95496   5.36318   5.39026   5.39276
 Alpha virt. eigenvalues --    5.43013   5.47047   5.48681   5.49996   5.50536
 Alpha virt. eigenvalues --    5.58436   5.60790   5.62551   5.66795   5.72719
 Alpha virt. eigenvalues --    5.73370   5.76674   5.79972   5.82365   5.88961
 Alpha virt. eigenvalues --    7.69639  14.32831  14.39496  14.45528  14.96611
 Alpha virt. eigenvalues --   23.77101  23.80292  23.95111  23.99387  24.01138
 Alpha virt. eigenvalues --   24.01643  24.02739  24.05636  24.06582  24.10155
 Alpha virt. eigenvalues --   24.10214  24.11443  24.11624  24.12245  24.12628
 Alpha virt. eigenvalues --   24.12966  24.13739  24.15063  24.15283  24.16178
 Alpha virt. eigenvalues --   24.18147  24.20003  24.20289  24.20602  24.21175
 Alpha virt. eigenvalues --   24.22614  24.22822  24.22973  24.31968  24.32399
 Alpha virt. eigenvalues --   24.32819  35.74332  50.15947  50.17088  50.19123
 Alpha virt. eigenvalues --   50.20551  50.25084  50.25792 163.95958
          Condensed to atoms (all electrons):
 Mulliken charges:
               1
     1  C   -0.223627
     2  C   -0.068311
     3  H   -0.320866
     4  C   -0.646925
     5  H    0.237264
     6  H    0.184860
     7  H    0.188127
     8  C   -0.739049
     9  H    0.147634
    10  H    0.217014
    11  H    0.156893
    12  B    1.323703
    13  C   -0.731709
    14  H    0.183151
    15  H    0.116486
    16  H    0.167065
    17  O   -0.210031
    18  O   -0.076661
    19  C    0.115931
    20  C   -0.269915
    21  C   -0.828589
    22  H    0.186028
    23  H    0.188187
    24  H    0.188157
    25  C   -0.428672
    26  H    0.190462
    27  H    0.203151
    28  H    0.229301
    29  C   -0.372043
    30  H    0.158489
    31  H    0.214250
    32  H    0.167576
    33  C   -1.198084
    34  H    0.186393
    35  H    0.264045
    36  H    0.158787
    37  P   -0.294171
    38  O   -0.079040
    39  O    0.086315
    40  N   -0.356037
    41  H    0.524285
    42  H   -0.274814
    43  Li  -0.314744
    44  C   -0.161902
    45  O    0.260803
    46  C   -0.316827
    47  C   -0.430679
    48  C   -0.738572
    49  H    0.230304
    50  H    0.216534
    51  H    0.204932
    52  H    0.223690
    53  H    0.262005
    54  H    0.215676
    55  H    0.205737
    56  H    0.249667
    57  C    0.084585
    58  O    0.178371
    59  C   -0.141585
    60  C   -0.415985
    61  C   -0.759192
    62  H   -0.043786
    63  H    0.165804
    64  H    0.211682
    65  H    0.304642
    66  H    0.260602
    67  H    0.058374
    68  H    0.215684
    69  H    0.223260
    70  C   -0.502470
    71  C    0.338890
    72  C    0.069339
    73  C   -0.032450
    74  H    0.203651
    75  C   -0.006386
    76  H    0.319294
    77  C   -0.586510
    78  H    0.300386
    79  H    0.287106
    80  H    0.255657
    81  C   -0.096854
    82  C    0.048087
    83  C   -0.030835
    84  C   -0.368571
    85  H    0.321422
    86  C   -0.447722
    87  H    0.312709
    88  C   -0.545980
    89  H    0.292389
    90  H    0.288847
    91  H    0.265907
 Sum of Mulliken charges =  -0.00000
 Mulliken charges with hydrogens summed into heavy atoms:
               1
     1  C   -0.223627
     2  C   -0.389176
     4  C   -0.036674
     8  C   -0.217508
    12  B    1.323703
    13  C   -0.265006
    17  O   -0.210031
    18  O   -0.076661
    19  C    0.115931
    20  C   -0.269915
    21  C   -0.266217
    25  C    0.194242
    29  C    0.168273
    33  C   -0.588859
    37  P   -0.294171
    38  O   -0.079040
    39  O    0.086315
    40  N   -0.106566
    43  Li  -0.314744
    44  C    0.284936
    45  O    0.260803
    46  C    0.111795
    47  C    0.047003
    48  C   -0.283168
    57  C    0.206603
    58  O    0.178371
    59  C    0.374740
    60  C   -0.097009
    61  C   -0.320249
    70  C   -0.502470
    71  C    0.542541
    72  C    0.388633
    73  C    0.267936
    75  C    0.280720
    77  C   -0.330853
    81  C   -0.096854
    82  C    0.369509
    83  C    0.281874
    84  C   -0.076182
    86  C   -0.158875
    88  C   -0.280073
 Electronic spatial extent (au):  <R**2>=          43237.0238
 Charge=              0.0000 electrons
 Dipole moment (field-independent basis, Debye):
    X=              6.6885    Y=              0.5427    Z=             12.1825  Tot=             13.9084
 Quadrupole moment (field-independent basis, Debye-Ang):
   XX=           -268.3474   YY=           -243.3224   ZZ=           -194.9847
   XY=            -15.4946   XZ=            -28.0450   YZ=             -7.9223
 Traceless Quadrupole moment (field-independent basis, Debye-Ang):
   XX=            -32.7959   YY=             -7.7709   ZZ=             40.5668
   XY=            -15.4946   XZ=            -28.0450   YZ=             -7.9223
 Octapole moment (field-independent basis, Debye-Ang**2):
  XXX=           2158.4658  YYY=           1747.3240  ZZZ=          -1548.6931  XYY=            753.3030
  XXY=            705.8210  XXZ=           -482.8481  XZZ=            535.0534  YZZ=            571.4008
  YYZ=           -585.1007  XYZ=             25.3660
 Hexadecapole moment (field-independent basis, Debye-Ang**3):
 XXXX=         -18448.5324 YYYY=         -17684.9557 ZZZZ=         -17786.1538 XXXY=          -5927.1479
 XXXZ=           4521.8150 YYYX=          -5595.3231 YYYZ=           5187.3625 ZZZX=           4033.9946
 ZZZY=           5221.5131 XXYY=          -6659.7824 XXZZ=          -5531.5260 YYZZ=          -6591.2223
 XXYZ=           1682.8505 YYXZ=           1647.2493 ZZXY=          -1524.8096
 N-N= 5.699776360894D+03 E-N=-1.629305368008D+04  KE= 2.083018879804D+03
 Unable to Open any file for archive entry.
 1\1\GINC-NODE14\SP\RwB97XD\6-311++G(d,p)\C31H50B1Li1N1O6P1\WHUGHES2\10
 -Oct-2025\0\\# wb97xd/6-311++g** nosymm int=ultrafine scrf=(smd,solven
 t=tetrahydrofuran)\\aminationTS-full-unfrz-c17_sp_tzpop\\0,1\C,0,-5.02
 3049,-0.405538,0.817781\C,0,-5.042031,-0.144564,2.161381\H,0,-4.075247
 ,-0.020012,2.649936\C,0,-6.234429,0.142833,3.035038\H,0,-6.497084,1.20
 908,2.996065\H,0,-7.120999,-0.427395,2.740458\H,0,-6.014549,-0.095568,
 4.082498\C,0,-6.294429,-0.436493,0.020479\H,0,-7.208521,-0.405962,0.62
 2204\H,0,-6.303469,0.430515,-0.655019\H,0,-6.324253,-1.317997,-0.62627
 7\B,0,-3.587478,-0.468797,-0.016975\C,0,-2.886516,1.002813,0.057948\H,
 0,-2.678949,1.316906,1.090878\H,0,-1.935627,1.031777,-0.49413\H,0,-3.5
 35479,1.777757,-0.380879\O,0,-2.692092,-1.569568,0.567666\O,0,-3.76422
 7,-0.900712,-1.417627\C,0,-3.31861,-2.230018,-1.589946\C,0,-2.190213,-
 2.367971,-0.515987\C,0,-2.824594,-2.404073,-3.025421\H,0,-3.672619,-2.
 333409,-3.716678\H,0,-2.105242,-1.626462,-3.297295\H,0,-2.353717,-3.38
 4685,-3.168582\C,0,-4.471177,-3.218745,-1.352115\H,0,-4.171119,-4.2499
 03,-1.573409\H,0,-4.841325,-3.186368,-0.323743\H,0,-5.300972,-2.959136
 ,-2.019239\C,0,-0.85851,-1.779368,-0.993532\H,0,-0.165044,-1.737734,-0
 .149121\H,0,-0.402921,-2.405761,-1.769111\H,0,-0.983698,-0.769633,-1.3
 9375\C,0,-1.950226,-3.792307,-0.027209\H,0,-2.838449,-4.216255,0.44675
 8\H,0,-1.660685,-4.437973,-0.865241\H,0,-1.137391,-3.804874,0.706984\P
 ,0,-3.391006,-4.317486,3.459075\O,0,-2.243606,-3.354459,3.224059\O,0,-
 4.608909,-4.200404,2.490607\N,0,-4.985242,-2.419913,2.061367\H,0,-4.87
 5757,-2.118919,3.033322\H,0,-4.054722,-2.339667,1.628575\Li,0,-1.77303
 8,-1.745131,2.284299\C,0,-2.395225,-0.716721,4.994301\O,0,-2.03975,-0.
 265629,3.684529\C,0,-1.883931,1.157565,3.753875\C,0,-1.505486,1.487108
 ,5.212776\C,0,-1.525577,0.11969,5.919997\H,0,-3.466674,-0.531697,5.170
 208\H,0,-2.207625,-1.788607,5.028528\H,0,-1.120763,1.44187,3.026718\H,
 0,-2.829754,1.636934,3.470468\H,0,-0.526417,1.969291,5.279732\H,0,-2.2
 42649,2.16615,5.651121\H,0,-0.518977,-0.310609,5.966994\H,0,-1.926269,
 0.170556,6.936097\C,0,0.752882,-2.326863,3.515526\O,0,0.221589,-1.7896
 39,2.289601\C,0,0.85341,-0.53475,1.986314\C,0,1.539356,-0.098512,3.272
 989\C,0,1.945197,-1.446453,3.875019\H,0,-0.031703,-2.283872,4.2787\H,0
 ,1.015043,-3.374295,3.343756\H,0,1.582935,-0.6925,1.181244\H,0,0.08432
 6,0.155783,1.627138\H,0,2.386533,0.56652,3.084718\H,0,0.831092,0.41502
 7,3.931524\H,0,2.857792,-1.818195,3.395387\H,0,2.114846,-1.405591,4.95
 4562\C,0,-2.799902,-6.026814,3.344216\C,0,-1.518973,-6.278072,2.845567
 \C,0,-3.61855,-7.095895,3.725559\C,0,-1.060845,-7.589264,2.723935\H,0,
 -0.884784,-5.444973,2.555878\C,0,-3.158723,-8.404541,3.605975\H,0,-4.6
 1464,-6.907378,4.119658\C,0,-1.879986,-8.651605,3.103349\H,0,-0.064662
 ,-7.780104,2.334108\H,0,-3.796735,-9.231993,3.903812\H,0,-1.52235,-9.6
 73515,3.009985\C,0,-4.024925,-4.080374,5.14884\C,0,-3.139558,-4.10056,
 6.233948\C,0,-5.381211,-3.830466,5.374147\C,0,-3.604219,-3.866362,7.52
 4476\H,0,-2.082107,-4.29559,6.068571\C,0,-5.846476,-3.588861,6.667501\
 H,0,-6.073247,-3.823454,4.535969\C,0,-4.959255,-3.60601,7.741574\H,0,-
 2.911761,-3.88437,8.36174\H,0,-6.90187,-3.391001,6.833926\H,0,-5.32137
 1,-3.420617,8.74926\\Version=AS64L-G16RevC.01\HF=-2091.3541143\RMSD=5.
 617e-09\Dipole=2.6314515,0.2135142,4.7929804\Quadrupole=-24.3829368,-5
 .7774945,30.1604313,-11.5198609,-20.8507436,-5.8900577\PG=C01 [X(C31H5
 0B1Li1N1O6P1)]\\@
 The archive entry for this job was punched.


 THIS CURIOUS WORLD WHICH WE INHABIT IS MORE WONDERFUL THAN IT IS CONVENIENT;
 MORE BEAUTIFUL THAN IT IS USEFUL;
 IT IS MORE TO BE ADMIRED THAN IT IS TO BE USED.

                                                                 -- THOREAU
 Job cpu time:       0 days 10 hours 20 minutes  7.7 seconds.
 Elapsed time:       0 days  0 hours 20 minutes 55.8 seconds.
 File lengths (MBytes):  RWF=   1324 Int=      0 D2E=      0 Chk=     95 Scr=      1
 Normal termination of Gaussian 16 at Fri Oct 10 11:26:26 2025.
