Job Start Time: Wed Oct  8 15:27:45 MDT 2025
SLURM Job ID: 768175
SLURM Job Name: aminationTS-full-unfrz-c9_tzpop-sp
 Entering Gaussian System, Link 0=/opt/apps/Gaussian/G16C/g16/g16
 Initial command:
 /opt/apps/Gaussian/G16C/g16/l1.exe "/tmp/768175/Gau-587665.inp" -scrdir="/tmp/768175/"
 Entering Link 1 = /opt/apps/Gaussian/G16C/g16/l1.exe PID=    587671.
  
 Copyright (c) 1988-2019, Gaussian, Inc.  All Rights Reserved.
  
 This is part of the Gaussian(R) 16 program.  It is based on
 the Gaussian(R) 09 system (copyright 2009, Gaussian, Inc.),
 the Gaussian(R) 03 system (copyright 2003, Gaussian, Inc.),
 the Gaussian(R) 98 system (copyright 1998, Gaussian, Inc.),
 the Gaussian(R) 94 system (copyright 1995, Gaussian, Inc.),
 the Gaussian 92(TM) system (copyright 1992, Gaussian, Inc.),
 the Gaussian 90(TM) system (copyright 1990, Gaussian, Inc.),
 the Gaussian 88(TM) system (copyright 1988, Gaussian, Inc.),
 the Gaussian 86(TM) system (copyright 1986, Carnegie Mellon
 University), and the Gaussian 82(TM) system (copyright 1983,
 Carnegie Mellon University). Gaussian is a federally registered
 trademark of Gaussian, Inc.
  
 This software contains proprietary and confidential information,
 including trade secrets, belonging to Gaussian, Inc.
  
 This software is provided under written license and may be
 used, copied, transmitted, or stored only in accord with that
 written license.
  
 The following legend is applicable only to US Government
 contracts under FAR:
  
                    RESTRICTED RIGHTS LEGEND
  
 Use, reproduction and disclosure by the US Government is
 subject to restrictions as set forth in subparagraphs (a)
 and (c) of the Commercial Computer Software - Restricted
 Rights clause in FAR 52.227-19.
  
 Gaussian, Inc.
 340 Quinnipiac St., Bldg. 40, Wallingford CT 06492
  
  
 ---------------------------------------------------------------
 Warning -- This program may not be used in any manner that
 competes with the business of Gaussian, Inc. or will provide
 assistance to any competitor of Gaussian, Inc.  The licensee
 of this program is prohibited from giving any competitor of
 Gaussian, Inc. access to this program.  By using this program,
 the user acknowledges that Gaussian, Inc. is engaged in the
 business of creating and licensing software in the field of
 computational chemistry and represents and warrants to the
 licensee that it is not a competitor of Gaussian, Inc. and that
 it will not use this program in any manner prohibited above.
 ---------------------------------------------------------------
  

 Cite this work as:
 Gaussian 16, Revision C.01,
 M. J. Frisch, G. W. Trucks, H. B. Schlegel, G. E. Scuseria, 
 M. A. Robb, J. R. Cheeseman, G. Scalmani, V. Barone, 
 G. A. Petersson, H. Nakatsuji, X. Li, M. Caricato, A. V. Marenich, 
 J. Bloino, B. G. Janesko, R. Gomperts, B. Mennucci, H. P. Hratchian, 
 J. V. Ortiz, A. F. Izmaylov, J. L. Sonnenberg, D. Williams-Young, 
 F. Ding, F. Lipparini, F. Egidi, J. Goings, B. Peng, A. Petrone, 
 T. Henderson, D. Ranasinghe, V. G. Zakrzewski, J. Gao, N. Rega, 
 G. Zheng, W. Liang, M. Hada, M. Ehara, K. Toyota, R. Fukuda, 
 J. Hasegawa, M. Ishida, T. Nakajima, Y. Honda, O. Kitao, H. Nakai, 
 T. Vreven, K. Throssell, J. A. Montgomery, Jr., J. E. Peralta, 
 F. Ogliaro, M. J. Bearpark, J. J. Heyd, E. N. Brothers, K. N. Kudin, 
 V. N. Staroverov, T. A. Keith, R. Kobayashi, J. Normand, 
 K. Raghavachari, A. P. Rendell, J. C. Burant, S. S. Iyengar, 
 J. Tomasi, M. Cossi, J. M. Millam, M. Klene, C. Adamo, R. Cammi, 
 J. W. Ochterski, R. L. Martin, K. Morokuma, O. Farkas, 
 J. B. Foresman, and D. J. Fox, Gaussian, Inc., Wallingford CT, 2019.
 
 ******************************************
 Gaussian 16:  AS64L-G16RevC.01  3-Jul-2019
                 8-Oct-2025 
 ******************************************
 %chk=aminationTS-full-unfrz-c9_tzpop-sp.chk
 %nprocshared=4
 Will use up to    4 processors via shared memory.
 %mem=8GB
 ----------------------------------------------------------------------
 # wb97xd/6-311++g** nosymm int=ultrafine scrf=(smd,solvent=tetrahydrof
 uran)
 ----------------------------------------------------------------------
 1/38=1,172=1/1;
 2/12=2,15=1,17=6,18=5,40=1/2;
 3/5=4,6=6,7=1111,11=2,25=1,30=1,70=32201,72=20,74=-58,75=-5/1,2,3;
 4//1;
 5/5=2,38=5,53=20/2;
 6/7=2,8=2,9=2,10=2,28=1/1;
 99/5=1,9=1/99;
 ----------------------------------
 aminationTS-full-unfrz-c9_tzpop-sp
 ----------------------------------
 Symbolic Z-matrix:
 Charge =  0 Multiplicity = 1
 C                    -2.2484   -1.3851    2.2353 
 C                    -1.6103   -1.5296    3.4376 
 H                    -1.3399   -0.6226    3.9741 
 C                    -1.4209   -2.7882    4.2402 
 H                    -0.4691   -2.7595    4.7828 
 H                    -2.2186   -2.8766    4.9905 
 H                    -1.4425   -3.6993    3.6336 
 C                    -2.7286   -2.608     1.495 
 H                    -3.75     -2.86      1.8117 
 H                    -2.7634   -2.4131    0.4206 
 H                    -2.1155   -3.5014    1.6654 
 B                    -2.6308    0.1267    1.6586 
 C                    -1.7106    1.29      2.3568 
 H                    -2.0328    1.4814    3.3922 
 H                    -0.6374    1.0595    2.3998 
 H                    -1.8003    2.2453    1.8229 
 O                    -2.5375    0.1488    0.1391 
 O                    -4.0792    0.3936    1.8919 
 C                    -4.7943    0.4841    0.6789 
 C                    -3.6873    0.8221   -0.379 
 C                    -5.8687    1.5658    0.8145 
 H                    -6.3773    1.7467   -0.1411 
 H                    -6.6233    1.242     1.5413 
 H                    -5.446     2.5094    1.17 
 C                    -5.5026   -0.8473    0.3826 
 H                    -6.0773   -1.1431    1.2679 
 H                    -6.1974   -0.7601   -0.4619 
 H                    -4.792    -1.6455    0.1597 
 C                    -3.4116    2.3308   -0.4755 
 H                    -2.4838    2.4883   -1.0356 
 H                    -4.2204    2.8469   -1.0067 
 H                    -3.3045    2.7919    0.5086 
 C                    -3.9803    0.3033   -1.7846 
 H                    -3.1651    0.5759   -2.4642 
 H                    -4.09     -0.7832   -1.8058 
 H                    -4.9027    0.7494   -2.1758 
 P                     2.0208   -0.2095    0.6103 
 O                     0.7898    0.3064   -0.1066 
 O                     1.8182   -1.5933    1.3177 
 N                     0.2118   -1.5019    2.1656 
 H                     0.046    -2.4768    1.9026 
 H                    -0.2213   -0.952     1.4173 
 Li                   -0.9335    0.2175   -0.9569 
 C                     0.4359   -1.7688   -2.6018 
 O                    -0.8738   -1.3499   -2.2188 
 C                    -1.6825   -2.5256   -2.2375 
 C                    -0.7719   -3.673    -1.7636 
 C                     0.6487   -3.0661   -1.8263 
 H                     0.4576   -1.9402   -3.6886 
 H                     1.1285   -0.9652   -2.3466 
 H                    -2.5423   -2.3419   -1.5937 
 H                    -2.0378   -2.6933   -3.2639 
 H                    -1.0246   -3.9851   -0.7462 
 H                    -0.8752   -4.5443   -2.4165 
 H                     1.0108   -2.8355   -0.8204 
 H                     1.3749   -3.7238   -2.3122 
 C                     0.4033    2.5566   -2.2288 
 O                    -0.6762    1.6357   -2.3809 
 C                    -0.8207    1.3973   -3.7841 
 C                     0.5881    1.5477   -4.3949 
 C                     1.4471    2.063    -3.2221 
 H                     0.0541    3.5707   -2.4756 
 H                     0.722     2.5196   -1.1866 
 H                    -1.2456    0.3989   -3.899 
 H                    -1.5188    2.137    -4.1981 
 H                     0.9644    0.5957   -4.7794 
 H                     0.5723    2.2609   -5.2244 
 H                     2.0138    1.2432   -2.771 
 H                     2.1497    2.8476   -3.5176 
 C                     3.4201   -0.4536   -0.5188 
 C                     3.8336   -1.7355   -0.8924 
 C                     4.059     0.6649   -1.067 
 C                     4.8643   -1.8967   -1.8169 
 H                     3.3535   -2.6066   -0.4574 
 C                     5.0882    0.5025   -1.9902 
 H                     3.7545    1.6677   -0.7752 
 C                     5.4888   -0.7792   -2.3691 
 H                     5.1807   -2.896    -2.103 
 H                     5.5774    1.3754   -2.4133 
 H                     6.2924   -0.906    -3.0895 
 C                     2.5528    1.0183    1.8322 
 C                     3.6102    0.7311    2.7031 
 C                     1.9147    2.259     1.9029 
 C                     4.0228    1.6774    3.6366 
 H                     4.1117   -0.2326    2.6531 
 C                     2.3276    3.2057    2.8396 
 H                     1.0873    2.4756    1.2335 
 C                     3.3808    2.9155    3.705 
 H                     4.8422    1.4498    4.3128 
 H                     1.8228    4.1662    2.8955 
 H                     3.7022    3.6527    4.4359 
 
 Symmetry turned off by external request.
 Stoichiometry    C31H50BLiNO6P
 Framework group  C1[X(C31H50BLiNO6P)]
 Deg. of freedom   267
 Full point group                 C1      NOp   1
                          Input orientation:                          
 ---------------------------------------------------------------------
 Center     Atomic      Atomic             Coordinates (Angstroms)
 Number     Number       Type             X           Y           Z
 ---------------------------------------------------------------------
      1          6           0       -2.248400   -1.385100    2.235300
      2          6           0       -1.610300   -1.529600    3.437600
      3          1           0       -1.339900   -0.622600    3.974100
      4          6           0       -1.420900   -2.788200    4.240200
      5          1           0       -0.469100   -2.759500    4.782800
      6          1           0       -2.218600   -2.876600    4.990500
      7          1           0       -1.442500   -3.699300    3.633600
      8          6           0       -2.728600   -2.608000    1.495000
      9          1           0       -3.750000   -2.860000    1.811700
     10          1           0       -2.763400   -2.413100    0.420600
     11          1           0       -2.115500   -3.501400    1.665400
     12          5           0       -2.630800    0.126700    1.658600
     13          6           0       -1.710600    1.290000    2.356800
     14          1           0       -2.032800    1.481400    3.392200
     15          1           0       -0.637400    1.059500    2.399800
     16          1           0       -1.800300    2.245300    1.822900
     17          8           0       -2.537500    0.148800    0.139100
     18          8           0       -4.079200    0.393600    1.891900
     19          6           0       -4.794300    0.484100    0.678900
     20          6           0       -3.687300    0.822100   -0.379000
     21          6           0       -5.868700    1.565800    0.814500
     22          1           0       -6.377300    1.746700   -0.141100
     23          1           0       -6.623300    1.242000    1.541300
     24          1           0       -5.446000    2.509400    1.170000
     25          6           0       -5.502600   -0.847300    0.382600
     26          1           0       -6.077300   -1.143100    1.267900
     27          1           0       -6.197400   -0.760100   -0.461900
     28          1           0       -4.792000   -1.645500    0.159700
     29          6           0       -3.411600    2.330800   -0.475500
     30          1           0       -2.483800    2.488300   -1.035600
     31          1           0       -4.220400    2.846900   -1.006700
     32          1           0       -3.304500    2.791900    0.508600
     33          6           0       -3.980300    0.303300   -1.784600
     34          1           0       -3.165100    0.575900   -2.464200
     35          1           0       -4.090000   -0.783200   -1.805800
     36          1           0       -4.902700    0.749400   -2.175800
     37         15           0        2.020800   -0.209500    0.610300
     38          8           0        0.789800    0.306400   -0.106600
     39          8           0        1.818200   -1.593300    1.317700
     40          7           0        0.211800   -1.501900    2.165600
     41          1           0        0.046000   -2.476800    1.902600
     42          1           0       -0.221300   -0.952000    1.417300
     43          3           0       -0.933500    0.217500   -0.956900
     44          6           0        0.435900   -1.768800   -2.601800
     45          8           0       -0.873800   -1.349900   -2.218800
     46          6           0       -1.682500   -2.525600   -2.237500
     47          6           0       -0.771900   -3.673000   -1.763600
     48          6           0        0.648700   -3.066100   -1.826300
     49          1           0        0.457600   -1.940200   -3.688600
     50          1           0        1.128500   -0.965200   -2.346600
     51          1           0       -2.542300   -2.341900   -1.593700
     52          1           0       -2.037800   -2.693300   -3.263900
     53          1           0       -1.024600   -3.985100   -0.746200
     54          1           0       -0.875200   -4.544300   -2.416500
     55          1           0        1.010800   -2.835500   -0.820400
     56          1           0        1.374900   -3.723800   -2.312200
     57          6           0        0.403300    2.556600   -2.228800
     58          8           0       -0.676200    1.635700   -2.380900
     59          6           0       -0.820700    1.397300   -3.784100
     60          6           0        0.588100    1.547700   -4.394900
     61          6           0        1.447100    2.063000   -3.222100
     62          1           0        0.054100    3.570700   -2.475600
     63          1           0        0.722000    2.519600   -1.186600
     64          1           0       -1.245600    0.398900   -3.899000
     65          1           0       -1.518800    2.137000   -4.198100
     66          1           0        0.964400    0.595700   -4.779400
     67          1           0        0.572300    2.260900   -5.224400
     68          1           0        2.013800    1.243200   -2.771000
     69          1           0        2.149700    2.847600   -3.517600
     70          6           0        3.420100   -0.453600   -0.518800
     71          6           0        3.833600   -1.735500   -0.892400
     72          6           0        4.059000    0.664900   -1.067000
     73          6           0        4.864300   -1.896700   -1.816900
     74          1           0        3.353500   -2.606600   -0.457400
     75          6           0        5.088200    0.502500   -1.990200
     76          1           0        3.754500    1.667700   -0.775200
     77          6           0        5.488800   -0.779200   -2.369100
     78          1           0        5.180700   -2.896000   -2.103000
     79          1           0        5.577400    1.375400   -2.413300
     80          1           0        6.292400   -0.906000   -3.089500
     81          6           0        2.552800    1.018300    1.832200
     82          6           0        3.610200    0.731100    2.703100
     83          6           0        1.914700    2.259000    1.902900
     84          6           0        4.022800    1.677400    3.636600
     85          1           0        4.111700   -0.232600    2.653100
     86          6           0        2.327600    3.205700    2.839600
     87          1           0        1.087300    2.475600    1.233500
     88          6           0        3.380800    2.915500    3.705000
     89          1           0        4.842200    1.449800    4.312800
     90          1           0        1.822800    4.166200    2.895500
     91          1           0        3.702200    3.652700    4.435900
 ---------------------------------------------------------------------
 Rotational constants (GHZ):           0.1086919           0.0715519           0.0620976
 Standard basis: 6-311++G(d,p) (5D, 7F)
  1260 basis functions,  1940 primitive gaussians,  1301 cartesian basis functions
   157 alpha electrons      157 beta electrons
       nuclear repulsion energy      5691.0195989640 Hartrees.
 NAtoms=   91 NActive=   91 NUniq=   91 SFac= 1.00D+00 NAtFMM=   60 NAOKFM=T Big=T
 Integral buffers will be    131072 words long.
 Raffenetti 2 integral format.
 Two-electron integral symmetry is turned off.
 Nuclear repulsion after empirical dispersion term =     5690.9056014918 Hartrees.
 ------------------------------------------------------------------------------
 Polarizable Continuum Model (PCM)
 =================================
 Model                : PCM.
 Atomic radii         : SMD-Coulomb.
 Polarization charges : Total charges.
 Charge compensation  : None.
 Solution method      : On-the-fly selection.
 Cavity type          : VdW (van der Waals Surface) (Alpha=1.000).
 Cavity algorithm     : GePol (No added spheres)
                        Default sphere list used, NSphG=   91.
                        Lebedev-Laikov grids with approx.  5.0 points / Ang**2.
                        Smoothing algorithm: York/Karplus (Gamma=1.0000).
                        Polarization charges: spherical gaussians, with
                                              point-specific exponents (IZeta= 3).
                        Self-potential: point-specific (ISelfS= 7).
                        Self-field    : sphere-specific E.n sum rule (ISelfD= 2).
 Solvent              : TetraHydroFuran, Eps=   7.425700 Eps(inf)=   1.974025
 ------------------------------------------------------------------------------
 ------------------------------------------------------------------------------
 Atomic radii for non-electrostatic terms: SMD-CDS.
 ------------------------------------------------------------------------------
 Nuclear repulsion after PCM non-electrostatic terms =     5690.8966082160 Hartrees.
 One-electron integrals computed using PRISM.
 NBasis=  1260 RedAO= T EigKep=  1.17D-06  NBF=  1260
 NBsUse=  1251 1.00D-06 EigRej=  9.33D-07 NBFU=  1251
 ExpMin= 7.40D-03 ExpMax= 7.75D+04 ExpMxC= 2.65D+03 IAcc=3 IRadAn=         5 AccDes= 0.00D+00
 Harris functional with IExCor= 4639 and IRadAn=       5 diagonalized for initial guess.
 HarFok:  IExCor= 4639 AccDes= 0.00D+00 IRadAn=         5 IDoV= 1 UseB2=F ITyADJ=14
 ICtDFT=  3500011 ScaDFX=  1.000000  1.000000  1.000000  1.000000
 FoFCou: FMM=F IPFlag=           0 FMFlag=      100000 FMFlg1=        2001
         NFxFlg=           0 DoJE=T BraDBF=F KetDBF=T FulRan=T
         wScrn=  0.000000 ICntrl=       500 IOpCl=  0 I1Cent=   200000004 NGrid=           0
         NMat0=    1 NMatS0=      1 NMatT0=    0 NMatD0=    1 NMtDS0=    0 NMtDT0=    0
 Symmetry not used in FoFCou.
 Requested convergence on RMS density matrix=1.00D-08 within 128 cycles.
 Requested convergence on MAX density matrix=1.00D-06.
 Requested convergence on             energy=1.00D-06.
 No special actions if energy rises.
 Inv3:  Mode=1 IEnd=    91311867.
 Iteration    1 A*A^-1 deviation from unit magnitude is 8.99D-15 for   5514.
 Iteration    1 A*A^-1 deviation from orthogonality  is 3.28D-15 for   5513   5029.
 Iteration    1 A^-1*A deviation from unit magnitude is 8.99D-15 for   5514.
 Iteration    1 A^-1*A deviation from orthogonality  is 2.70D-11 for   3502   3430.
 Error on total polarization charges =  0.07766
 SCF Done:  E(RwB97XD) =  -2091.35012722     A.U. after   18 cycles
            NFock= 18  Conv=0.51D-08     -V/T= 2.0040
 SMD-CDS (non-electrostatic) energy       (kcal/mol) =      -5.64
 (included in total energy above)

 **********************************************************************

            Population analysis using the SCF Density.

 **********************************************************************

 Alpha  occ. eigenvalues --  -77.29735 -19.26103 -19.25808 -19.23943 -19.20402
 Alpha  occ. eigenvalues --  -19.19842 -19.17793 -14.49463 -10.32442 -10.32334
 Alpha  occ. eigenvalues --  -10.32224 -10.32044 -10.31787 -10.31157 -10.30234
 Alpha  occ. eigenvalues --  -10.30103 -10.29938 -10.29763 -10.29663 -10.29600
 Alpha  occ. eigenvalues --  -10.29528 -10.29496 -10.29466 -10.29367 -10.29122
 Alpha  occ. eigenvalues --  -10.29043 -10.27773 -10.27752 -10.27726 -10.27583
 Alpha  occ. eigenvalues --  -10.27492 -10.26420 -10.26049 -10.25839 -10.25554
 Alpha  occ. eigenvalues --  -10.24969 -10.24703 -10.24693 -10.20490  -6.81212
 Alpha  occ. eigenvalues --   -6.74141  -4.88920  -4.88808  -4.88749  -1.99038
 Alpha  occ. eigenvalues --   -1.15407  -1.14930  -1.11709  -1.10221  -1.05302
 Alpha  occ. eigenvalues --   -1.03568  -0.96970  -0.96346  -0.95182  -0.88093
 Alpha  occ. eigenvalues --   -0.87746  -0.87690  -0.87132  -0.86420  -0.85547
 Alpha  occ. eigenvalues --   -0.85122  -0.85065  -0.83649  -0.83384  -0.82010
 Alpha  occ. eigenvalues --   -0.80611  -0.78055  -0.75247  -0.75223  -0.73337
 Alpha  occ. eigenvalues --   -0.72506  -0.70792  -0.70264  -0.69882  -0.69345
 Alpha  occ. eigenvalues --   -0.68977  -0.68454  -0.68322  -0.68137  -0.65158
 Alpha  occ. eigenvalues --   -0.61941  -0.61314  -0.60583  -0.60388  -0.59809
 Alpha  occ. eigenvalues --   -0.59322  -0.58414  -0.58368  -0.57969  -0.57702
 Alpha  occ. eigenvalues --   -0.55645  -0.54793  -0.54530  -0.54334  -0.54069
 Alpha  occ. eigenvalues --   -0.53662  -0.53577  -0.53290  -0.52139  -0.51952
 Alpha  occ. eigenvalues --   -0.51806  -0.51328  -0.50939  -0.50795  -0.50551
 Alpha  occ. eigenvalues --   -0.50371  -0.50087  -0.49838  -0.49107  -0.48693
 Alpha  occ. eigenvalues --   -0.48581  -0.48191  -0.47439  -0.47113  -0.46779
 Alpha  occ. eigenvalues --   -0.46596  -0.46427  -0.46260  -0.45500  -0.45286
 Alpha  occ. eigenvalues --   -0.45182  -0.44837  -0.44344  -0.43964  -0.43675
 Alpha  occ. eigenvalues --   -0.43404  -0.43355  -0.43240  -0.43128  -0.42924
 Alpha  occ. eigenvalues --   -0.42797  -0.42538  -0.42461  -0.42332  -0.41785
 Alpha  occ. eigenvalues --   -0.41434  -0.41282  -0.40496  -0.40468  -0.40116
 Alpha  occ. eigenvalues --   -0.40032  -0.38729  -0.38389  -0.37451  -0.37138
 Alpha  occ. eigenvalues --   -0.36642  -0.36236  -0.35330  -0.35080  -0.34750
 Alpha  occ. eigenvalues --   -0.34322  -0.33996  -0.33584  -0.32973  -0.31199
 Alpha  occ. eigenvalues --   -0.29001  -0.27671
 Alpha virt. eigenvalues --    0.01359   0.02198   0.02472   0.02556   0.02739
 Alpha virt. eigenvalues --    0.02855   0.03956   0.04457   0.05325   0.05389
 Alpha virt. eigenvalues --    0.05579   0.05770   0.05938   0.06250   0.06857
 Alpha virt. eigenvalues --    0.06959   0.07090   0.07203   0.07317   0.07503
 Alpha virt. eigenvalues --    0.07595   0.07737   0.07811   0.08024   0.08077
 Alpha virt. eigenvalues --    0.08629   0.08835   0.08976   0.09121   0.09294
 Alpha virt. eigenvalues --    0.09573   0.09789   0.10212   0.10308   0.10458
 Alpha virt. eigenvalues --    0.10774   0.11060   0.11455   0.11575   0.11853
 Alpha virt. eigenvalues --    0.11936   0.12360   0.12624   0.12683   0.13062
 Alpha virt. eigenvalues --    0.13190   0.13407   0.13505   0.13730   0.14155
 Alpha virt. eigenvalues --    0.14257   0.14481   0.14630   0.14867   0.15143
 Alpha virt. eigenvalues --    0.15245   0.15555   0.15665   0.15837   0.16041
 Alpha virt. eigenvalues --    0.16176   0.16266   0.16447   0.16472   0.16611
 Alpha virt. eigenvalues --    0.16841   0.16899   0.16985   0.17295   0.17489
 Alpha virt. eigenvalues --    0.17593   0.17710   0.17821   0.17993   0.18117
 Alpha virt. eigenvalues --    0.18282   0.18571   0.18655   0.18668   0.18781
 Alpha virt. eigenvalues --    0.18860   0.19002   0.19289   0.19411   0.19595
 Alpha virt. eigenvalues --    0.19632   0.19741   0.19925   0.20020   0.20207
 Alpha virt. eigenvalues --    0.20333   0.20432   0.20562   0.20758   0.20884
 Alpha virt. eigenvalues --    0.20990   0.21195   0.21254   0.21387   0.21476
 Alpha virt. eigenvalues --    0.21586   0.21720   0.21955   0.22031   0.22131
 Alpha virt. eigenvalues --    0.22251   0.22360   0.22550   0.22777   0.23029
 Alpha virt. eigenvalues --    0.23085   0.23144   0.23207   0.23297   0.23384
 Alpha virt. eigenvalues --    0.23531   0.23673   0.23829   0.23980   0.24046
 Alpha virt. eigenvalues --    0.24212   0.24265   0.24535   0.24592   0.24699
 Alpha virt. eigenvalues --    0.24918   0.25016   0.25222   0.25368   0.25464
 Alpha virt. eigenvalues --    0.25581   0.25680   0.25846   0.26054   0.26092
 Alpha virt. eigenvalues --    0.26250   0.26367   0.26381   0.26593   0.26851
 Alpha virt. eigenvalues --    0.26967   0.27155   0.27242   0.27388   0.27532
 Alpha virt. eigenvalues --    0.27680   0.27892   0.27932   0.28263   0.28331
 Alpha virt. eigenvalues --    0.28467   0.28589   0.28812   0.28828   0.29106
 Alpha virt. eigenvalues --    0.29110   0.29318   0.29530   0.29603   0.29894
 Alpha virt. eigenvalues --    0.30023   0.30191   0.30297   0.30333   0.30412
 Alpha virt. eigenvalues --    0.30553   0.30894   0.31088   0.31341   0.31430
 Alpha virt. eigenvalues --    0.31572   0.31656   0.31783   0.31814   0.31906
 Alpha virt. eigenvalues --    0.32351   0.32477   0.32812   0.32834   0.32893
 Alpha virt. eigenvalues --    0.33043   0.33232   0.33412   0.33567   0.33816
 Alpha virt. eigenvalues --    0.33973   0.34181   0.34413   0.34577   0.34703
 Alpha virt. eigenvalues --    0.34800   0.35191   0.35278   0.35415   0.35510
 Alpha virt. eigenvalues --    0.35602   0.35707   0.35887   0.36073   0.36168
 Alpha virt. eigenvalues --    0.36481   0.36621   0.36836   0.36917   0.36942
 Alpha virt. eigenvalues --    0.37236   0.37291   0.37587   0.37737   0.38086
 Alpha virt. eigenvalues --    0.38191   0.38246   0.38506   0.38573   0.38691
 Alpha virt. eigenvalues --    0.38963   0.39109   0.39307   0.39452   0.39475
 Alpha virt. eigenvalues --    0.39594   0.39879   0.40081   0.40228   0.40316
 Alpha virt. eigenvalues --    0.40603   0.40675   0.40825   0.40957   0.41226
 Alpha virt. eigenvalues --    0.41514   0.41549   0.41642   0.41847   0.42174
 Alpha virt. eigenvalues --    0.42268   0.42383   0.42778   0.43025   0.43129
 Alpha virt. eigenvalues --    0.43300   0.43531   0.43646   0.43937   0.44067
 Alpha virt. eigenvalues --    0.44320   0.44531   0.44746   0.44815   0.45017
 Alpha virt. eigenvalues --    0.45287   0.45453   0.45713   0.45900   0.46036
 Alpha virt. eigenvalues --    0.46140   0.46622   0.46826   0.46895   0.46962
 Alpha virt. eigenvalues --    0.47374   0.47662   0.47823   0.47970   0.48048
 Alpha virt. eigenvalues --    0.48518   0.48702   0.48941   0.49107   0.49704
 Alpha virt. eigenvalues --    0.49897   0.50046   0.50211   0.50603   0.50892
 Alpha virt. eigenvalues --    0.51223   0.51554   0.51917   0.52121   0.52333
 Alpha virt. eigenvalues --    0.52770   0.53381   0.53435   0.53801   0.53891
 Alpha virt. eigenvalues --    0.54504   0.55126   0.55425   0.55683   0.55745
 Alpha virt. eigenvalues --    0.55961   0.56556   0.56826   0.56858   0.57473
 Alpha virt. eigenvalues --    0.57986   0.58351   0.58717   0.59268   0.59522
 Alpha virt. eigenvalues --    0.59944   0.60200   0.60596   0.60739   0.61214
 Alpha virt. eigenvalues --    0.61822   0.61890   0.62209   0.62397   0.62846
 Alpha virt. eigenvalues --    0.63104   0.63430   0.63874   0.64123   0.64272
 Alpha virt. eigenvalues --    0.64525   0.64631   0.64735   0.65131   0.65303
 Alpha virt. eigenvalues --    0.65791   0.66098   0.66163   0.66581   0.66847
 Alpha virt. eigenvalues --    0.67363   0.67647   0.67901   0.68090   0.68256
 Alpha virt. eigenvalues --    0.68333   0.68878   0.69357   0.69485   0.69904
 Alpha virt. eigenvalues --    0.70223   0.70791   0.70947   0.71040   0.71144
 Alpha virt. eigenvalues --    0.71597   0.71850   0.72296   0.72318   0.72783
 Alpha virt. eigenvalues --    0.73063   0.73129   0.73478   0.73830   0.74177
 Alpha virt. eigenvalues --    0.74288   0.74794   0.75002   0.75175   0.75590
 Alpha virt. eigenvalues --    0.75762   0.76112   0.76264   0.76639   0.77025
 Alpha virt. eigenvalues --    0.77131   0.77541   0.77785   0.77820   0.78055
 Alpha virt. eigenvalues --    0.78855   0.79044   0.79127   0.79398   0.79654
 Alpha virt. eigenvalues --    0.79841   0.80096   0.80347   0.80597   0.80754
 Alpha virt. eigenvalues --    0.81063   0.81321   0.81518   0.81802   0.81875
 Alpha virt. eigenvalues --    0.82100   0.82192   0.82686   0.83066   0.83379
 Alpha virt. eigenvalues --    0.83596   0.83733   0.83891   0.83955   0.84234
 Alpha virt. eigenvalues --    0.84653   0.84818   0.85025   0.85357   0.85641
 Alpha virt. eigenvalues --    0.85837   0.85903   0.86099   0.86441   0.86521
 Alpha virt. eigenvalues --    0.86737   0.86844   0.87176   0.87287   0.87667
 Alpha virt. eigenvalues --    0.87807   0.87920   0.88024   0.88352   0.88605
 Alpha virt. eigenvalues --    0.89064   0.89305   0.89536   0.89773   0.89839
 Alpha virt. eigenvalues --    0.89907   0.90090   0.90534   0.90712   0.91214
 Alpha virt. eigenvalues --    0.91427   0.91598   0.91906   0.92008   0.92486
 Alpha virt. eigenvalues --    0.92727   0.93217   0.93446   0.93485   0.94271
 Alpha virt. eigenvalues --    0.94519   0.94833   0.95178   0.95320   0.95392
 Alpha virt. eigenvalues --    0.95651   0.95940   0.96037   0.96570   0.96977
 Alpha virt. eigenvalues --    0.97182   0.97441   0.97566   0.97991   0.98197
 Alpha virt. eigenvalues --    0.98891   0.99030   0.99178   0.99728   0.99766
 Alpha virt. eigenvalues --    1.00114   1.00629   1.00990   1.01150   1.01950
 Alpha virt. eigenvalues --    1.02042   1.02730   1.02837   1.03480   1.04048
 Alpha virt. eigenvalues --    1.04697   1.04961   1.05360   1.05844   1.06151
 Alpha virt. eigenvalues --    1.06393   1.07185   1.07276   1.07532   1.08965
 Alpha virt. eigenvalues --    1.09360   1.09734   1.10268   1.10433   1.10781
 Alpha virt. eigenvalues --    1.11092   1.12066   1.12444   1.12711   1.13226
 Alpha virt. eigenvalues --    1.13580   1.14189   1.14854   1.15225   1.15389
 Alpha virt. eigenvalues --    1.15607   1.16346   1.16497   1.16745   1.17245
 Alpha virt. eigenvalues --    1.18076   1.18125   1.18517   1.19044   1.19501
 Alpha virt. eigenvalues --    1.19776   1.20615   1.21192   1.21414   1.21738
 Alpha virt. eigenvalues --    1.22472   1.22945   1.23462   1.24014   1.24348
 Alpha virt. eigenvalues --    1.24777   1.25136   1.26060   1.26122   1.26615
 Alpha virt. eigenvalues --    1.27198   1.27497   1.28539   1.28819   1.29166
 Alpha virt. eigenvalues --    1.29948   1.30248   1.31352   1.32419   1.32729
 Alpha virt. eigenvalues --    1.33607   1.33643   1.34616   1.34784   1.35019
 Alpha virt. eigenvalues --    1.36189   1.36919   1.37042   1.37818   1.38046
 Alpha virt. eigenvalues --    1.39022   1.39748   1.40078   1.40873   1.41127
 Alpha virt. eigenvalues --    1.42148   1.42305   1.42454   1.43321   1.43705
 Alpha virt. eigenvalues --    1.44251   1.45095   1.45679   1.46500   1.46876
 Alpha virt. eigenvalues --    1.47342   1.48229   1.48495   1.49247   1.50314
 Alpha virt. eigenvalues --    1.50745   1.51381   1.51443   1.52542   1.52927
 Alpha virt. eigenvalues --    1.54018   1.54554   1.54737   1.55240   1.55728
 Alpha virt. eigenvalues --    1.56567   1.56783   1.57298   1.58065   1.58524
 Alpha virt. eigenvalues --    1.58991   1.59743   1.59996   1.60522   1.60792
 Alpha virt. eigenvalues --    1.60996   1.61336   1.61883   1.62033   1.62754
 Alpha virt. eigenvalues --    1.62853   1.63101   1.63171   1.63291   1.63632
 Alpha virt. eigenvalues --    1.64180   1.64643   1.65304   1.65445   1.65573
 Alpha virt. eigenvalues --    1.66247   1.66588   1.66772   1.66945   1.67234
 Alpha virt. eigenvalues --    1.67739   1.68087   1.68471   1.68702   1.68820
 Alpha virt. eigenvalues --    1.69164   1.69446   1.69926   1.70473   1.70723
 Alpha virt. eigenvalues --    1.71341   1.71388   1.71985   1.72144   1.72908
 Alpha virt. eigenvalues --    1.73009   1.73244   1.73528   1.73963   1.74484
 Alpha virt. eigenvalues --    1.74877   1.75094   1.75241   1.75530   1.75755
 Alpha virt. eigenvalues --    1.76081   1.76280   1.76716   1.77162   1.77535
 Alpha virt. eigenvalues --    1.77685   1.78107   1.78140   1.78439   1.78608
 Alpha virt. eigenvalues --    1.78852   1.79363   1.79773   1.79967   1.80539
 Alpha virt. eigenvalues --    1.80572   1.81292   1.81472   1.82025   1.82470
 Alpha virt. eigenvalues --    1.83388   1.83585   1.84365   1.84543   1.84744
 Alpha virt. eigenvalues --    1.84799   1.85402   1.85847   1.86126   1.86522
 Alpha virt. eigenvalues --    1.86641   1.87106   1.87274   1.87911   1.88204
 Alpha virt. eigenvalues --    1.88416   1.88778   1.89198   1.89471   1.89854
 Alpha virt. eigenvalues --    1.90179   1.90714   1.91350   1.92001   1.92252
 Alpha virt. eigenvalues --    1.92414   1.93061   1.93076   1.93880   1.94157
 Alpha virt. eigenvalues --    1.94261   1.95221   1.95394   1.96099   1.96487
 Alpha virt. eigenvalues --    1.96822   1.97211   1.97601   1.97826   1.98165
 Alpha virt. eigenvalues --    1.98565   1.99146   1.99280   1.99605   1.99812
 Alpha virt. eigenvalues --    2.00295   2.00484   2.01136   2.01293   2.01494
 Alpha virt. eigenvalues --    2.02045   2.02411   2.02933   2.03237   2.03470
 Alpha virt. eigenvalues --    2.04094   2.04363   2.04511   2.04996   2.05478
 Alpha virt. eigenvalues --    2.05559   2.05861   2.06096   2.06760   2.06996
 Alpha virt. eigenvalues --    2.07458   2.07903   2.08368   2.08852   2.09222
 Alpha virt. eigenvalues --    2.09975   2.10268   2.10426   2.10827   2.11567
 Alpha virt. eigenvalues --    2.11792   2.12195   2.12838   2.12848   2.13198
 Alpha virt. eigenvalues --    2.14105   2.14477   2.14678   2.15228   2.15958
 Alpha virt. eigenvalues --    2.16332   2.16601   2.16850   2.17202   2.17580
 Alpha virt. eigenvalues --    2.17967   2.18399   2.18928   2.19759   2.20389
 Alpha virt. eigenvalues --    2.21265   2.22301   2.22491   2.22954   2.23446
 Alpha virt. eigenvalues --    2.23891   2.24130   2.24797   2.25537   2.26240
 Alpha virt. eigenvalues --    2.26314   2.26901   2.28073   2.28506   2.28992
 Alpha virt. eigenvalues --    2.30209   2.30372   2.30927   2.31757   2.32128
 Alpha virt. eigenvalues --    2.32590   2.33000   2.34020   2.34224   2.35895
 Alpha virt. eigenvalues --    2.36246   2.37031   2.38213   2.38702   2.39561
 Alpha virt. eigenvalues --    2.39807   2.40371   2.41061   2.41498   2.41878
 Alpha virt. eigenvalues --    2.42276   2.42451   2.43137   2.44010   2.44380
 Alpha virt. eigenvalues --    2.45083   2.45375   2.45916   2.46611   2.47570
 Alpha virt. eigenvalues --    2.48030   2.49057   2.49815   2.50235   2.50975
 Alpha virt. eigenvalues --    2.51695   2.53221   2.53531   2.53574   2.54472
 Alpha virt. eigenvalues --    2.55260   2.56904   2.58455   2.58974   2.59271
 Alpha virt. eigenvalues --    2.59710   2.59810   2.60314   2.60786   2.61207
 Alpha virt. eigenvalues --    2.61690   2.62524   2.62910   2.63268   2.63765
 Alpha virt. eigenvalues --    2.64161   2.64489   2.64893   2.65520   2.66404
 Alpha virt. eigenvalues --    2.66582   2.67288   2.67637   2.68011   2.68202
 Alpha virt. eigenvalues --    2.68944   2.69541   2.69809   2.70173   2.70518
 Alpha virt. eigenvalues --    2.70757   2.71326   2.71776   2.72581   2.72865
 Alpha virt. eigenvalues --    2.73192   2.73348   2.73637   2.74095   2.74582
 Alpha virt. eigenvalues --    2.74947   2.75164   2.75635   2.76482   2.77159
 Alpha virt. eigenvalues --    2.77728   2.77749   2.78173   2.79315   2.79899
 Alpha virt. eigenvalues --    2.80106   2.81025   2.81894   2.82584   2.83245
 Alpha virt. eigenvalues --    2.83412   2.83700   2.84310   2.84688   2.85020
 Alpha virt. eigenvalues --    2.85296   2.85787   2.86805   2.86929   2.87270
 Alpha virt. eigenvalues --    2.88119   2.88160   2.88593   2.88708   2.89135
 Alpha virt. eigenvalues --    2.89580   2.90160   2.90612   2.90825   2.91258
 Alpha virt. eigenvalues --    2.91843   2.92196   2.92324   2.93078   2.93360
 Alpha virt. eigenvalues --    2.93642   2.94231   2.94342   2.95048   2.95542
 Alpha virt. eigenvalues --    2.95760   2.96194   2.96813   2.97459   2.97876
 Alpha virt. eigenvalues --    2.98143   2.98443   2.98851   2.99459   2.99713
 Alpha virt. eigenvalues --    3.00124   3.00462   3.00891   3.01246   3.01713
 Alpha virt. eigenvalues --    3.02038   3.02264   3.03163   3.03641   3.04079
 Alpha virt. eigenvalues --    3.04352   3.04701   3.05714   3.05791   3.06207
 Alpha virt. eigenvalues --    3.06458   3.07030   3.07764   3.08307   3.08834
 Alpha virt. eigenvalues --    3.09251   3.09819   3.10006   3.10856   3.11608
 Alpha virt. eigenvalues --    3.12386   3.12474   3.14022   3.14446   3.15618
 Alpha virt. eigenvalues --    3.15826   3.16202   3.17464   3.17925   3.18201
 Alpha virt. eigenvalues --    3.18647   3.20117   3.20368   3.22272   3.23232
 Alpha virt. eigenvalues --    3.23642   3.23931   3.24607   3.25639   3.25978
 Alpha virt. eigenvalues --    3.26200   3.27215   3.28119   3.29375   3.30266
 Alpha virt. eigenvalues --    3.30963   3.31937   3.32004   3.32352   3.33180
 Alpha virt. eigenvalues --    3.34236   3.34899   3.35408   3.36046   3.36976
 Alpha virt. eigenvalues --    3.37855   3.39110   3.39915   3.40568   3.41210
 Alpha virt. eigenvalues --    3.41782   3.43011   3.43803   3.44858   3.46392
 Alpha virt. eigenvalues --    3.47790   3.47868   3.48575   3.49540   3.50474
 Alpha virt. eigenvalues --    3.51116   3.51156   3.52348   3.53438   3.54275
 Alpha virt. eigenvalues --    3.55223   3.58045   3.60048   3.63675   3.65162
 Alpha virt. eigenvalues --    3.65577   3.67702   3.68151   3.69083   3.72603
 Alpha virt. eigenvalues --    3.73734   3.75403   3.75752   3.77284   3.81147
 Alpha virt. eigenvalues --    3.83167   3.88247   3.88782   3.89362   3.91028
 Alpha virt. eigenvalues --    3.92041   3.92512   3.92659   3.93366   3.94092
 Alpha virt. eigenvalues --    3.94353   3.94963   3.95510   3.95744   3.97549
 Alpha virt. eigenvalues --    3.98119   3.99459   4.00299   4.01768   4.03420
 Alpha virt. eigenvalues --    4.04094   4.05576   4.08328   4.11126   4.11354
 Alpha virt. eigenvalues --    4.14381   4.14966   4.15164   4.15388   4.16171
 Alpha virt. eigenvalues --    4.17753   4.19956   4.22422   4.23846   4.25037
 Alpha virt. eigenvalues --    4.26629   4.27148   4.28137   4.28633   4.29204
 Alpha virt. eigenvalues --    4.29572   4.33379   4.36559   4.38773   4.40775
 Alpha virt. eigenvalues --    4.41405   4.42417   4.47178   4.49012   4.50438
 Alpha virt. eigenvalues --    4.51311   4.53949   4.54338   4.76137   4.79492
 Alpha virt. eigenvalues --    4.94883   4.95683   5.31439   5.37020   5.39558
 Alpha virt. eigenvalues --    5.40448   5.46612   5.47343   5.50429   5.51202
 Alpha virt. eigenvalues --    5.53546   5.58550   5.63514   5.66200   5.69793
 Alpha virt. eigenvalues --    5.73639   5.79074   5.79297   5.81103   5.90049
 Alpha virt. eigenvalues --    7.65164  14.33176  14.37724  14.44564  14.93738
 Alpha virt. eigenvalues --   23.77923  23.79266  23.94122  23.97819  23.98744
 Alpha virt. eigenvalues --   24.02678  24.03533  24.04953  24.05411  24.10150
 Alpha virt. eigenvalues --   24.11253  24.11641  24.12192  24.12479  24.12927
 Alpha virt. eigenvalues --   24.13226  24.13790  24.14559  24.15199  24.16221
 Alpha virt. eigenvalues --   24.17219  24.18583  24.20044  24.20785  24.21369
 Alpha virt. eigenvalues --   24.22943  24.23230  24.24203  24.32158  24.32560
 Alpha virt. eigenvalues --   24.33016  35.71294  50.14194  50.15387  50.16802
 Alpha virt. eigenvalues --   50.20935  50.24651  50.25582 163.90791
          Condensed to atoms (all electrons):
 Mulliken charges:
               1
     1  C   -0.067803
     2  C    0.190926
     3  H    0.216328
     4  C   -0.876764
     5  H    0.206720
     6  H    0.207012
     7  H    0.159037
     8  C   -0.841478
     9  H    0.235981
    10  H   -0.004183
    11  H    0.175876
    12  B    0.803000
    13  C   -0.782436
    14  H    0.181193
    15  H    0.093930
    16  H    0.059763
    17  O   -0.057364
    18  O   -0.067107
    19  C   -0.241679
    20  C   -0.341786
    21  C   -0.878231
    22  H    0.179599
    23  H    0.192141
    24  H    0.172740
    25  C   -0.252974
    26  H    0.203498
    27  H    0.195503
    28  H    0.073308
    29  C   -0.308882
    30  H    0.085816
    31  H    0.209835
    32  H    0.199436
    33  C   -0.684828
    34  H    0.123445
    35  H    0.166882
    36  H    0.252266
    37  P   -0.296528
    38  O   -0.142257
    39  O    0.038865
    40  N    0.061285
    41  H    0.395321
    42  H   -0.484823
    43  Li  -0.483165
    44  C   -0.410653
    45  O    0.069925
    46  C    0.148953
    47  C   -0.727227
    48  C   -0.099091
    49  H    0.260086
    50  H   -0.082903
    51  H    0.310907
    52  H    0.252285
    53  H    0.146579
    54  H    0.247595
    55  H    0.093141
    56  H    0.265663
    57  C   -0.177562
    58  O    0.092110
    59  C   -0.037732
    60  C   -0.651300
    61  C   -0.333905
    62  H    0.247795
    63  H    0.034624
    64  H    0.176595
    65  H    0.236162
    66  H    0.185280
    67  H    0.234628
    68  H    0.144497
    69  H    0.242343
    70  C    0.510705
    71  C    0.150189
    72  C   -0.240475
    73  C   -0.469361
    74  H    0.320349
    75  C   -0.343741
    76  H    0.320539
    77  C   -0.447386
    78  H    0.287428
    79  H    0.288345
    80  H    0.269996
    81  C    0.160333
    82  C   -0.109079
    83  C    0.153197
    84  C   -0.623234
    85  H    0.302520
    86  C   -0.206315
    87  H    0.188448
    88  C   -0.496632
    89  H    0.280593
    90  H    0.304368
    91  H    0.262999
 Sum of Mulliken charges =  -0.00000
 Mulliken charges with hydrogens summed into heavy atoms:
               1
     1  C   -0.067803
     2  C    0.407255
     4  C   -0.303995
     8  C   -0.433804
    12  B    0.803000
    13  C   -0.447550
    17  O   -0.057364
    18  O   -0.067107
    19  C   -0.241679
    20  C   -0.341786
    21  C   -0.333751
    25  C    0.219335
    29  C    0.186205
    33  C   -0.142236
    37  P   -0.296528
    38  O   -0.142257
    39  O    0.038865
    40  N   -0.028216
    43  Li  -0.483165
    44  C   -0.233471
    45  O    0.069925
    46  C    0.712145
    47  C   -0.333053
    48  C    0.259712
    57  C    0.104857
    58  O    0.092110
    59  C    0.375025
    60  C   -0.231393
    61  C    0.052935
    70  C    0.510705
    71  C    0.470539
    72  C    0.080063
    73  C   -0.181933
    75  C   -0.055396
    77  C   -0.177390
    81  C    0.160333
    82  C    0.193441
    83  C    0.341645
    84  C   -0.342641
    86  C    0.098053
    88  C   -0.233634
 Electronic spatial extent (au):  <R**2>=          20365.8280
 Charge=             -0.0000 electrons
 Dipole moment (field-independent basis, Debye):
    X=              7.4005    Y=             -2.0270    Z=             -9.9824  Tot=             12.5906
 Quadrupole moment (field-independent basis, Debye-Ang):
   XX=           -258.3613   YY=           -229.8238   ZZ=           -241.1437
   XY=             11.2499   XZ=             11.5053   YZ=              0.5770
 Traceless Quadrupole moment (field-independent basis, Debye-Ang):
   XX=            -15.2517   YY=             13.2858   ZZ=              1.9659
   XY=             11.2499   XZ=             11.5053   YZ=              0.5770
 Octapole moment (field-independent basis, Debye-Ang**2):
  XXX=            202.9365  YYY=              0.8693  ZZZ=            -98.6185  XYY=             37.4559
  XXY=            -10.1719  XXZ=           -109.3977  XZZ=             95.7153  YZZ=             13.8840
  YYZ=            -29.1805  XYZ=             41.0497
 Hexadecapole moment (field-independent basis, Debye-Ang**3):
 XXXX=         -14538.6480 YYYY=          -5062.2689 ZZZZ=          -7873.6879 XXXY=           -257.1522
 XXXZ=            465.7727 YYYX=           -191.2752 YYYZ=             -7.8302 ZZZX=            584.7757
 ZZZY=           -112.0798 XXYY=          -3238.3959 XXZZ=          -3564.0623 YYZZ=          -2004.5096
 XXYZ=             13.6773 YYXZ=            136.0826 ZZXY=             74.4870
 N-N= 5.690896608216D+03 E-N=-1.627557547610D+04  KE= 2.083026677795D+03
 Unable to Open any file for archive entry.
 1\1\GINC-NODE18\SP\RwB97XD\6-311++G(d,p)\C31H50B1Li1N1O6P1\WHUGHES2\08
 -Oct-2025\0\\# wb97xd/6-311++g** nosymm int=ultrafine scrf=(smd,solven
 t=tetrahydrofuran)\\aminationTS-full-unfrz-c9_tzpop-sp\\0,1\C,0,-2.248
 4,-1.3851,2.2353\C,0,-1.6103,-1.5296,3.4376\H,0,-1.3399,-0.6226,3.9741
 \C,0,-1.4209,-2.7882,4.2402\H,0,-0.4691,-2.7595,4.7828\H,0,-2.2186,-2.
 8766,4.9905\H,0,-1.4425,-3.6993,3.6336\C,0,-2.7286,-2.608,1.495\H,0,-3
 .75,-2.86,1.8117\H,0,-2.7634,-2.4131,0.4206\H,0,-2.1155,-3.5014,1.6654
 \B,0,-2.6308,0.1267,1.6586\C,0,-1.7106,1.29,2.3568\H,0,-2.0328,1.4814,
 3.3922\H,0,-0.6374,1.0595,2.3998\H,0,-1.8003,2.2453,1.8229\O,0,-2.5375
 ,0.1488,0.1391\O,0,-4.0792,0.3936,1.8919\C,0,-4.7943,0.4841,0.6789\C,0
 ,-3.6873,0.8221,-0.379\C,0,-5.8687,1.5658,0.8145\H,0,-6.3773,1.7467,-0
 .1411\H,0,-6.6233,1.242,1.5413\H,0,-5.446,2.5094,1.17\C,0,-5.5026,-0.8
 473,0.3826\H,0,-6.0773,-1.1431,1.2679\H,0,-6.1974,-0.7601,-0.4619\H,0,
 -4.792,-1.6455,0.1597\C,0,-3.4116,2.3308,-0.4755\H,0,-2.4838,2.4883,-1
 .0356\H,0,-4.2204,2.8469,-1.0067\H,0,-3.3045,2.7919,0.5086\C,0,-3.9803
 ,0.3033,-1.7846\H,0,-3.1651,0.5759,-2.4642\H,0,-4.09,-0.7832,-1.8058\H
 ,0,-4.9027,0.7494,-2.1758\P,0,2.0208,-0.2095,0.6103\O,0,0.7898,0.3064,
 -0.1066\O,0,1.8182,-1.5933,1.3177\N,0,0.2118,-1.5019,2.1656\H,0,0.046,
 -2.4768,1.9026\H,0,-0.2213,-0.952,1.4173\Li,0,-0.9335,0.2175,-0.9569\C
 ,0,0.4359,-1.7688,-2.6018\O,0,-0.8738,-1.3499,-2.2188\C,0,-1.6825,-2.5
 256,-2.2375\C,0,-0.7719,-3.673,-1.7636\C,0,0.6487,-3.0661,-1.8263\H,0,
 0.4576,-1.9402,-3.6886\H,0,1.1285,-0.9652,-2.3466\H,0,-2.5423,-2.3419,
 -1.5937\H,0,-2.0378,-2.6933,-3.2639\H,0,-1.0246,-3.9851,-0.7462\H,0,-0
 .8752,-4.5443,-2.4165\H,0,1.0108,-2.8355,-0.8204\H,0,1.3749,-3.7238,-2
 .3122\C,0,0.4033,2.5566,-2.2288\O,0,-0.6762,1.6357,-2.3809\C,0,-0.8207
 ,1.3973,-3.7841\C,0,0.5881,1.5477,-4.3949\C,0,1.4471,2.063,-3.2221\H,0
 ,0.0541,3.5707,-2.4756\H,0,0.722,2.5196,-1.1866\H,0,-1.2456,0.3989,-3.
 899\H,0,-1.5188,2.137,-4.1981\H,0,0.9644,0.5957,-4.7794\H,0,0.5723,2.2
 609,-5.2244\H,0,2.0138,1.2432,-2.771\H,0,2.1497,2.8476,-3.5176\C,0,3.4
 201,-0.4536,-0.5188\C,0,3.8336,-1.7355,-0.8924\C,0,4.059,0.6649,-1.067
 \C,0,4.8643,-1.8967,-1.8169\H,0,3.3535,-2.6066,-0.4574\C,0,5.0882,0.50
 25,-1.9902\H,0,3.7545,1.6677,-0.7752\C,0,5.4888,-0.7792,-2.3691\H,0,5.
 1807,-2.896,-2.103\H,0,5.5774,1.3754,-2.4133\H,0,6.2924,-0.906,-3.0895
 \C,0,2.5528,1.0183,1.8322\C,0,3.6102,0.7311,2.7031\C,0,1.9147,2.259,1.
 9029\C,0,4.0228,1.6774,3.6366\H,0,4.1117,-0.2326,2.6531\C,0,2.3276,3.2
 057,2.8396\H,0,1.0873,2.4756,1.2335\C,0,3.3808,2.9155,3.705\H,0,4.8422
 ,1.4498,4.3128\H,0,1.8228,4.1662,2.8955\H,0,3.7022,3.6527,4.4359\\Vers
 ion=AS64L-G16RevC.01\HF=-2091.3501272\RMSD=5.094e-09\Dipole=2.9115968,
 -0.7974885,-3.9273634\Quadrupole=-11.3392721,9.8776949,1.4615772,8.364
 0292,8.5538796,0.4289728\PG=C01 [X(C31H50B1Li1N1O6P1)]\\@
 The archive entry for this job was punched.


 IT PROBABLY IS NOT POSSIBLE FOR A SCIENTIST TO INTERROGATE NATURE 
 FROM A WHOLLY DISINTERESTED VIEWPOINT.
 EVEN IF HE HAS NO PARTICULAR AXE TO GRIND, HE IS LIKELY TO HAVE 
 A DISTINCTIVE WAY OF VIEWING NATURE.

                                                   -- JOHN LOSEE
 Job cpu time:       0 days  8 hours 46 minutes  1.4 seconds.
 Elapsed time:       0 days  2 hours 12 minutes 34.9 seconds.
 File lengths (MBytes):  RWF=   1332 Int=      0 D2E=      0 Chk=     95 Scr=      1
 Normal termination of Gaussian 16 at Wed Oct  8 17:40:20 2025.
