 Entering Gaussian System, Link 0=g16
 Initial command:
 /opt/packages/gaussian/g16RevC.01/g16/l1.exe "/ocean/projects/che180035p/whughes/Scratch/aminationTS-full-unfrz-c1-sp-tzpop_34652374-6ray/Gau-7848.inp" -scrdir="/ocean/projects/che180035p/whughes/Scratch/aminationTS-full-unfrz-c1-sp-tzpop_34652374-6ray/"
 Entering Link 1 = /opt/packages/gaussian/g16RevC.01/g16/l1.exe PID=      7849.
  
 Copyright (c) 1988-2019, Gaussian, Inc.  All Rights Reserved.
  
 This is part of the Gaussian(R) 16 program.  It is based on
 the Gaussian(R) 09 system (copyright 2009, Gaussian, Inc.),
 the Gaussian(R) 03 system (copyright 2003, Gaussian, Inc.),
 the Gaussian(R) 98 system (copyright 1998, Gaussian, Inc.),
 the Gaussian(R) 94 system (copyright 1995, Gaussian, Inc.),
 the Gaussian 92(TM) system (copyright 1992, Gaussian, Inc.),
 the Gaussian 90(TM) system (copyright 1990, Gaussian, Inc.),
 the Gaussian 88(TM) system (copyright 1988, Gaussian, Inc.),
 the Gaussian 86(TM) system (copyright 1986, Carnegie Mellon
 University), and the Gaussian 82(TM) system (copyright 1983,
 Carnegie Mellon University). Gaussian is a federally registered
 trademark of Gaussian, Inc.
  
 This software contains proprietary and confidential information,
 including trade secrets, belonging to Gaussian, Inc.
  
 This software is provided under written license and may be
 used, copied, transmitted, or stored only in accord with that
 written license.
  
 The following legend is applicable only to US Government
 contracts under FAR:
  
                    RESTRICTED RIGHTS LEGEND
  
 Use, reproduction and disclosure by the US Government is
 subject to restrictions as set forth in subparagraphs (a)
 and (c) of the Commercial Computer Software - Restricted
 Rights clause in FAR 52.227-19.
  
 Gaussian, Inc.
 340 Quinnipiac St., Bldg. 40, Wallingford CT 06492
  
  
 ---------------------------------------------------------------
 Warning -- This program may not be used in any manner that
 competes with the business of Gaussian, Inc. or will provide
 assistance to any competitor of Gaussian, Inc.  The licensee
 of this program is prohibited from giving any competitor of
 Gaussian, Inc. access to this program.  By using this program,
 the user acknowledges that Gaussian, Inc. is engaged in the
 business of creating and licensing software in the field of
 computational chemistry and represents and warrants to the
 licensee that it is not a competitor of Gaussian, Inc. and that
 it will not use this program in any manner prohibited above.
 ---------------------------------------------------------------
  

 Cite this work as:
 Gaussian 16, Revision C.01,
 M. J. Frisch, G. W. Trucks, H. B. Schlegel, G. E. Scuseria, 
 M. A. Robb, J. R. Cheeseman, G. Scalmani, V. Barone, 
 G. A. Petersson, H. Nakatsuji, X. Li, M. Caricato, A. V. Marenich, 
 J. Bloino, B. G. Janesko, R. Gomperts, B. Mennucci, H. P. Hratchian, 
 J. V. Ortiz, A. F. Izmaylov, J. L. Sonnenberg, D. Williams-Young, 
 F. Ding, F. Lipparini, F. Egidi, J. Goings, B. Peng, A. Petrone, 
 T. Henderson, D. Ranasinghe, V. G. Zakrzewski, J. Gao, N. Rega, 
 G. Zheng, W. Liang, M. Hada, M. Ehara, K. Toyota, R. Fukuda, 
 J. Hasegawa, M. Ishida, T. Nakajima, Y. Honda, O. Kitao, H. Nakai, 
 T. Vreven, K. Throssell, J. A. Montgomery, Jr., J. E. Peralta, 
 F. Ogliaro, M. J. Bearpark, J. J. Heyd, E. N. Brothers, K. N. Kudin, 
 V. N. Staroverov, T. A. Keith, R. Kobayashi, J. Normand, 
 K. Raghavachari, A. P. Rendell, J. C. Burant, S. S. Iyengar, 
 J. Tomasi, M. Cossi, J. M. Millam, M. Klene, C. Adamo, R. Cammi, 
 J. W. Ochterski, R. L. Martin, K. Morokuma, O. Farkas, 
 J. B. Foresman, and D. J. Fox, Gaussian, Inc., Wallingford CT, 2019.
 
 ******************************************
 Gaussian 16:  ES64L-G16RevC.01  3-Jul-2019
                 8-Sep-2025 
 ******************************************
 %nproc=16
 Will use up to   16 processors via shared memory.
 %mem=32gb
 %chk=aminationTS-full-unfrz-c1-sp-tzpop.chk
 ----------------------------------------------------------------------
 #p wb97xd/6-311++g** nosymm int=ultrafine scrf=(smd,solvent=tetrahydro
 furan)
 ----------------------------------------------------------------------
 1/38=1,172=1/1;
 2/12=2,15=1,17=6,18=5,40=1/2;
 3/5=4,6=6,7=1111,11=2,25=1,30=1,70=32201,72=20,74=-58,75=-5/1,2,3;
 4//1;
 5/5=2,38=5,53=20/2;
 6/7=2,8=2,9=2,10=2,28=1/1;
 99/5=1,9=1/99;
 Leave Link    1 at Mon Sep  8 14:52:33 2025, MaxMem=  4294967296 cpu:               0.9 elap:               0.1
 (Enter /opt/packages/gaussian/g16RevC.01/g16/l101.exe)
 -----
 Title
 -----
 Symbolic Z-matrix:
 Charge =  0 Multiplicity = 1
 6                    -4.9803   -0.42691   0.82108 
 6                    -4.98402  -0.33494   2.18647 
 1                    -4.01458  -0.23786   2.67184 
 6                    -6.15319  -0.11791   3.11075 
 1                    -6.32644   0.95496   3.27337 
 1                    -7.08598  -0.54905   2.733 
 1                    -5.94913  -0.56826   4.08883 
 6                    -6.25851  -0.38892   0.02895 
 1                    -7.17144  -0.38151   0.6347 
 1                    -6.2632    0.51811  -0.59231 
 1                    -6.30806  -1.22465  -0.6774 
 5                    -3.5549   -0.4504   -0.02188 
 6                    -2.84088   1.01067   0.11072 
 1                    -2.63915   1.28439   1.156 
 1                    -1.88624   1.05531  -0.43426 
 1                    -3.4829    1.80533  -0.30258 
 8                    -2.66595  -1.58348   0.51333 
 8                    -3.73119  -0.82378  -1.44242 
 6                    -3.28614  -2.14293  -1.67376 
 6                    -2.16545  -2.33844  -0.59805 
 6                    -2.78221  -2.25106  -3.11251 
 1                    -3.62386  -2.13965  -3.80626 
 1                    -2.05519  -1.46624  -3.33918 
 1                    -2.31667  -3.22674  -3.30008 
 6                    -4.44536  -3.13753  -1.49687 
 1                    -4.15048  -4.15858  -1.76597 
 1                    -4.8224   -3.15637  -0.47029 
 1                    -5.27     -2.83845  -2.15351 
 6                    -0.82353  -1.74766  -1.04297 
 1                    -0.13465  -1.75681  -0.19396 
 1                    -0.37371  -2.34242  -1.8464 
 1                    -0.93265  -0.71791  -1.39425 
 6                    -1.94493  -3.78407  -0.16295 
 1                    -2.84059  -4.21654   0.29024 
 1                    -1.65483  -4.40203  -1.02153 
 1                    -1.14005  -3.83193   0.57873 
 15                   -3.33079  -4.34429   3.43455 
 8                    -2.14272  -3.44683   3.15811 
 8                    -4.51604  -4.26795   2.41245 
 7                    -4.78503  -2.48456   2.19942 
 1                    -4.05408  -2.43692   1.47714 
 1                    -5.66414  -2.67129   1.71093 
 3                    -1.78615  -1.77969   2.25262 
 6                    -2.35355  -0.81912   4.98573 
 8                    -1.98133  -0.30819   3.7032 
 6                    -1.94868   1.11851   3.81607 
 6                    -1.60705   1.43261   5.28739 
 6                    -1.58155   0.04998   5.96726 
 1                    -3.44164  -0.72053   5.12009 
 1                    -2.08996  -1.87491   5.00074 
 1                    -1.20896   1.48987   3.10388 
 1                    -2.93128   1.5239    3.54118 
 1                    -0.64755   1.94903   5.37903 
 1                    -2.37537   2.07556   5.72647 
 1                    -0.55438  -0.32039   6.05782 
 1                    -2.03424   0.05493   6.96263 
 6                     0.80622  -2.29349   3.4148 
 8                     0.22269  -1.75309   2.21543 
 6                     0.76996  -0.45218   1.94388 
 6                     1.47422  -0.02408   3.224 
 6                     1.96609  -1.36859   3.76711 
 1                     0.04087  -2.30272   4.19847 
 1                     1.10902  -3.32419   3.21129 
 1                     1.47905  -0.53569   1.10983 
 1                    -0.04934   0.20501   1.63735 
 1                     2.28054   0.68946   3.0334 
 1                     0.7621    0.42897   3.92151 
 1                     2.87943  -1.67906   3.24676 
 1                     2.16822  -1.3541    4.84175 
 6                    -2.80653  -6.08023   3.41963 
 6                    -1.57337  -6.41242   2.85159 
 6                    -3.62625  -7.09006   3.9358 
 6                    -1.16406  -7.74393   2.79678 
 1                    -0.93617  -5.6254    2.45776 
 6                    -3.21512  -8.4194    3.88242 
 1                    -4.58447  -6.84044   4.38593 
 6                    -1.98428  -8.74697   3.31144 
 1                    -0.20464  -7.99702   2.35381 
 1                    -3.85386  -9.19986   4.28664 
 1                    -1.66434  -9.78469   3.27072 
 6                    -3.99872  -4.00929   5.09162 
 6                    -3.15372  -4.10312   6.20407 
 6                    -5.32719  -3.6167    5.26933 
 6                    -3.62882  -3.79653   7.47582 
 1                    -2.11808  -4.41155   6.07715 
 6                    -5.80279  -3.30559   6.54324 
 1                    -5.98602  -3.54468   4.4094 
 6                    -4.95446  -3.39236   7.64551 
 1                    -2.9664   -3.87007   8.33403 
 1                    -6.83596  -2.9948    6.67285 
 1                    -5.32509  -3.14937   8.63779 
 
 ITRead=  0  0  0  0  0  0  0  0  0  0  0  0  0  0  0  0  0  0  0  0
 ITRead=  0  0  0  0  0  0  0  0  0  0  0  0  0  0  0  0  0  0  0  0
 ITRead=  0  0  0  0  0  0  0  0  0  0  0  0  0  0  0  0  0  0  0  0
 ITRead=  0  0  0  0  0  0  0  0  0  0  0  0  0  0  0  0  0  0  0  0
 ITRead=  0  0  0  0  0  0  0  0  0  0  0
 MicOpt= -1 -1 -1 -1 -1 -1 -1 -1 -1 -1 -1 -1 -1 -1 -1 -1 -1 -1 -1 -1
 MicOpt= -1 -1 -1 -1 -1 -1 -1 -1 -1 -1 -1 -1 -1 -1 -1 -1 -1 -1 -1 -1
 MicOpt= -1 -1 -1 -1 -1 -1 -1 -1 -1 -1 -1 -1 -1 -1 -1 -1 -1 -1 -1 -1
 MicOpt= -1 -1 -1 -1 -1 -1 -1 -1 -1 -1 -1 -1 -1 -1 -1 -1 -1 -1 -1 -1
 MicOpt= -1 -1 -1 -1 -1 -1 -1 -1 -1 -1 -1
 NAtoms=     91 NQM=       91 NQMF=       0 NMMI=      0 NMMIF=      0
                NMic=       0 NMicF=      0.
                    Isotopes and Nuclear Properties:
 (Nuclear quadrupole moments (NQMom) in fm**2, nuclear magnetic moments (NMagM)
  in nuclear magnetons)

  Atom         1           2           3           4           5           6           7           8           9          10
 IAtWgt=          12          12           1          12           1           1           1          12           1           1
 AtmWgt=  12.0000000  12.0000000   1.0078250  12.0000000   1.0078250   1.0078250   1.0078250  12.0000000   1.0078250   1.0078250
 NucSpn=           0           0           1           0           1           1           1           0           1           1
 AtZEff=  -0.0000000  -0.0000000  -0.0000000  -0.0000000  -0.0000000  -0.0000000  -0.0000000  -0.0000000  -0.0000000  -0.0000000
 NQMom=    0.0000000   0.0000000   0.0000000   0.0000000   0.0000000   0.0000000   0.0000000   0.0000000   0.0000000   0.0000000
 NMagM=    0.0000000   0.0000000   2.7928460   0.0000000   2.7928460   2.7928460   2.7928460   0.0000000   2.7928460   2.7928460
 AtZNuc=   6.0000000   6.0000000   1.0000000   6.0000000   1.0000000   1.0000000   1.0000000   6.0000000   1.0000000   1.0000000

  Atom        11          12          13          14          15          16          17          18          19          20
 IAtWgt=           1          11          12           1           1           1          16          16          12          12
 AtmWgt=   1.0078250  11.0093053  12.0000000   1.0078250   1.0078250   1.0078250  15.9949146  15.9949146  12.0000000  12.0000000
 NucSpn=           1           3           0           1           1           1           0           0           0           0
 AtZEff=  -0.0000000  -0.0000000  -0.0000000  -0.0000000  -0.0000000  -0.0000000  -0.0000000  -0.0000000  -0.0000000  -0.0000000
 NQMom=    0.0000000   4.0590000   0.0000000   0.0000000   0.0000000   0.0000000   0.0000000   0.0000000   0.0000000   0.0000000
 NMagM=    2.7928460   2.6886370   0.0000000   2.7928460   2.7928460   2.7928460   0.0000000   0.0000000   0.0000000   0.0000000
 AtZNuc=   1.0000000   5.0000000   6.0000000   1.0000000   1.0000000   1.0000000   8.0000000   8.0000000   6.0000000   6.0000000

  Atom        21          22          23          24          25          26          27          28          29          30
 IAtWgt=          12           1           1           1          12           1           1           1          12           1
 AtmWgt=  12.0000000   1.0078250   1.0078250   1.0078250  12.0000000   1.0078250   1.0078250   1.0078250  12.0000000   1.0078250
 NucSpn=           0           1           1           1           0           1           1           1           0           1
 AtZEff=  -0.0000000  -0.0000000  -0.0000000  -0.0000000  -0.0000000  -0.0000000  -0.0000000  -0.0000000  -0.0000000  -0.0000000
 NQMom=    0.0000000   0.0000000   0.0000000   0.0000000   0.0000000   0.0000000   0.0000000   0.0000000   0.0000000   0.0000000
 NMagM=    0.0000000   2.7928460   2.7928460   2.7928460   0.0000000   2.7928460   2.7928460   2.7928460   0.0000000   2.7928460
 AtZNuc=   6.0000000   1.0000000   1.0000000   1.0000000   6.0000000   1.0000000   1.0000000   1.0000000   6.0000000   1.0000000

  Atom        31          32          33          34          35          36          37          38          39          40
 IAtWgt=           1           1          12           1           1           1          31          16          16          14
 AtmWgt=   1.0078250   1.0078250  12.0000000   1.0078250   1.0078250   1.0078250  30.9737634  15.9949146  15.9949146  14.0030740
 NucSpn=           1           1           0           1           1           1           1           0           0           2
 AtZEff=  -0.0000000  -0.0000000  -0.0000000  -0.0000000  -0.0000000  -0.0000000  -0.0000000  -0.0000000  -0.0000000  -0.0000000
 NQMom=    0.0000000   0.0000000   0.0000000   0.0000000   0.0000000   0.0000000   0.0000000   0.0000000   0.0000000   2.0440000
 NMagM=    2.7928460   2.7928460   0.0000000   2.7928460   2.7928460   2.7928460   1.1316000   0.0000000   0.0000000   0.4037610
 AtZNuc=   1.0000000   1.0000000   6.0000000   1.0000000   1.0000000   1.0000000  15.0000000   8.0000000   8.0000000   7.0000000

  Atom        41          42          43          44          45          46          47          48          49          50
 IAtWgt=           1           1           7          12          16          12          12          12           1           1
 AtmWgt=   1.0078250   1.0078250   7.0160045  12.0000000  15.9949146  12.0000000  12.0000000  12.0000000   1.0078250   1.0078250
 NucSpn=           1           1           3           0           0           0           0           0           1           1
 AtZEff=  -0.0000000  -0.0000000  -0.0000000  -0.0000000  -0.0000000  -0.0000000  -0.0000000  -0.0000000  -0.0000000  -0.0000000
 NQMom=    0.0000000   0.0000000  -4.0100000   0.0000000   0.0000000   0.0000000   0.0000000   0.0000000   0.0000000   0.0000000
 NMagM=    2.7928460   2.7928460   3.2564240   0.0000000   0.0000000   0.0000000   0.0000000   0.0000000   2.7928460   2.7928460
 AtZNuc=   1.0000000   1.0000000   3.0000000   6.0000000   8.0000000   6.0000000   6.0000000   6.0000000   1.0000000   1.0000000

  Atom        51          52          53          54          55          56          57          58          59          60
 IAtWgt=           1           1           1           1           1           1          12          16          12          12
 AtmWgt=   1.0078250   1.0078250   1.0078250   1.0078250   1.0078250   1.0078250  12.0000000  15.9949146  12.0000000  12.0000000
 NucSpn=           1           1           1           1           1           1           0           0           0           0
 AtZEff=  -0.0000000  -0.0000000  -0.0000000  -0.0000000  -0.0000000  -0.0000000  -0.0000000  -0.0000000  -0.0000000  -0.0000000
 NQMom=    0.0000000   0.0000000   0.0000000   0.0000000   0.0000000   0.0000000   0.0000000   0.0000000   0.0000000   0.0000000
 NMagM=    2.7928460   2.7928460   2.7928460   2.7928460   2.7928460   2.7928460   0.0000000   0.0000000   0.0000000   0.0000000
 AtZNuc=   1.0000000   1.0000000   1.0000000   1.0000000   1.0000000   1.0000000   6.0000000   8.0000000   6.0000000   6.0000000

  Atom        61          62          63          64          65          66          67          68          69          70
 IAtWgt=          12           1           1           1           1           1           1           1           1          12
 AtmWgt=  12.0000000   1.0078250   1.0078250   1.0078250   1.0078250   1.0078250   1.0078250   1.0078250   1.0078250  12.0000000
 NucSpn=           0           1           1           1           1           1           1           1           1           0
 AtZEff=  -0.0000000  -0.0000000  -0.0000000  -0.0000000  -0.0000000  -0.0000000  -0.0000000  -0.0000000  -0.0000000  -0.0000000
 NQMom=    0.0000000   0.0000000   0.0000000   0.0000000   0.0000000   0.0000000   0.0000000   0.0000000   0.0000000   0.0000000
 NMagM=    0.0000000   2.7928460   2.7928460   2.7928460   2.7928460   2.7928460   2.7928460   2.7928460   2.7928460   0.0000000
 AtZNuc=   6.0000000   1.0000000   1.0000000   1.0000000   1.0000000   1.0000000   1.0000000   1.0000000   1.0000000   6.0000000

  Atom        71          72          73          74          75          76          77          78          79          80
 IAtWgt=          12          12          12           1          12           1          12           1           1           1
 AtmWgt=  12.0000000  12.0000000  12.0000000   1.0078250  12.0000000   1.0078250  12.0000000   1.0078250   1.0078250   1.0078250
 NucSpn=           0           0           0           1           0           1           0           1           1           1
 AtZEff=  -0.0000000  -0.0000000  -0.0000000  -0.0000000  -0.0000000  -0.0000000  -0.0000000  -0.0000000  -0.0000000  -0.0000000
 NQMom=    0.0000000   0.0000000   0.0000000   0.0000000   0.0000000   0.0000000   0.0000000   0.0000000   0.0000000   0.0000000
 NMagM=    0.0000000   0.0000000   0.0000000   2.7928460   0.0000000   2.7928460   0.0000000   2.7928460   2.7928460   2.7928460
 AtZNuc=   6.0000000   6.0000000   6.0000000   1.0000000   6.0000000   1.0000000   6.0000000   1.0000000   1.0000000   1.0000000

  Atom        81          82          83          84          85          86          87          88          89          90
 IAtWgt=          12          12          12          12           1          12           1          12           1           1
 AtmWgt=  12.0000000  12.0000000  12.0000000  12.0000000   1.0078250  12.0000000   1.0078250  12.0000000   1.0078250   1.0078250
 NucSpn=           0           0           0           0           1           0           1           0           1           1
 AtZEff=  -0.0000000  -0.0000000  -0.0000000  -0.0000000  -0.0000000  -0.0000000  -0.0000000  -0.0000000  -0.0000000  -0.0000000
 NQMom=    0.0000000   0.0000000   0.0000000   0.0000000   0.0000000   0.0000000   0.0000000   0.0000000   0.0000000   0.0000000
 NMagM=    0.0000000   0.0000000   0.0000000   0.0000000   2.7928460   0.0000000   2.7928460   0.0000000   2.7928460   2.7928460
 AtZNuc=   6.0000000   6.0000000   6.0000000   6.0000000   1.0000000   6.0000000   1.0000000   6.0000000   1.0000000   1.0000000

  Atom        91
 IAtWgt=           1
 AtmWgt=   1.0078250
 NucSpn=           1
 AtZEff=  -0.0000000
 NQMom=    0.0000000
 NMagM=    2.7928460
 AtZNuc=   1.0000000
 Leave Link  101 at Mon Sep  8 14:52:34 2025, MaxMem=  4294967296 cpu:               1.0 elap:               0.1
 (Enter /opt/packages/gaussian/g16RevC.01/g16/l202.exe)
 Symmetry turned off by external request.
 Stoichiometry    C31H50BLiNO6P
 Framework group  C1[X(C31H50BLiNO6P)]
 Deg. of freedom   267
 Full point group                 C1      NOp   1
                          Input orientation:                          
 ---------------------------------------------------------------------
 Center     Atomic      Atomic             Coordinates (Angstroms)
 Number     Number       Type             X           Y           Z
 ---------------------------------------------------------------------
      1          6           0       -4.980301   -0.426913    0.821076
      2          6           0       -4.984020   -0.334935    2.186466
      3          1           0       -4.014579   -0.237858    2.671844
      4          6           0       -6.153189   -0.117907    3.110748
      5          1           0       -6.326437    0.954960    3.273367
      6          1           0       -7.085980   -0.549047    2.732995
      7          1           0       -5.949128   -0.568264    4.088830
      8          6           0       -6.258506   -0.388916    0.028950
      9          1           0       -7.171437   -0.381509    0.634698
     10          1           0       -6.263198    0.518110   -0.592307
     11          1           0       -6.308057   -1.224649   -0.677401
     12          5           0       -3.554895   -0.450402   -0.021879
     13          6           0       -2.840882    1.010670    0.110718
     14          1           0       -2.639147    1.284386    1.156001
     15          1           0       -1.886239    1.055311   -0.434257
     16          1           0       -3.482895    1.805325   -0.302580
     17          8           0       -2.665952   -1.583478    0.513329
     18          8           0       -3.731187   -0.823777   -1.442422
     19          6           0       -3.286139   -2.142932   -1.673757
     20          6           0       -2.165453   -2.338442   -0.598052
     21          6           0       -2.782209   -2.251061   -3.112506
     22          1           0       -3.623861   -2.139652   -3.806264
     23          1           0       -2.055187   -1.466238   -3.339179
     24          1           0       -2.316668   -3.226735   -3.300078
     25          6           0       -4.445360   -3.137534   -1.496868
     26          1           0       -4.150475   -4.158583   -1.765974
     27          1           0       -4.822395   -3.156368   -0.470294
     28          1           0       -5.270000   -2.838452   -2.153508
     29          6           0       -0.823525   -1.747663   -1.042969
     30          1           0       -0.134654   -1.756809   -0.193959
     31          1           0       -0.373706   -2.342422   -1.846400
     32          1           0       -0.932654   -0.717914   -1.394251
     33          6           0       -1.944931   -3.784070   -0.162949
     34          1           0       -2.840589   -4.216545    0.290238
     35          1           0       -1.654831   -4.402033   -1.021534
     36          1           0       -1.140047   -3.831926    0.578732
     37         15           0       -3.330787   -4.344293    3.434553
     38          8           0       -2.142718   -3.446829    3.158114
     39          8           0       -4.516043   -4.267948    2.412450
     40          7           0       -4.785027   -2.484557    2.199416
     41          1           0       -4.054080   -2.436917    1.477141
     42          1           0       -5.664144   -2.671288    1.710925
     43          3           0       -1.786150   -1.779693    2.252618
     44          6           0       -2.353547   -0.819124    4.985726
     45          8           0       -1.981325   -0.308193    3.703203
     46          6           0       -1.948683    1.118509    3.816065
     47          6           0       -1.607048    1.432608    5.287393
     48          6           0       -1.581547    0.049977    5.967258
     49          1           0       -3.441635   -0.720525    5.120090
     50          1           0       -2.089964   -1.874905    5.000738
     51          1           0       -1.208962    1.489870    3.103878
     52          1           0       -2.931278    1.523899    3.541176
     53          1           0       -0.647553    1.949028    5.379025
     54          1           0       -2.375372    2.075564    5.726472
     55          1           0       -0.554383   -0.320391    6.057822
     56          1           0       -2.034237    0.054933    6.962632
     57          6           0        0.806219   -2.293491    3.414797
     58          8           0        0.222694   -1.753088    2.215433
     59          6           0        0.769959   -0.452184    1.943882
     60          6           0        1.474222   -0.024079    3.223997
     61          6           0        1.966085   -1.368592    3.767109
     62          1           0        0.040867   -2.302715    4.198473
     63          1           0        1.109016   -3.324189    3.211294
     64          1           0        1.479047   -0.535689    1.109834
     65          1           0       -0.049335    0.205012    1.637349
     66          1           0        2.280540    0.689456    3.033399
     67          1           0        0.762099    0.428968    3.921506
     68          1           0        2.879427   -1.679061    3.246757
     69          1           0        2.168219   -1.354097    4.841752
     70          6           0       -2.806526   -6.080229    3.419625
     71          6           0       -1.573366   -6.412424    2.851594
     72          6           0       -3.626251   -7.090062    3.935796
     73          6           0       -1.164058   -7.743926    2.796778
     74          1           0       -0.936171   -5.625400    2.457757
     75          6           0       -3.215119   -8.419399    3.882415
     76          1           0       -4.584466   -6.840442    4.385930
     77          6           0       -1.984284   -8.746970    3.311440
     78          1           0       -0.204637   -7.997023    2.353810
     79          1           0       -3.853862   -9.199860    4.286637
     80          1           0       -1.664336   -9.784693    3.270721
     81          6           0       -3.998717   -4.009294    5.091616
     82          6           0       -3.153719   -4.103123    6.204069
     83          6           0       -5.327193   -3.616699    5.269329
     84          6           0       -3.628820   -3.796528    7.475816
     85          1           0       -2.118084   -4.411546    6.077149
     86          6           0       -5.802791   -3.305591    6.543235
     87          1           0       -5.986018   -3.544677    4.409396
     88          6           0       -4.954461   -3.392360    7.645506
     89          1           0       -2.966396   -3.870069    8.334031
     90          1           0       -6.835956   -2.994804    6.672846
     91          1           0       -5.325086   -3.149369    8.637787
 ---------------------------------------------------------------------
 Rotational constants (GHZ):           0.0946128           0.0753224           0.0671696
 Leave Link  202 at Mon Sep  8 14:52:34 2025, MaxMem=  4294967296 cpu:               0.2 elap:               0.0
 (Enter /opt/packages/gaussian/g16RevC.01/g16/l301.exe)
 Standard basis: 6-311++G(d,p) (5D, 7F)
 Ernie: Thresh=  0.10000D-02 Tol=  0.10000D-05 Strict=F.
  1260 basis functions,  1940 primitive gaussians,  1301 cartesian basis functions
   157 alpha electrons      157 beta electrons
       nuclear repulsion energy      5708.2674274819 Hartrees.
 IExCor= 4639 DFT=T Ex+Corr=wB97XD ExCW=0 ScaHFX=  1.000000
 ScaDFX=  1.000000  1.000000  1.000000  1.000000 ScalE2=  1.000000  1.000000
 IRadAn=      5 IRanWt=     -1 IRanGd=            0 ICorTp=0 IEmpDi=121
 HFx  wShort=  0.000000 wLong=  0.200000 cFull=  0.222036 cShort=  0.000000 cLong=  0.777964
 DFx  wShort=  0.000000 wLong=  0.200000 cFull=  0.000000 cShort=  0.000000 cLong=  1.000000
 NAtoms=   91 NActive=   91 NUniq=   91 SFac= 1.00D+00 NAtFMM=   60 NAOKFM=T Big=T
 Integral buffers will be    131072 words long.
 Raffenetti 2 integral format.
 Two-electron integral symmetry is turned off.
 R6Disp:  Grimme-D2 Dispersion energy=       -0.1163762552 Hartrees.
 Nuclear repulsion after empirical dispersion term =     5708.1510512267 Hartrees.
 ------------------------------------------------------------------------------
 Polarizable Continuum Model (PCM)
 =================================
 Model                : PCM.
 Atomic radii         : SMD-Coulomb.
 Polarization charges : Total charges.
 Charge compensation  : None.
 Solution method      : On-the-fly selection.
 Cavity type          : VdW (van der Waals Surface) (Alpha=1.000).
 Cavity algorithm     : GePol (No added spheres)
                        Default sphere list used, NSphG=   91.
                        Lebedev-Laikov grids with approx.  5.0 points / Ang**2.
                        Smoothing algorithm: York/Karplus (Gamma=1.0000).
                        Polarization charges: spherical gaussians, with
                                              point-specific exponents (IZeta= 3).
                        Self-potential: point-specific (ISelfS= 7).
                        Self-field    : sphere-specific E.n sum rule (ISelfD= 2).
 Solvent              : TetraHydroFuran, Eps=   7.425700 Eps(inf)=   1.974025
 ------------------------------------------------------------------------------
 GePol: Number of generator spheres                  =      91
 GePol: Total number of spheres                      =      91
 GePol: Number of exposed spheres                    =      89 ( 97.80%)
 GePol: Number of points                             =    5482
 GePol: Average weight of points                     =       0.11
 GePol: Minimum weight of points                     =   0.20D-11
 GePol: Maximum weight of points                     =    0.17992
 GePol: Number of points with low weight             =     351
 GePol: Fraction of low-weight points (<1% of avg)   =       6.40%
 GePol: Cavity surface area                          =    590.120 Ang**2
 GePol: Cavity volume                                =    659.571 Ang**3
 ------------------------------------------------------------------------------
 Atomic radii for non-electrostatic terms: SMD-CDS.
 ------------------------------------------------------------------------------
 PCM non-electrostatic energy =        -0.0097177284 Hartrees.
 Nuclear repulsion after PCM non-electrostatic terms =     5708.1413334984 Hartrees.
 Leave Link  301 at Mon Sep  8 14:52:34 2025, MaxMem=  4294967296 cpu:               1.9 elap:               0.1
 (Enter /opt/packages/gaussian/g16RevC.01/g16/l302.exe)
 NPDir=0 NMtPBC=     1 NCelOv=     1 NCel=       1 NClECP=     1 NCelD=      1
         NCelK=      1 NCelE2=     1 NClLst=     1 CellRange=     0.0.
 One-electron integrals computed using PRISM.
 NBasis=  1260 RedAO= T EigKep=  1.08D-06  NBF=  1260
 NBsUse=  1251 1.00D-06 EigRej=  9.33D-07 NBFU=  1251
 Precomputing XC quadrature grid using
 IXCGrd= 4 IRadAn=           5 IRanWt=          -1 IRanGd=           0 AccXCQ= 0.00D+00.
 Generated NRdTot=       0 NPtTot=           0 NUsed=           0 NTot=          32
 NSgBfM=  1257  1252  1253  1254  1257 MxSgAt=    91 MxSgA2=    91.
 Leave Link  302 at Mon Sep  8 14:52:37 2025, MaxMem=  4294967296 cpu:              37.6 elap:               2.4
 (Enter /opt/packages/gaussian/g16RevC.01/g16/l303.exe)
 DipDrv:  MaxL=1.
 Leave Link  303 at Mon Sep  8 14:52:37 2025, MaxMem=  4294967296 cpu:               3.0 elap:               0.3
 (Enter /opt/packages/gaussian/g16RevC.01/g16/l401.exe)
 ExpMin= 7.40D-03 ExpMax= 7.75D+04 ExpMxC= 2.65D+03 IAcc=3 IRadAn=         5 AccDes= 0.00D+00
 Harris functional with IExCor= 4639 and IRadAn=       5 diagonalized for initial guess.
 HarFok:  IExCor= 4639 AccDes= 0.00D+00 IRadAn=         5 IDoV= 1 UseB2=F ITyADJ=14
 ICtDFT=  3500011 ScaDFX=  1.000000  1.000000  1.000000  1.000000
 FoFCou: FMM=F IPFlag=           0 FMFlag=      100000 FMFlg1=        2001
         NFxFlg=           0 DoJE=T BraDBF=F KetDBF=T FulRan=T
         wScrn=  0.000000 ICntrl=       500 IOpCl=  0 I1Cent=   200000004 NGrid=           0
         NMat0=    1 NMatS0=      1 NMatT0=    0 NMatD0=    1 NMtDS0=    0 NMtDT0=    0
 Symmetry not used in FoFCou.
 Harris En= -2007.29142403086    
 JPrj=0 DoOrth=F DoCkMO=F.
 Leave Link  401 at Mon Sep  8 14:52:45 2025, MaxMem=  4294967296 cpu:             128.5 elap:               8.1
 (Enter /opt/packages/gaussian/g16RevC.01/g16/l502.exe)
 Two-electron integral symmetry not used.
 Closed shell SCF:
 Using DIIS extrapolation, IDIIS=  1040.
 NGot=  4294967296 LenX=  4291549693 LenY=  4289855791
 Requested convergence on RMS density matrix=1.00D-08 within 128 cycles.
 Requested convergence on MAX density matrix=1.00D-06.
 Requested convergence on             energy=1.00D-06.
 No special actions if energy rises.
 Fock matrices will be formed incrementally for  20 cycles.

 Cycle   1  Pass 1  IDiag  1:
 FoFJK:  IHMeth= 1 ICntrl=       0 DoSepK=T KAlg= 0 I1Cent=           0 FoldK=F
 IRaf=         1 NMat=       1 IRICut=       1 DoRegI=T DoRafI=F ISym2E= 0 IDoP0=0 IntGTp=1.
 FoFCou: FMM=T IPFlag=           0 FMFlag=      100000 FMFlg1=        2001
         NFxFlg=           0 DoJE=T BraDBF=F KetDBF=F FulRan=T
         wScrn=  0.000000 ICntrl=       500 IOpCl=  0 I1Cent=           0 NGrid=           0
         NMat0=    1 NMatS0=      1 NMatT0=    0 NMatD0=    1 NMtDS0=    0 NMtDT0=    0
 Symmetry not used in FoFCou.
 FMM levels:  10  Number of levels for PrismC:   9
 Inv3:  Mode=1 IEnd=    90156972.
 Iteration    1 A*A^-1 deviation from unit magnitude is 3.33D-15 for   4733.
 Iteration    1 A*A^-1 deviation from orthogonality  is 3.34D-15 for   2022    364.
 Iteration    1 A^-1*A deviation from unit magnitude is 3.22D-15 for   1444.
 Iteration    1 A^-1*A deviation from orthogonality  is 2.96D-14 for   4822   4729.
 E= -2090.67399589221    
 DIIS: error= 4.72D-02 at cycle   1 NSaved=   1.
 NSaved= 1 IEnMin= 1 EnMin= -2090.67399589221     IErMin= 1 ErrMin= 4.72D-02
 ErrMax= 4.72D-02  0.00D+00 EMaxC= 1.00D-01 BMatC= 4.74D+00 BMatP= 4.74D+00
 IDIUse=3 WtCom= 5.28D-01 WtEn= 4.72D-01
 Coeff-Com:  0.100D+01
 Coeff-En:   0.100D+01
 Coeff:      0.100D+01
 Gap=     0.333 Goal=   None    Shift=    0.000
 GapD=    0.333 DampG=1.000 DampE=0.500 DampFc=0.5000 IDamp=-1.
 Damping current iteration by 5.00D-01
 RMSDP=1.87D-02 MaxDP=4.41D+00              OVMax= 2.96D-01

 Cycle   2  Pass 1  IDiag  1:
 RMSU=  7.01D-03    CP:  8.93D-01
 E= -2090.99649536951     Delta-E=       -0.322499477303 Rises=F Damp=T
 DIIS: error= 2.15D-02 at cycle   2 NSaved=   2.
 NSaved= 2 IEnMin= 2 EnMin= -2090.99649536951     IErMin= 2 ErrMin= 2.15D-02
 ErrMax= 2.15D-02  0.00D+00 EMaxC= 1.00D-01 BMatC= 9.31D-01 BMatP= 4.74D+00
 IDIUse=3 WtCom= 7.85D-01 WtEn= 2.15D-01
 Coeff-Com: -0.581D+00 0.158D+01
 Coeff-En:   0.000D+00 0.100D+01
 Coeff:     -0.456D+00 0.146D+01
 Gap=     0.404 Goal=   None    Shift=    0.000
 RMSDP=1.26D-02 MaxDP=3.24D+00 DE=-3.22D-01 OVMax= 2.45D-01

 Cycle   3  Pass 1  IDiag  1:
 RMSU=  9.32D-03    CP:  7.54D-01  6.19D-01
 E= -2091.13969546907     Delta-E=       -0.143200099558 Rises=F Damp=F
 DIIS: error= 7.10D-03 at cycle   3 NSaved=   3.
 NSaved= 3 IEnMin= 3 EnMin= -2091.13969546907     IErMin= 3 ErrMin= 7.10D-03
 ErrMax= 7.10D-03  0.00D+00 EMaxC= 1.00D-01 BMatC= 2.81D-01 BMatP= 9.31D-01
 IDIUse=3 WtCom= 9.29D-01 WtEn= 7.10D-02
 Coeff-Com: -0.356D+00 0.804D+00 0.552D+00
 Coeff-En:   0.000D+00 0.122D+00 0.878D+00
 Coeff:     -0.331D+00 0.755D+00 0.575D+00
 Gap=     0.365 Goal=   None    Shift=    0.000
 RMSDP=7.93D-03 MaxDP=1.61D+00 DE=-1.43D-01 OVMax= 1.38D-01

 Cycle   4  Pass 1  IDiag  1:
 RMSU=  2.67D-03    CP:  7.06D-01  1.21D+00  4.04D-01
 E= -2091.34575901345     Delta-E=       -0.206063544387 Rises=F Damp=F
 DIIS: error= 2.75D-03 at cycle   4 NSaved=   4.
 NSaved= 4 IEnMin= 4 EnMin= -2091.34575901345     IErMin= 4 ErrMin= 2.75D-03
 ErrMax= 2.75D-03  0.00D+00 EMaxC= 1.00D-01 BMatC= 2.27D-02 BMatP= 2.81D-01
 IDIUse=3 WtCom= 9.72D-01 WtEn= 2.75D-02
 Coeff-Com: -0.145D+00 0.314D+00 0.305D+00 0.525D+00
 Coeff-En:   0.000D+00 0.000D+00 0.000D+00 0.100D+01
 Coeff:     -0.141D+00 0.306D+00 0.297D+00 0.538D+00
 Gap=     0.286 Goal=   None    Shift=    0.000
 RMSDP=2.36D-03 MaxDP=4.26D-01 DE=-2.06D-01 OVMax= 4.33D-02

 Cycle   5  Pass 1  IDiag  1:
 RMSU=  1.23D-03    CP:  7.23D-01  1.16D+00  5.71D-01  7.49D-01
 E= -2091.36081204711     Delta-E=       -0.015053033651 Rises=F Damp=F
 DIIS: error= 6.81D-04 at cycle   5 NSaved=   5.
 NSaved= 5 IEnMin= 5 EnMin= -2091.36081204711     IErMin= 5 ErrMin= 6.81D-04
 ErrMax= 6.81D-04  0.00D+00 EMaxC= 1.00D-01 BMatC= 1.57D-03 BMatP= 2.27D-02
 IDIUse=3 WtCom= 9.93D-01 WtEn= 6.81D-03
 Coeff-Com: -0.365D-01 0.770D-01 0.916D-01 0.267D+00 0.601D+00
 Coeff-En:   0.000D+00 0.000D+00 0.000D+00 0.000D+00 0.100D+01
 Coeff:     -0.363D-01 0.765D-01 0.910D-01 0.265D+00 0.603D+00
 Gap=     0.288 Goal=   None    Shift=    0.000
 RMSDP=6.20D-04 MaxDP=9.89D-02 DE=-1.51D-02 OVMax= 5.79D-03

 Cycle   6  Pass 1  IDiag  1:
 RMSU=  3.23D-04    CP:  7.21D-01  1.18D+00  5.49D-01  8.11D-01  6.66D-01
 E= -2091.36196953045     Delta-E=       -0.001157483343 Rises=F Damp=F
 DIIS: error= 2.06D-04 at cycle   6 NSaved=   6.
 NSaved= 6 IEnMin= 6 EnMin= -2091.36196953045     IErMin= 6 ErrMin= 2.06D-04
 ErrMax= 2.06D-04  0.00D+00 EMaxC= 1.00D-01 BMatC= 1.45D-04 BMatP= 1.57D-03
 IDIUse=3 WtCom= 9.98D-01 WtEn= 2.06D-03
 Coeff-Com:  0.110D-01-0.245D-01-0.218D-01 0.824D-03 0.238D+00 0.796D+00
 Coeff-En:   0.000D+00 0.000D+00 0.000D+00 0.000D+00 0.000D+00 0.100D+01
 Coeff:      0.110D-01-0.244D-01-0.218D-01 0.822D-03 0.238D+00 0.797D+00
 Gap=     0.289 Goal=   None    Shift=    0.000
 RMSDP=2.17D-04 MaxDP=5.43D-02 DE=-1.16D-03 OVMax= 5.50D-03

 Cycle   7  Pass 1  IDiag  1:
 RMSU=  1.56D-04    CP:  7.20D-01  1.18D+00  5.53D-01  8.37D-01  7.65D-01
                    CP:  1.07D+00
 E= -2091.36214291704     Delta-E=       -0.000173386587 Rises=F Damp=F
 DIIS: error= 5.49D-05 at cycle   7 NSaved=   7.
 NSaved= 7 IEnMin= 7 EnMin= -2091.36214291704     IErMin= 7 ErrMin= 5.49D-05
 ErrMax= 5.49D-05  0.00D+00 EMaxC= 1.00D-01 BMatC= 1.24D-05 BMatP= 1.45D-04
 IDIUse=1 WtCom= 1.00D+00 WtEn= 0.00D+00
 Coeff-Com:  0.688D-02-0.148D-01-0.178D-01-0.284D-01 0.103D-01 0.258D+00
 Coeff-Com:  0.786D+00
 Coeff:      0.688D-02-0.148D-01-0.178D-01-0.284D-01 0.103D-01 0.258D+00
 Coeff:      0.786D+00
 Gap=     0.290 Goal=   None    Shift=    0.000
 RMSDP=8.27D-05 MaxDP=1.93D-02 DE=-1.73D-04 OVMax= 2.45D-03

 Cycle   8  Pass 1  IDiag  1:
 RMSU=  4.48D-05    CP:  7.21D-01  1.18D+00  5.51D-01  8.41D-01  7.80D-01
                    CP:  1.18D+00  1.11D+00
 E= -2091.36216754489     Delta-E=       -0.000024627858 Rises=F Damp=F
 DIIS: error= 2.70D-05 at cycle   8 NSaved=   8.
 NSaved= 8 IEnMin= 8 EnMin= -2091.36216754489     IErMin= 8 ErrMin= 2.70D-05
 ErrMax= 2.70D-05  0.00D+00 EMaxC= 1.00D-01 BMatC= 2.16D-06 BMatP= 1.24D-05
 IDIUse=1 WtCom= 1.00D+00 WtEn= 0.00D+00
 Coeff-Com:  0.131D-02-0.271D-02-0.466D-02-0.101D-01-0.306D-01-0.155D-01
 Coeff-Com:  0.250D+00 0.812D+00
 Coeff:      0.131D-02-0.271D-02-0.466D-02-0.101D-01-0.306D-01-0.155D-01
 Coeff:      0.250D+00 0.812D+00
 Gap=     0.289 Goal=   None    Shift=    0.000
 RMSDP=4.12D-05 MaxDP=8.88D-03 DE=-2.46D-05 OVMax= 1.20D-03

 Cycle   9  Pass 1  IDiag  1:
 RMSU=  2.24D-05    CP:  7.21D-01  1.19D+00  5.50D-01  8.44D-01  7.80D-01
                    CP:  1.21D+00  1.22D+00  1.22D+00
 E= -2091.36217246693     Delta-E=       -0.000004922035 Rises=F Damp=F
 DIIS: error= 1.11D-05 at cycle   9 NSaved=   9.
 NSaved= 9 IEnMin= 9 EnMin= -2091.36217246693     IErMin= 9 ErrMin= 1.11D-05
 ErrMax= 1.11D-05  0.00D+00 EMaxC= 1.00D-01 BMatC= 4.64D-07 BMatP= 2.16D-06
 IDIUse=1 WtCom= 1.00D+00 WtEn= 0.00D+00
 Coeff-Com: -0.105D-02 0.228D-02 0.191D-02 0.333D-02-0.146D-01-0.630D-01
 Coeff-Com: -0.684D-01 0.315D+00 0.825D+00
 Coeff:     -0.105D-02 0.228D-02 0.191D-02 0.333D-02-0.146D-01-0.630D-01
 Coeff:     -0.684D-01 0.315D+00 0.825D+00
 Gap=     0.289 Goal=   None    Shift=    0.000
 RMSDP=2.22D-05 MaxDP=3.78D-03 DE=-4.92D-06 OVMax= 7.68D-04

 Cycle  10  Pass 1  IDiag  1:
 RMSU=  9.30D-06    CP:  7.21D-01  1.19D+00  5.48D-01  8.44D-01  7.74D-01
                    CP:  1.22D+00  1.25D+00  1.47D+00  1.32D+00
 E= -2091.36217354138     Delta-E=       -0.000001074450 Rises=F Damp=F
 DIIS: error= 3.72D-06 at cycle  10 NSaved=  10.
 NSaved=10 IEnMin=10 EnMin= -2091.36217354138     IErMin=10 ErrMin= 3.72D-06
 ErrMax= 3.72D-06  0.00D+00 EMaxC= 1.00D-01 BMatC= 6.69D-08 BMatP= 4.64D-07
 IDIUse=1 WtCom= 1.00D+00 WtEn= 0.00D+00
 Coeff-Com: -0.309D-03 0.654D-03 0.693D-03 0.196D-02 0.903D-03-0.860D-02
 Coeff-Com: -0.471D-01-0.694D-01 0.226D+00 0.895D+00
 Coeff:     -0.309D-03 0.654D-03 0.693D-03 0.196D-02 0.903D-03-0.860D-02
 Coeff:     -0.471D-01-0.694D-01 0.226D+00 0.895D+00
 Gap=     0.289 Goal=   None    Shift=    0.000
 RMSDP=1.08D-05 MaxDP=1.42D-03 DE=-1.07D-06 OVMax= 2.63D-04

 Cycle  11  Pass 1  IDiag  1:
 RMSU=  3.73D-06    CP:  7.21D-01  1.19D+00  5.48D-01  8.45D-01  7.72D-01
                    CP:  1.22D+00  1.26D+00  1.58D+00  1.51D+00  1.23D+00
 E= -2091.36217368934     Delta-E=       -0.000000147963 Rises=F Damp=F
 DIIS: error= 2.48D-06 at cycle  11 NSaved=  11.
 NSaved=11 IEnMin=11 EnMin= -2091.36217368934     IErMin=11 ErrMin= 2.48D-06
 ErrMax= 2.48D-06  0.00D+00 EMaxC= 1.00D-01 BMatC= 1.27D-08 BMatP= 6.69D-08
 IDIUse=1 WtCom= 1.00D+00 WtEn= 0.00D+00
 Coeff-Com:  0.785D-04-0.177D-03-0.164D-03 0.180D-03 0.310D-02 0.107D-01
 Coeff-Com: -0.986D-03-0.891D-01-0.594D-01 0.331D+00 0.804D+00
 Coeff:      0.785D-04-0.177D-03-0.164D-03 0.180D-03 0.310D-02 0.107D-01
 Coeff:     -0.986D-03-0.891D-01-0.594D-01 0.331D+00 0.804D+00
 Gap=     0.289 Goal=   None    Shift=    0.000
 RMSDP=4.13D-06 MaxDP=5.08D-04 DE=-1.48D-07 OVMax= 9.02D-05

 Cycle  12  Pass 1  IDiag  1:
 RMSU=  1.52D-06    CP:  7.21D-01  1.19D+00  5.48D-01  8.45D-01  7.71D-01
                    CP:  1.22D+00  1.25D+00  1.60D+00  1.60D+00  1.33D+00
                    CP:  9.76D-01
 E= -2091.36217371276     Delta-E=       -0.000000023415 Rises=F Damp=F
 DIIS: error= 6.97D-07 at cycle  12 NSaved=  12.
 NSaved=12 IEnMin=12 EnMin= -2091.36217371276     IErMin=12 ErrMin= 6.97D-07
 ErrMax= 6.97D-07  0.00D+00 EMaxC= 1.00D-01 BMatC= 1.50D-09 BMatP= 1.27D-08
 IDIUse=1 WtCom= 1.00D+00 WtEn= 0.00D+00
 Coeff-Com:  0.700D-04-0.152D-03-0.166D-03-0.169D-03 0.679D-03 0.456D-02
 Coeff-Com:  0.543D-02-0.204D-01-0.418D-01-0.916D-02 0.217D+00 0.844D+00
 Coeff:      0.700D-04-0.152D-03-0.166D-03-0.169D-03 0.679D-03 0.456D-02
 Coeff:      0.543D-02-0.204D-01-0.418D-01-0.916D-02 0.217D+00 0.844D+00
 Gap=     0.289 Goal=   None    Shift=    0.000
 RMSDP=1.46D-06 MaxDP=2.58D-04 DE=-2.34D-08 OVMax= 3.40D-05

 Cycle  13  Pass 1  IDiag  1:
 RMSU=  6.15D-07    CP:  7.21D-01  1.19D+00  5.48D-01  8.44D-01  7.70D-01
                    CP:  1.22D+00  1.25D+00  1.60D+00  1.62D+00  1.36D+00
                    CP:  1.03D+00  1.34D+00
 E= -2091.36217371596     Delta-E=       -0.000000003207 Rises=F Damp=F
 DIIS: error= 3.23D-07 at cycle  13 NSaved=  13.
 NSaved=13 IEnMin=13 EnMin= -2091.36217371596     IErMin=13 ErrMin= 3.23D-07
 ErrMax= 3.23D-07  0.00D+00 EMaxC= 1.00D-01 BMatC= 3.64D-10 BMatP= 1.50D-09
 IDIUse=1 WtCom= 1.00D+00 WtEn= 0.00D+00
 Coeff-Com:  0.142D-04-0.298D-04-0.381D-04-0.768D-04-0.330D-03-0.114D-03
 Coeff-Com:  0.230D-02 0.761D-02-0.503D-02-0.690D-01-0.788D-01 0.355D+00
 Coeff-Com:  0.788D+00
 Coeff:      0.142D-04-0.298D-04-0.381D-04-0.768D-04-0.330D-03-0.114D-03
 Coeff:      0.230D-02 0.761D-02-0.503D-02-0.690D-01-0.788D-01 0.355D+00
 Coeff:      0.788D+00
 Gap=     0.289 Goal=   None    Shift=    0.000
 RMSDP=6.24D-07 MaxDP=9.23D-05 DE=-3.21D-09 OVMax= 1.61D-05

 Cycle  14  Pass 1  IDiag  1:
 RMSU=  2.54D-07    CP:  7.21D-01  1.19D+00  5.47D-01  8.45D-01  7.70D-01
                    CP:  1.22D+00  1.25D+00  1.60D+00  1.63D+00  1.38D+00
                    CP:  1.08D+00  1.46D+00  8.93D-01
 E= -2091.36217371649     Delta-E=       -0.000000000523 Rises=F Damp=F
 DIIS: error= 1.08D-07 at cycle  14 NSaved=  14.
 NSaved=14 IEnMin=14 EnMin= -2091.36217371649     IErMin=14 ErrMin= 1.08D-07
 ErrMax= 1.08D-07  0.00D+00 EMaxC= 1.00D-01 BMatC= 4.82D-11 BMatP= 3.64D-10
 IDIUse=1 WtCom= 1.00D+00 WtEn= 0.00D+00
 Coeff-Com: -0.114D-05 0.324D-05 0.215D-07-0.183D-04-0.256D-03-0.640D-03
 Coeff-Com:  0.406D-03 0.592D-02 0.428D-02-0.290D-01-0.673D-01 0.374D-01
 Coeff-Com:  0.342D+00 0.707D+00
 Coeff:     -0.114D-05 0.324D-05 0.215D-07-0.183D-04-0.256D-03-0.640D-03
 Coeff:      0.406D-03 0.592D-02 0.428D-02-0.290D-01-0.673D-01 0.374D-01
 Coeff:      0.342D+00 0.707D+00
 Gap=     0.289 Goal=   None    Shift=    0.000
 RMSDP=1.79D-07 MaxDP=3.37D-05 DE=-5.23D-10 OVMax= 4.97D-06

 Cycle  15  Pass 1  IDiag  1:
 RMSU=  7.95D-08    CP:  7.21D-01  1.19D+00  5.47D-01  8.45D-01  7.70D-01
                    CP:  1.22D+00  1.25D+00  1.60D+00  1.63D+00  1.38D+00
                    CP:  1.07D+00  1.53D+00  1.01D+00  1.05D+00
 E= -2091.36217371660     Delta-E=       -0.000000000114 Rises=F Damp=F
 DIIS: error= 5.74D-08 at cycle  15 NSaved=  15.
 NSaved=15 IEnMin=15 EnMin= -2091.36217371660     IErMin=15 ErrMin= 5.74D-08
 ErrMax= 5.74D-08  0.00D+00 EMaxC= 1.00D-01 BMatC= 4.58D-12 BMatP= 4.82D-11
 IDIUse=1 WtCom= 1.00D+00 WtEn= 0.00D+00
 Coeff-Com: -0.212D-05 0.452D-05 0.518D-05 0.669D-05-0.375D-05-0.104D-03
 Coeff-Com: -0.267D-03-0.277D-03 0.187D-02 0.391D-02-0.374D-02-0.475D-01
 Coeff-Com: -0.417D-01 0.153D+00 0.935D+00
 Coeff:     -0.212D-05 0.452D-05 0.518D-05 0.669D-05-0.375D-05-0.104D-03
 Coeff:     -0.267D-03-0.277D-03 0.187D-02 0.391D-02-0.374D-02-0.475D-01
 Coeff:     -0.417D-01 0.153D+00 0.935D+00
 Gap=     0.289 Goal=   None    Shift=    0.000
 RMSDP=8.03D-08 MaxDP=1.75D-05 DE=-1.14D-10 OVMax= 2.16D-06

 Cycle  16  Pass 1  IDiag  1:
 RMSU=  2.79D-08    CP:  7.21D-01  1.19D+00  5.47D-01  8.45D-01  7.70D-01
                    CP:  1.22D+00  1.25D+00  1.60D+00  1.63D+00  1.37D+00
                    CP:  1.07D+00  1.54D+00  1.02D+00  1.19D+00  1.24D+00
 E= -2091.36217371666     Delta-E=       -0.000000000058 Rises=F Damp=F
 DIIS: error= 2.35D-08 at cycle  16 NSaved=  16.
 NSaved=16 IEnMin=16 EnMin= -2091.36217371666     IErMin=16 ErrMin= 2.35D-08
 ErrMax= 2.35D-08  0.00D+00 EMaxC= 1.00D-01 BMatC= 8.70D-13 BMatP= 4.58D-12
 IDIUse=1 WtCom= 1.00D+00 WtEn= 0.00D+00
 Coeff-Com: -0.646D-06 0.125D-05 0.162D-05 0.555D-05 0.353D-04 0.585D-04
 Coeff-Com: -0.130D-03-0.877D-03 0.273D-03 0.560D-02 0.778D-02-0.208D-01
 Coeff-Com: -0.612D-01-0.505D-01 0.309D+00 0.811D+00
 Coeff:     -0.646D-06 0.125D-05 0.162D-05 0.555D-05 0.353D-04 0.585D-04
 Coeff:     -0.130D-03-0.877D-03 0.273D-03 0.560D-02 0.778D-02-0.208D-01
 Coeff:     -0.612D-01-0.505D-01 0.309D+00 0.811D+00
 Gap=     0.289 Goal=   None    Shift=    0.000
 RMSDP=3.23D-08 MaxDP=4.19D-06 DE=-5.82D-11 OVMax= 5.24D-07

 Cycle  17  Pass 1  IDiag  1:
 RMSU=  1.24D-08    CP:  7.21D-01  1.19D+00  5.47D-01  8.45D-01  7.70D-01
                    CP:  1.22D+00  1.25D+00  1.60D+00  1.63D+00  1.37D+00
                    CP:  1.07D+00  1.54D+00  1.03D+00  1.23D+00  1.38D+00
                    CP:  1.18D+00
 E= -2091.36217371670     Delta-E=       -0.000000000039 Rises=F Damp=F
 DIIS: error= 9.86D-09 at cycle  17 NSaved=  17.
 NSaved=17 IEnMin=17 EnMin= -2091.36217371670     IErMin=17 ErrMin= 9.86D-09
 ErrMax= 9.86D-09  0.00D+00 EMaxC= 1.00D-01 BMatC= 1.71D-13 BMatP= 8.70D-13
 IDIUse=1 WtCom= 1.00D+00 WtEn= 0.00D+00
 Coeff-Com:  0.122D-06-0.287D-06-0.362D-06 0.116D-05 0.114D-04 0.334D-04
 Coeff-Com: -0.281D-05-0.223D-03-0.222D-03 0.108D-02 0.279D-02 0.215D-02
 Coeff-Com: -0.117D-01-0.411D-01-0.772D-01 0.279D+00 0.845D+00
 Coeff:      0.122D-06-0.287D-06-0.362D-06 0.116D-05 0.114D-04 0.334D-04
 Coeff:     -0.281D-05-0.223D-03-0.222D-03 0.108D-02 0.279D-02 0.215D-02
 Coeff:     -0.117D-01-0.411D-01-0.772D-01 0.279D+00 0.845D+00
 Gap=     0.289 Goal=   None    Shift=    0.000
 RMSDP=9.82D-09 MaxDP=8.78D-07 DE=-3.91D-11 OVMax= 2.38D-07

 Error on total polarization charges =  0.07731
 SCF Done:  E(RwB97XD) =  -2091.36217372     A.U. after   17 cycles
            NFock= 17  Conv=0.98D-08     -V/T= 2.0040
 KE= 2.083032887797D+03 PE=-1.631026633687D+04 EE= 6.427729941856D+03
 SMD-CDS (non-electrostatic) energy       (kcal/mol) =      -6.10
 (included in total energy above)
 Leave Link  502 at Mon Sep  8 15:24:05 2025, MaxMem=  4294967296 cpu:           29553.9 elap:            1879.7
 (Enter /opt/packages/gaussian/g16RevC.01/g16/l601.exe)
 Copying SCF densities to generalized density rwf, IOpCl= 0 IROHF=0.

 **********************************************************************

            Population analysis using the SCF Density.

 **********************************************************************

 Alpha  occ. eigenvalues --  -77.29269 -19.26132 -19.25419 -19.23551 -19.20728
 Alpha  occ. eigenvalues --  -19.19744 -19.18026 -14.48316 -10.32550 -10.32396
 Alpha  occ. eigenvalues --  -10.32180 -10.32004 -10.31957 -10.31382 -10.29782
 Alpha  occ. eigenvalues --  -10.29764 -10.29709 -10.29664 -10.29576 -10.29556
 Alpha  occ. eigenvalues --  -10.29537 -10.29442 -10.29335 -10.29256 -10.29225
 Alpha  occ. eigenvalues --  -10.29192 -10.27889 -10.27874 -10.27866 -10.27781
 Alpha  occ. eigenvalues --  -10.27554 -10.26448 -10.25984 -10.25727 -10.25208
 Alpha  occ. eigenvalues --  -10.25099 -10.24979 -10.24874 -10.21274  -6.81420
 Alpha  occ. eigenvalues --   -6.73657  -4.88422  -4.88321  -4.88284  -1.99471
 Alpha  occ. eigenvalues --   -1.15146  -1.14229  -1.11128  -1.10754  -1.04895
 Alpha  occ. eigenvalues --   -1.04160  -0.96653  -0.96369  -0.94464  -0.88420
 Alpha  occ. eigenvalues --   -0.88009  -0.87917  -0.87125  -0.86194  -0.85265
 Alpha  occ. eigenvalues --   -0.85204  -0.85003  -0.83895  -0.83381  -0.82174
 Alpha  occ. eigenvalues --   -0.80635  -0.78075  -0.75398  -0.75321  -0.73274
 Alpha  occ. eigenvalues --   -0.72773  -0.70546  -0.70349  -0.69738  -0.69120
 Alpha  occ. eigenvalues --   -0.68927  -0.68553  -0.68407  -0.68264  -0.64920
 Alpha  occ. eigenvalues --   -0.61759  -0.61252  -0.60909  -0.60751  -0.59724
 Alpha  occ. eigenvalues --   -0.59229  -0.58572  -0.58240  -0.57868  -0.57595
 Alpha  occ. eigenvalues --   -0.55265  -0.54793  -0.54650  -0.54489  -0.53931
 Alpha  occ. eigenvalues --   -0.53470  -0.53164  -0.52621  -0.52250  -0.52046
 Alpha  occ. eigenvalues --   -0.51431  -0.51334  -0.51265  -0.50931  -0.50802
 Alpha  occ. eigenvalues --   -0.50330  -0.50004  -0.49973  -0.48823  -0.48588
 Alpha  occ. eigenvalues --   -0.48567  -0.48228  -0.47529  -0.46976  -0.46738
 Alpha  occ. eigenvalues --   -0.46588  -0.46405  -0.46218  -0.45944  -0.45531
 Alpha  occ. eigenvalues --   -0.44899  -0.44734  -0.44377  -0.44084  -0.43941
 Alpha  occ. eigenvalues --   -0.43702  -0.43365  -0.43239  -0.42926  -0.42861
 Alpha  occ. eigenvalues --   -0.42621  -0.42473  -0.42266  -0.42126  -0.41628
 Alpha  occ. eigenvalues --   -0.41344  -0.41239  -0.41126  -0.40979  -0.40584
 Alpha  occ. eigenvalues --   -0.40355  -0.39011  -0.38655  -0.38016  -0.37379
 Alpha  occ. eigenvalues --   -0.36554  -0.35669  -0.35250  -0.34869  -0.34451
 Alpha  occ. eigenvalues --   -0.34115  -0.33771  -0.33728  -0.33032  -0.31407
 Alpha  occ. eigenvalues --   -0.28989  -0.27595
 Alpha virt. eigenvalues --    0.01346   0.02298   0.02522   0.02656   0.02717
 Alpha virt. eigenvalues --    0.03195   0.04436   0.04580   0.05315   0.05464
 Alpha virt. eigenvalues --    0.05638   0.05749   0.05865   0.06221   0.06810
 Alpha virt. eigenvalues --    0.06941   0.07033   0.07125   0.07265   0.07557
 Alpha virt. eigenvalues --    0.07579   0.07716   0.07850   0.08076   0.08176
 Alpha virt. eigenvalues --    0.08686   0.08766   0.08995   0.09319   0.09475
 Alpha virt. eigenvalues --    0.09702   0.10033   0.10076   0.10515   0.10757
 Alpha virt. eigenvalues --    0.10846   0.11101   0.11186   0.11570   0.11736
 Alpha virt. eigenvalues --    0.12135   0.12262   0.12701   0.12768   0.12863
 Alpha virt. eigenvalues --    0.13182   0.13335   0.13693   0.14126   0.14176
 Alpha virt. eigenvalues --    0.14543   0.14609   0.14737   0.14901   0.15076
 Alpha virt. eigenvalues --    0.15212   0.15370   0.15478   0.15866   0.15921
 Alpha virt. eigenvalues --    0.16118   0.16355   0.16444   0.16717   0.16770
 Alpha virt. eigenvalues --    0.16952   0.17095   0.17261   0.17330   0.17483
 Alpha virt. eigenvalues --    0.17572   0.17721   0.17964   0.17988   0.18163
 Alpha virt. eigenvalues --    0.18323   0.18361   0.18452   0.18654   0.18746
 Alpha virt. eigenvalues --    0.18961   0.19077   0.19246   0.19415   0.19568
 Alpha virt. eigenvalues --    0.19635   0.19905   0.19963   0.20142   0.20182
 Alpha virt. eigenvalues --    0.20263   0.20493   0.20517   0.20643   0.20849
 Alpha virt. eigenvalues --    0.20927   0.21057   0.21120   0.21277   0.21324
 Alpha virt. eigenvalues --    0.21520   0.21597   0.21794   0.21845   0.22026
 Alpha virt. eigenvalues --    0.22066   0.22424   0.22521   0.22636   0.22747
 Alpha virt. eigenvalues --    0.23048   0.23103   0.23225   0.23343   0.23441
 Alpha virt. eigenvalues --    0.23657   0.23756   0.23908   0.24091   0.24118
 Alpha virt. eigenvalues --    0.24274   0.24511   0.24552   0.24676   0.24820
 Alpha virt. eigenvalues --    0.25019   0.25091   0.25303   0.25384   0.25599
 Alpha virt. eigenvalues --    0.25633   0.25733   0.25878   0.26047   0.26214
 Alpha virt. eigenvalues --    0.26222   0.26295   0.26374   0.26618   0.26658
 Alpha virt. eigenvalues --    0.26723   0.27057   0.27103   0.27241   0.27421
 Alpha virt. eigenvalues --    0.27470   0.27717   0.27769   0.28106   0.28247
 Alpha virt. eigenvalues --    0.28302   0.28538   0.28669   0.28818   0.29028
 Alpha virt. eigenvalues --    0.29245   0.29390   0.29554   0.29713   0.29835
 Alpha virt. eigenvalues --    0.30010   0.30212   0.30289   0.30323   0.30544
 Alpha virt. eigenvalues --    0.30683   0.30878   0.31037   0.31152   0.31202
 Alpha virt. eigenvalues --    0.31385   0.31477   0.31613   0.31716   0.31870
 Alpha virt. eigenvalues --    0.31958   0.32292   0.32366   0.32498   0.32713
 Alpha virt. eigenvalues --    0.32844   0.33002   0.33135   0.33280   0.33365
 Alpha virt. eigenvalues --    0.33951   0.34001   0.34177   0.34323   0.34486
 Alpha virt. eigenvalues --    0.34620   0.34825   0.35122   0.35248   0.35283
 Alpha virt. eigenvalues --    0.35405   0.35464   0.35712   0.36002   0.36219
 Alpha virt. eigenvalues --    0.36287   0.36442   0.36724   0.36923   0.37172
 Alpha virt. eigenvalues --    0.37312   0.37390   0.37617   0.37776   0.37837
 Alpha virt. eigenvalues --    0.38117   0.38344   0.38492   0.38662   0.38882
 Alpha virt. eigenvalues --    0.38944   0.39092   0.39240   0.39329   0.39452
 Alpha virt. eigenvalues --    0.39683   0.39881   0.40005   0.40357   0.40543
 Alpha virt. eigenvalues --    0.40558   0.40850   0.40894   0.41236   0.41344
 Alpha virt. eigenvalues --    0.41540   0.41772   0.41835   0.41983   0.42133
 Alpha virt. eigenvalues --    0.42312   0.42533   0.42638   0.43128   0.43357
 Alpha virt. eigenvalues --    0.43425   0.43482   0.43621   0.44016   0.44136
 Alpha virt. eigenvalues --    0.44417   0.44555   0.44765   0.45164   0.45296
 Alpha virt. eigenvalues --    0.45643   0.45810   0.45860   0.46131   0.46272
 Alpha virt. eigenvalues --    0.46402   0.46787   0.47041   0.47133   0.47470
 Alpha virt. eigenvalues --    0.47631   0.47834   0.48087   0.48354   0.48399
 Alpha virt. eigenvalues --    0.48631   0.48892   0.49064   0.49632   0.49637
 Alpha virt. eigenvalues --    0.49884   0.50337   0.50638   0.51037   0.51186
 Alpha virt. eigenvalues --    0.51428   0.52172   0.52317   0.52759   0.53043
 Alpha virt. eigenvalues --    0.53426   0.53799   0.54126   0.54335   0.54753
 Alpha virt. eigenvalues --    0.54908   0.55088   0.55366   0.55850   0.56279
 Alpha virt. eigenvalues --    0.56713   0.56942   0.57126   0.57944   0.58194
 Alpha virt. eigenvalues --    0.58351   0.58617   0.58976   0.59196   0.59623
 Alpha virt. eigenvalues --    0.60607   0.60787   0.61003   0.61454   0.61957
 Alpha virt. eigenvalues --    0.62196   0.62371   0.62622   0.63204   0.63668
 Alpha virt. eigenvalues --    0.63775   0.64015   0.64165   0.64324   0.64603
 Alpha virt. eigenvalues --    0.64760   0.65011   0.65460   0.65736   0.65784
 Alpha virt. eigenvalues --    0.66187   0.66282   0.66500   0.67001   0.67153
 Alpha virt. eigenvalues --    0.67475   0.67792   0.68060   0.68462   0.68939
 Alpha virt. eigenvalues --    0.69125   0.69199   0.69493   0.69674   0.69832
 Alpha virt. eigenvalues --    0.70384   0.70524   0.70742   0.70925   0.71212
 Alpha virt. eigenvalues --    0.71304   0.71672   0.71891   0.72037   0.72333
 Alpha virt. eigenvalues --    0.72586   0.73120   0.73401   0.73624   0.74101
 Alpha virt. eigenvalues --    0.74382   0.74529   0.74750   0.75004   0.75270
 Alpha virt. eigenvalues --    0.75407   0.76182   0.76251   0.76310   0.77005
 Alpha virt. eigenvalues --    0.77138   0.77308   0.77502   0.77747   0.78132
 Alpha virt. eigenvalues --    0.78269   0.78488   0.78904   0.79134   0.79230
 Alpha virt. eigenvalues --    0.79423   0.79636   0.79901   0.80103   0.80465
 Alpha virt. eigenvalues --    0.80634   0.80981   0.81182   0.81462   0.81813
 Alpha virt. eigenvalues --    0.82105   0.82268   0.82628   0.82879   0.82983
 Alpha virt. eigenvalues --    0.83142   0.83457   0.83711   0.83910   0.84219
 Alpha virt. eigenvalues --    0.84268   0.84524   0.85013   0.85176   0.85179
 Alpha virt. eigenvalues --    0.85540   0.85856   0.85891   0.86194   0.86487
 Alpha virt. eigenvalues --    0.87000   0.87183   0.87298   0.87507   0.87765
 Alpha virt. eigenvalues --    0.87988   0.88244   0.88373   0.88539   0.88787
 Alpha virt. eigenvalues --    0.88830   0.89113   0.89423   0.89815   0.90186
 Alpha virt. eigenvalues --    0.90440   0.90690   0.90930   0.91193   0.91595
 Alpha virt. eigenvalues --    0.91700   0.91795   0.92290   0.92565   0.92667
 Alpha virt. eigenvalues --    0.92910   0.92928   0.93662   0.93919   0.94243
 Alpha virt. eigenvalues --    0.94400   0.94446   0.94984   0.95155   0.95333
 Alpha virt. eigenvalues --    0.95522   0.95709   0.96036   0.96281   0.96495
 Alpha virt. eigenvalues --    0.97102   0.97427   0.97672   0.98014   0.98264
 Alpha virt. eigenvalues --    0.98361   0.99017   0.99507   0.99678   0.99960
 Alpha virt. eigenvalues --    1.00257   1.00758   1.01257   1.01725   1.01967
 Alpha virt. eigenvalues --    1.02782   1.03176   1.03241   1.03547   1.04260
 Alpha virt. eigenvalues --    1.04898   1.05493   1.05755   1.06030   1.06299
 Alpha virt. eigenvalues --    1.06527   1.07279   1.08087   1.08667   1.09031
 Alpha virt. eigenvalues --    1.09431   1.09636   1.10625   1.11465   1.11568
 Alpha virt. eigenvalues --    1.11745   1.12587   1.12818   1.13437   1.13616
 Alpha virt. eigenvalues --    1.14234   1.14598   1.14862   1.15604   1.15717
 Alpha virt. eigenvalues --    1.16410   1.16536   1.16934   1.17461   1.17523
 Alpha virt. eigenvalues --    1.18345   1.18692   1.18849   1.19632   1.20301
 Alpha virt. eigenvalues --    1.20625   1.21033   1.21802   1.22005   1.23183
 Alpha virt. eigenvalues --    1.23280   1.23760   1.24555   1.25079   1.25305
 Alpha virt. eigenvalues --    1.25976   1.26417   1.26500   1.26567   1.27686
 Alpha virt. eigenvalues --    1.27930   1.28519   1.28636   1.29705   1.30168
 Alpha virt. eigenvalues --    1.31245   1.31365   1.31659   1.32518   1.32900
 Alpha virt. eigenvalues --    1.33592   1.33816   1.34018   1.35577   1.35922
 Alpha virt. eigenvalues --    1.36336   1.36960   1.37232   1.37910   1.38748
 Alpha virt. eigenvalues --    1.39235   1.39659   1.40194   1.40802   1.41243
 Alpha virt. eigenvalues --    1.41928   1.42793   1.42959   1.43224   1.43350
 Alpha virt. eigenvalues --    1.44795   1.45295   1.45885   1.46197   1.46559
 Alpha virt. eigenvalues --    1.47756   1.48113   1.48649   1.49671   1.50107
 Alpha virt. eigenvalues --    1.50599   1.52053   1.52438   1.53058   1.53788
 Alpha virt. eigenvalues --    1.53910   1.54969   1.55417   1.55740   1.56318
 Alpha virt. eigenvalues --    1.56874   1.57061   1.57586   1.58455   1.58576
 Alpha virt. eigenvalues --    1.58876   1.59804   1.60130   1.60581   1.61508
 Alpha virt. eigenvalues --    1.61761   1.62268   1.62631   1.62832   1.63096
 Alpha virt. eigenvalues --    1.63348   1.63678   1.64245   1.64291   1.64660
 Alpha virt. eigenvalues --    1.65280   1.65556   1.65693   1.65762   1.65878
 Alpha virt. eigenvalues --    1.66297   1.66528   1.66962   1.67298   1.67688
 Alpha virt. eigenvalues --    1.68248   1.68614   1.68967   1.69080   1.69568
 Alpha virt. eigenvalues --    1.69924   1.70471   1.70683   1.70899   1.71051
 Alpha virt. eigenvalues --    1.71234   1.71442   1.71927   1.72254   1.72869
 Alpha virt. eigenvalues --    1.73246   1.73804   1.74017   1.74274   1.74632
 Alpha virt. eigenvalues --    1.74989   1.75149   1.75219   1.75728   1.76189
 Alpha virt. eigenvalues --    1.76335   1.76650   1.76873   1.77092   1.77200
 Alpha virt. eigenvalues --    1.77651   1.77909   1.78593   1.78763   1.78975
 Alpha virt. eigenvalues --    1.79463   1.79741   1.80057   1.80415   1.80777
 Alpha virt. eigenvalues --    1.81186   1.81746   1.82302   1.82912   1.83043
 Alpha virt. eigenvalues --    1.83471   1.83498   1.83942   1.84203   1.84628
 Alpha virt. eigenvalues --    1.84992   1.85029   1.85382   1.85646   1.85903
 Alpha virt. eigenvalues --    1.86434   1.86945   1.87529   1.87848   1.88083
 Alpha virt. eigenvalues --    1.88304   1.88646   1.88879   1.89515   1.89748
 Alpha virt. eigenvalues --    1.90115   1.90155   1.90493   1.90995   1.91922
 Alpha virt. eigenvalues --    1.92000   1.92274   1.92859   1.93469   1.93951
 Alpha virt. eigenvalues --    1.94250   1.94634   1.95016   1.95383   1.95789
 Alpha virt. eigenvalues --    1.96016   1.96192   1.96664   1.97314   1.97392
 Alpha virt. eigenvalues --    1.97818   1.98607   1.98967   1.99296   1.99519
 Alpha virt. eigenvalues --    1.99912   2.00687   2.01055   2.01286   2.01625
 Alpha virt. eigenvalues --    2.02069   2.02256   2.02502   2.02711   2.03668
 Alpha virt. eigenvalues --    2.04076   2.04287   2.04442   2.05130   2.05362
 Alpha virt. eigenvalues --    2.06230   2.06482   2.06848   2.06921   2.07438
 Alpha virt. eigenvalues --    2.08072   2.08631   2.08954   2.09605   2.09724
 Alpha virt. eigenvalues --    2.10018   2.10413   2.10578   2.10952   2.11237
 Alpha virt. eigenvalues --    2.11743   2.12351   2.13257   2.13362   2.13696
 Alpha virt. eigenvalues --    2.14179   2.14666   2.14934   2.14971   2.16489
 Alpha virt. eigenvalues --    2.16648   2.16914   2.17362   2.17520   2.18031
 Alpha virt. eigenvalues --    2.18276   2.18867   2.19226   2.19648   2.20120
 Alpha virt. eigenvalues --    2.20998   2.21761   2.23152   2.23468   2.23612
 Alpha virt. eigenvalues --    2.24784   2.25098   2.25373   2.25869   2.26452
 Alpha virt. eigenvalues --    2.27904   2.28416   2.28854   2.29070   2.29898
 Alpha virt. eigenvalues --    2.30367   2.31500   2.31588   2.32718   2.33369
 Alpha virt. eigenvalues --    2.33809   2.34402   2.35452   2.36018   2.36576
 Alpha virt. eigenvalues --    2.37249   2.38651   2.39018   2.39265   2.40054
 Alpha virt. eigenvalues --    2.40458   2.40701   2.41850   2.42118   2.42456
 Alpha virt. eigenvalues --    2.42533   2.43102   2.43800   2.43965   2.44859
 Alpha virt. eigenvalues --    2.44974   2.45561   2.46437   2.47002   2.47292
 Alpha virt. eigenvalues --    2.48117   2.48675   2.49496   2.50938   2.51635
 Alpha virt. eigenvalues --    2.52569   2.53186   2.53428   2.54047   2.54647
 Alpha virt. eigenvalues --    2.55281   2.55981   2.57931   2.58067   2.58441
 Alpha virt. eigenvalues --    2.59405   2.59702   2.60232   2.60667   2.60756
 Alpha virt. eigenvalues --    2.61285   2.62572   2.62809   2.63104   2.63354
 Alpha virt. eigenvalues --    2.63709   2.64214   2.64464   2.65379   2.65542
 Alpha virt. eigenvalues --    2.66167   2.66223   2.67202   2.67347   2.68275
 Alpha virt. eigenvalues --    2.68566   2.69190   2.69881   2.70789   2.70898
 Alpha virt. eigenvalues --    2.71678   2.72176   2.72573   2.72772   2.73271
 Alpha virt. eigenvalues --    2.73437   2.74097   2.74270   2.74547   2.75428
 Alpha virt. eigenvalues --    2.76064   2.76557   2.76682   2.77188   2.77618
 Alpha virt. eigenvalues --    2.78263   2.78819   2.79431   2.79854   2.80317
 Alpha virt. eigenvalues --    2.80497   2.81216   2.81843   2.81927   2.82329
 Alpha virt. eigenvalues --    2.83064   2.83437   2.83896   2.84174   2.84436
 Alpha virt. eigenvalues --    2.85075   2.85214   2.85844   2.86163   2.86917
 Alpha virt. eigenvalues --    2.87339   2.87656   2.88131   2.88718   2.89112
 Alpha virt. eigenvalues --    2.89978   2.90168   2.91059   2.91335   2.91904
 Alpha virt. eigenvalues --    2.92138   2.92835   2.93004   2.93263   2.93489
 Alpha virt. eigenvalues --    2.93776   2.94400   2.94650   2.95624   2.95877
 Alpha virt. eigenvalues --    2.96336   2.96997   2.97462   2.97953   2.98158
 Alpha virt. eigenvalues --    2.98475   2.98902   2.98988   2.99059   2.99627
 Alpha virt. eigenvalues --    3.00134   3.00512   3.00945   3.01203   3.02492
 Alpha virt. eigenvalues --    3.02547   3.02977   3.03423   3.03959   3.04419
 Alpha virt. eigenvalues --    3.04840   3.05390   3.05798   3.06005   3.06543
 Alpha virt. eigenvalues --    3.07093   3.07418   3.07905   3.08297   3.08862
 Alpha virt. eigenvalues --    3.09169   3.09488   3.10278   3.12198   3.12340
 Alpha virt. eigenvalues --    3.12821   3.13559   3.14171   3.15162   3.15818
 Alpha virt. eigenvalues --    3.16611   3.17278   3.18335   3.19143   3.19985
 Alpha virt. eigenvalues --    3.20326   3.21316   3.22067   3.22819   3.23706
 Alpha virt. eigenvalues --    3.23932   3.24418   3.24807   3.25112   3.25922
 Alpha virt. eigenvalues --    3.27383   3.28314   3.28447   3.29673   3.29778
 Alpha virt. eigenvalues --    3.30479   3.31087   3.31620   3.32850   3.33934
 Alpha virt. eigenvalues --    3.34914   3.35507   3.35780   3.36137   3.37070
 Alpha virt. eigenvalues --    3.38293   3.39519   3.40624   3.41749   3.41980
 Alpha virt. eigenvalues --    3.42632   3.43413   3.44516   3.45586   3.46484
 Alpha virt. eigenvalues --    3.47159   3.47455   3.49059   3.49842   3.50117
 Alpha virt. eigenvalues --    3.50827   3.51399   3.51782   3.53300   3.55280
 Alpha virt. eigenvalues --    3.56158   3.57757   3.61572   3.63590   3.64482
 Alpha virt. eigenvalues --    3.67404   3.67869   3.68488   3.68761   3.73161
 Alpha virt. eigenvalues --    3.73866   3.75489   3.77511   3.79134   3.83555
 Alpha virt. eigenvalues --    3.85019   3.87982   3.88991   3.90251   3.91546
 Alpha virt. eigenvalues --    3.92341   3.93122   3.93258   3.93511   3.93754
 Alpha virt. eigenvalues --    3.94102   3.94915   3.95504   3.96194   3.97749
 Alpha virt. eigenvalues --    3.97882   3.98483   3.99389   4.00701   4.01564
 Alpha virt. eigenvalues --    4.02800   4.04282   4.06683   4.08574   4.10861
 Alpha virt. eigenvalues --    4.11294   4.14200   4.15013   4.15131   4.17801
 Alpha virt. eigenvalues --    4.18529   4.20617   4.22241   4.25197   4.26040
 Alpha virt. eigenvalues --    4.26703   4.27588   4.28499   4.28986   4.30195
 Alpha virt. eigenvalues --    4.31786   4.34668   4.37355   4.39352   4.41446
 Alpha virt. eigenvalues --    4.42752   4.43871   4.44412   4.47216   4.48553
 Alpha virt. eigenvalues --    4.53226   4.57255   4.60503   4.70551   4.86323
 Alpha virt. eigenvalues --    4.95104   4.95512   5.35312   5.37389   5.39509
 Alpha virt. eigenvalues --    5.43904   5.45364   5.47218   5.49391   5.50184
 Alpha virt. eigenvalues --    5.58686   5.60848   5.62543   5.66539   5.71551
 Alpha virt. eigenvalues --    5.73373   5.76974   5.80515   5.82623   5.89394
 Alpha virt. eigenvalues --    7.69403  14.31985  14.39050  14.44959  14.97162
 Alpha virt. eigenvalues --   23.76963  23.81779  23.94718  23.99786  24.01481
 Alpha virt. eigenvalues --   24.02426  24.02977  24.05892  24.06930  24.10327
 Alpha virt. eigenvalues --   24.11016  24.11299  24.11404  24.12617  24.13297
 Alpha virt. eigenvalues --   24.13527  24.14057  24.14610  24.14977  24.16483
 Alpha virt. eigenvalues --   24.18125  24.19835  24.20198  24.20784  24.21220
 Alpha virt. eigenvalues --   24.22758  24.22877  24.22981  24.32136  24.32437
 Alpha virt. eigenvalues --   24.34802  35.76523  50.15976  50.16711  50.18499
 Alpha virt. eigenvalues --   50.20792  50.24975  50.26112 163.95323
          Condensed to atoms (all electrons):
 Mulliken charges:
               1
     1  C   -0.362381
     2  C   -0.003011
     3  H   -0.279326
     4  C   -0.519707
     5  H    0.230888
     6  H    0.168541
     7  H    0.204248
     8  C   -0.680141
     9  H    0.136417
    10  H    0.211645
    11  H    0.179018
    12  B    1.296770
    13  C   -0.756707
    14  H    0.203356
    15  H    0.119039
    16  H    0.163148
    17  O   -0.194219
    18  O   -0.079650
    19  C    0.085565
    20  C   -0.391434
    21  C   -0.800435
    22  H    0.186154
    23  H    0.189835
    24  H    0.190301
    25  C   -0.403941
    26  H    0.193736
    27  H    0.140284
    28  H    0.233665
    29  C   -0.403369
    30  H    0.146592
    31  H    0.214292
    32  H    0.166794
    33  C   -1.104711
    34  H    0.230866
    35  H    0.255385
    36  H    0.140822
    37  P   -0.088511
    38  O   -0.152277
    39  O    0.102802
    40  N   -0.334739
    41  H   -0.233187
    42  H    0.509929
    43  Li   0.101255
    44  C   -0.233314
    45  O    0.260101
    46  C   -0.331640
    47  C   -0.498052
    48  C   -0.781315
    49  H    0.173173
    50  H    0.212988
    51  H    0.192505
    52  H    0.207823
    53  H    0.259847
    54  H    0.214477
    55  H    0.203730
    56  H    0.242625
    57  C    0.093744
    58  O    0.154853
    59  C   -0.111079
    60  C   -0.440198
    61  C   -0.754287
    62  H   -0.083296
    63  H    0.162571
    64  H    0.215873
    65  H    0.286658
    66  H    0.257413
    67  H    0.070315
    68  H    0.211695
    69  H    0.222466
    70  C   -0.387189
    71  C    0.269278
    72  C    0.086859
    73  C   -0.141970
    74  H    0.209016
    75  C   -0.166404
    76  H    0.300754
    77  C   -0.512286
    78  H    0.299493
    79  H    0.285659
    80  H    0.252541
    81  C   -0.104280
    82  C    0.055021
    83  C   -0.047560
    84  C   -0.487293
    85  H    0.297912
    86  C   -0.456925
    87  H    0.261507
    88  C   -0.477959
    89  H    0.285685
    90  H    0.290177
    91  H    0.264687
 Sum of Mulliken charges =  -0.00000
 Mulliken charges with hydrogens summed into heavy atoms:
               1
     1  C   -0.362381
     2  C   -0.282337
     4  C    0.083969
     8  C   -0.153061
    12  B    1.296770
    13  C   -0.271164
    17  O   -0.194219
    18  O   -0.079650
    19  C    0.085565
    20  C   -0.391434
    21  C   -0.234145
    25  C    0.163744
    29  C    0.124309
    33  C   -0.477638
    37  P   -0.088511
    38  O   -0.152277
    39  O    0.102802
    40  N   -0.057997
    43  Li   0.101255
    44  C    0.152847
    45  O    0.260101
    46  C    0.068688
    47  C   -0.023728
    48  C   -0.334960
    57  C    0.173018
    58  O    0.154853
    59  C    0.391452
    60  C   -0.112470
    61  C   -0.320127
    70  C   -0.387189
    71  C    0.478294
    72  C    0.387613
    73  C    0.157524
    75  C    0.119255
    77  C   -0.259745
    81  C   -0.104280
    82  C    0.352933
    83  C    0.213947
    84  C   -0.201608
    86  C   -0.166748
    88  C   -0.213272
 Electronic spatial extent (au):  <R**2>=          43049.7065
 Charge=             -0.0000 electrons
 Dipole moment (field-independent basis, Debye):
    X=              4.4764    Y=             -0.8357    Z=             10.4222  Tot=             11.3736
 Quadrupole moment (field-independent basis, Debye-Ang):
   XX=           -251.5083   YY=           -240.1603   ZZ=           -204.2607
   XY=             -4.2507   XZ=            -23.9496   YZ=             -7.0639
 Traceless Quadrupole moment (field-independent basis, Debye-Ang):
   XX=            -19.5318   YY=             -8.1839   ZZ=             27.7157
   XY=             -4.2507   XZ=            -23.9496   YZ=             -7.0639
 Octapole moment (field-independent basis, Debye-Ang**2):
  XXX=           2027.1652  YYY=           1734.2658  ZZZ=          -1584.4897  XYY=            725.8713
  XXY=            635.1199  XXZ=           -496.6404  XZZ=            567.5115  YZZ=            578.9060
  YYZ=           -574.6829  XYZ=             24.8066
 Hexadecapole moment (field-independent basis, Debye-Ang**3):
 XXXX=         -17388.5529 YYYY=         -17616.7111 ZZZZ=         -18093.6518 XXXY=          -5466.9550
 XXXZ=           4563.1494 YYYX=          -5546.7027 YYYZ=           5061.5328 ZZZX=           4215.6479
 ZZZY=           5320.9614 XXYY=          -6480.6703 XXZZ=          -5709.8379 YYZZ=          -6537.8415
 XXYZ=           1712.1212 YYXZ=           1623.6413 ZZXY=          -1594.9393
 N-N= 5.708141333498D+03 E-N=-1.631026633265D+04  KE= 2.083032887797D+03
 No NMR shielding tensors so no spin-rotation constants.
 Leave Link  601 at Mon Sep  8 15:24:06 2025, MaxMem=  4294967296 cpu:               7.6 elap:               0.7
 (Enter /opt/packages/gaussian/g16RevC.01/g16/l9999.exe)
 Unable to Open any file for archive entry.
 1\1\GINC-R350\SP\RwB97XD\6-311++G(d,p)\C31H50B1Li1N1O6P1\WHUGHES\08-Se
 p-2025\0\\#p wb97xd/6-311++g** nosymm int=ultrafine scrf=(smd,solvent=
 tetrahydrofuran)\\Title\\0,1\C,0,-4.980301,-0.426913,0.821076\C,0,-4.9
 8402,-0.334935,2.186466\H,0,-4.014579,-0.237858,2.671844\C,0,-6.153189
 ,-0.117907,3.110748\H,0,-6.326437,0.95496,3.273367\H,0,-7.08598,-0.549
 047,2.732995\H,0,-5.949128,-0.568264,4.08883\C,0,-6.258506,-0.388916,0
 .02895\H,0,-7.171437,-0.381509,0.634698\H,0,-6.263198,0.51811,-0.59230
 7\H,0,-6.308057,-1.224649,-0.677401\B,0,-3.554895,-0.450402,-0.021879\
 C,0,-2.840882,1.01067,0.110718\H,0,-2.639147,1.284386,1.156001\H,0,-1.
 886239,1.055311,-0.434257\H,0,-3.482895,1.805325,-0.30258\O,0,-2.66595
 2,-1.583478,0.513329\O,0,-3.731187,-0.823777,-1.442422\C,0,-3.286139,-
 2.142932,-1.673757\C,0,-2.165453,-2.338442,-0.598052\C,0,-2.782209,-2.
 251061,-3.112506\H,0,-3.623861,-2.139652,-3.806264\H,0,-2.055187,-1.46
 6238,-3.339179\H,0,-2.316668,-3.226735,-3.300078\C,0,-4.44536,-3.13753
 4,-1.496868\H,0,-4.150475,-4.158583,-1.765974\H,0,-4.822395,-3.156368,
 -0.470294\H,0,-5.27,-2.838452,-2.153508\C,0,-0.823525,-1.747663,-1.042
 969\H,0,-0.134654,-1.756809,-0.193959\H,0,-0.373706,-2.342422,-1.8464\
 H,0,-0.932654,-0.717914,-1.394251\C,0,-1.944931,-3.78407,-0.162949\H,0
 ,-2.840589,-4.216545,0.290238\H,0,-1.654831,-4.402033,-1.021534\H,0,-1
 .140047,-3.831926,0.578732\P,0,-3.330787,-4.344293,3.434553\O,0,-2.142
 718,-3.446829,3.158114\O,0,-4.516043,-4.267948,2.41245\N,0,-4.785027,-
 2.484557,2.199416\H,0,-4.05408,-2.436917,1.477141\H,0,-5.664144,-2.671
 288,1.710925\Li,0,-1.78615,-1.779693,2.252618\C,0,-2.353547,-0.819124,
 4.985726\O,0,-1.981325,-0.308193,3.703203\C,0,-1.948683,1.118509,3.816
 065\C,0,-1.607048,1.432608,5.287393\C,0,-1.581547,0.049977,5.967258\H,
 0,-3.441635,-0.720525,5.12009\H,0,-2.089964,-1.874905,5.000738\H,0,-1.
 208962,1.48987,3.103878\H,0,-2.931278,1.523899,3.541176\H,0,-0.647553,
 1.949028,5.379025\H,0,-2.375372,2.075564,5.726472\H,0,-0.554383,-0.320
 391,6.057822\H,0,-2.034237,0.054933,6.962632\C,0,0.806219,-2.293491,3.
 414797\O,0,0.222694,-1.753088,2.215433\C,0,0.769959,-0.452184,1.943882
 \C,0,1.474222,-0.024079,3.223997\C,0,1.966085,-1.368592,3.767109\H,0,0
 .040867,-2.302715,4.198473\H,0,1.109016,-3.324189,3.211294\H,0,1.47904
 7,-0.535689,1.109834\H,0,-0.049335,0.205012,1.637349\H,0,2.28054,0.689
 456,3.033399\H,0,0.762099,0.428968,3.921506\H,0,2.879427,-1.679061,3.2
 46757\H,0,2.168219,-1.354097,4.841752\C,0,-2.806526,-6.080229,3.419625
 \C,0,-1.573366,-6.412424,2.851594\C,0,-3.626251,-7.090062,3.935796\C,0
 ,-1.164058,-7.743926,2.796778\H,0,-0.936171,-5.6254,2.457757\C,0,-3.21
 5119,-8.419399,3.882415\H,0,-4.584466,-6.840442,4.38593\C,0,-1.984284,
 -8.74697,3.31144\H,0,-0.204637,-7.997023,2.35381\H,0,-3.853862,-9.1998
 6,4.286637\H,0,-1.664336,-9.784693,3.270721\C,0,-3.998717,-4.009294,5.
 091616\C,0,-3.153719,-4.103123,6.204069\C,0,-5.327193,-3.616699,5.2693
 29\C,0,-3.62882,-3.796528,7.475816\H,0,-2.118084,-4.411546,6.077149\C,
 0,-5.802791,-3.305591,6.543235\H,0,-5.986018,-3.544677,4.409396\C,0,-4
 .954461,-3.39236,7.645506\H,0,-2.966396,-3.870069,8.334031\H,0,-6.8359
 56,-2.994804,6.672846\H,0,-5.325086,-3.149369,8.637787\\Version=ES64L-
 G16RevC.01\HF=-2091.3621737\RMSD=9.825e-09\Dipole=1.7611346,-0.3287974
 ,4.100398\Quadrupole=-14.5214408,-6.0845364,20.6059772,-3.1602752,-17.
 8059679,-5.2518017\PG=C01 [X(C31H50B1Li1N1O6P1)]\\@
 The archive entry for this job was punched.


 A successful marriage requires falling in love
 many times, always with the same person.
                           -- Mignon McLaughlin
 Job cpu time:       0 days  8 hours 15 minutes 36.8 seconds.
 Elapsed time:       0 days  0 hours 31 minutes 31.6 seconds.
 File lengths (MBytes):  RWF=   1326 Int=      0 D2E=      0 Chk=     94 Scr=      1
 Normal termination of Gaussian 16 at Mon Sep  8 15:24:06 2025.
