 Entering Gaussian System, Link 0=g16
 Initial command:
 /opt/packages/gaussian/g16RevC.01/g16/l1.exe "/ocean/projects/che180035p/whughes/Scratch/azaoxy-phosphine-full-sp-tzpop_34652378-Vxf7/Gau-70828.inp" -scrdir="/ocean/projects/che180035p/whughes/Scratch/azaoxy-phosphine-full-sp-tzpop_34652378-Vxf7/"
 Entering Link 1 = /opt/packages/gaussian/g16RevC.01/g16/l1.exe PID=     70868.
  
 Copyright (c) 1988-2019, Gaussian, Inc.  All Rights Reserved.
  
 This is part of the Gaussian(R) 16 program.  It is based on
 the Gaussian(R) 09 system (copyright 2009, Gaussian, Inc.),
 the Gaussian(R) 03 system (copyright 2003, Gaussian, Inc.),
 the Gaussian(R) 98 system (copyright 1998, Gaussian, Inc.),
 the Gaussian(R) 94 system (copyright 1995, Gaussian, Inc.),
 the Gaussian 92(TM) system (copyright 1992, Gaussian, Inc.),
 the Gaussian 90(TM) system (copyright 1990, Gaussian, Inc.),
 the Gaussian 88(TM) system (copyright 1988, Gaussian, Inc.),
 the Gaussian 86(TM) system (copyright 1986, Carnegie Mellon
 University), and the Gaussian 82(TM) system (copyright 1983,
 Carnegie Mellon University). Gaussian is a federally registered
 trademark of Gaussian, Inc.
  
 This software contains proprietary and confidential information,
 including trade secrets, belonging to Gaussian, Inc.
  
 This software is provided under written license and may be
 used, copied, transmitted, or stored only in accord with that
 written license.
  
 The following legend is applicable only to US Government
 contracts under FAR:
  
                    RESTRICTED RIGHTS LEGEND
  
 Use, reproduction and disclosure by the US Government is
 subject to restrictions as set forth in subparagraphs (a)
 and (c) of the Commercial Computer Software - Restricted
 Rights clause in FAR 52.227-19.
  
 Gaussian, Inc.
 340 Quinnipiac St., Bldg. 40, Wallingford CT 06492
  
  
 ---------------------------------------------------------------
 Warning -- This program may not be used in any manner that
 competes with the business of Gaussian, Inc. or will provide
 assistance to any competitor of Gaussian, Inc.  The licensee
 of this program is prohibited from giving any competitor of
 Gaussian, Inc. access to this program.  By using this program,
 the user acknowledges that Gaussian, Inc. is engaged in the
 business of creating and licensing software in the field of
 computational chemistry and represents and warrants to the
 licensee that it is not a competitor of Gaussian, Inc. and that
 it will not use this program in any manner prohibited above.
 ---------------------------------------------------------------
  

 Cite this work as:
 Gaussian 16, Revision C.01,
 M. J. Frisch, G. W. Trucks, H. B. Schlegel, G. E. Scuseria, 
 M. A. Robb, J. R. Cheeseman, G. Scalmani, V. Barone, 
 G. A. Petersson, H. Nakatsuji, X. Li, M. Caricato, A. V. Marenich, 
 J. Bloino, B. G. Janesko, R. Gomperts, B. Mennucci, H. P. Hratchian, 
 J. V. Ortiz, A. F. Izmaylov, J. L. Sonnenberg, D. Williams-Young, 
 F. Ding, F. Lipparini, F. Egidi, J. Goings, B. Peng, A. Petrone, 
 T. Henderson, D. Ranasinghe, V. G. Zakrzewski, J. Gao, N. Rega, 
 G. Zheng, W. Liang, M. Hada, M. Ehara, K. Toyota, R. Fukuda, 
 J. Hasegawa, M. Ishida, T. Nakajima, Y. Honda, O. Kitao, H. Nakai, 
 T. Vreven, K. Throssell, J. A. Montgomery, Jr., J. E. Peralta, 
 F. Ogliaro, M. J. Bearpark, J. J. Heyd, E. N. Brothers, K. N. Kudin, 
 V. N. Staroverov, T. A. Keith, R. Kobayashi, J. Normand, 
 K. Raghavachari, A. P. Rendell, J. C. Burant, S. S. Iyengar, 
 J. Tomasi, M. Cossi, J. M. Millam, M. Klene, C. Adamo, R. Cammi, 
 J. W. Ochterski, R. L. Martin, K. Morokuma, O. Farkas, 
 J. B. Foresman, and D. J. Fox, Gaussian, Inc., Wallingford CT, 2019.
 
 ******************************************
 Gaussian 16:  ES64L-G16RevC.01  3-Jul-2019
                 8-Sep-2025 
 ******************************************
 %nproc=16
 Will use up to   16 processors via shared memory.
 %mem=32gb
 %chk=azaoxy-phosphine-full-sp-tzpop.chk
 ----------------------------------------------------------------------
 #p wb97xd/6-311++g** nosymm int=ultrafine scrf=(smd,solvent=tetrahydro
 furan)
 ----------------------------------------------------------------------
 1/38=1,172=1/1;
 2/12=2,15=1,17=6,18=5,40=1/2;
 3/5=4,6=6,7=1111,11=2,25=1,30=1,70=32201,72=20,74=-58,75=-5/1,2,3;
 4//1;
 5/5=2,38=5,53=20/2;
 6/7=2,8=2,9=2,10=2,28=1/1;
 99/5=1,9=1/99;
 Leave Link    1 at Mon Sep  8 14:52:50 2025, MaxMem=  4294967296 cpu:               5.9 elap:               0.4
 (Enter /opt/packages/gaussian/g16RevC.01/g16/l101.exe)
 -----
 Title
 -----
 Symbolic Z-matrix:
 Charge =  0 Multiplicity = 1
 15                   -0.90068  -2.08945   0.98305 
 8                    -0.06613  -1.5001    2.0717 
 8                    -2.48188  -1.86679   1.38098 
 7                    -3.37392  -2.37405   0.37133 
 1                    -4.01363  -2.96694   0.89931 
 1                    -3.90861  -1.55199   0.09179 
 6                    -0.71728  -3.87789   0.76786 
 6                    -1.47843  -4.75331   1.55124 
 6                     0.25481  -4.39222  -0.0968 
 6                    -1.27629  -6.12782   1.46124 
 1                    -2.22841  -4.36515   2.2354 
 6                     0.45517  -5.76825  -0.18423 
 1                     0.85912  -3.72476  -0.70578 
 6                    -0.31115  -6.63625   0.59199 
 1                    -1.87218  -6.80189   2.07004 
 1                     1.21004  -6.16095  -0.85949 
 1                    -0.15479  -7.70917   0.5216 
 6                    -0.6437   -1.28709  -0.62043 
 6                     0.0589   -0.07696  -0.63104 
 6                    -1.12241  -1.82195  -1.8233 
 6                     0.2737    0.59702  -1.8315 
 1                     0.4411    0.33141   0.30017 
 6                    -0.90324  -1.14652  -3.02098 
 1                    -1.66187  -2.76384  -1.82718 
 6                    -0.20773   0.06311  -3.02573 
 1                     0.82094   1.5354   -1.83338 
 1                    -1.27426  -1.56616  -3.95179 
 1                    -0.03706   0.58669  -3.96253 
 
 ITRead=  0  0  0  0  0  0  0  0  0  0  0  0  0  0  0  0  0  0  0  0
 ITRead=  0  0  0  0  0  0  0  0
 MicOpt= -1 -1 -1 -1 -1 -1 -1 -1 -1 -1 -1 -1 -1 -1 -1 -1 -1 -1 -1 -1
 MicOpt= -1 -1 -1 -1 -1 -1 -1 -1
 NAtoms=     28 NQM=       28 NQMF=       0 NMMI=      0 NMMIF=      0
                NMic=       0 NMicF=      0.
                    Isotopes and Nuclear Properties:
 (Nuclear quadrupole moments (NQMom) in fm**2, nuclear magnetic moments (NMagM)
  in nuclear magnetons)

  Atom         1           2           3           4           5           6           7           8           9          10
 IAtWgt=          31          16          16          14           1           1          12          12          12          12
 AtmWgt=  30.9737634  15.9949146  15.9949146  14.0030740   1.0078250   1.0078250  12.0000000  12.0000000  12.0000000  12.0000000
 NucSpn=           1           0           0           2           1           1           0           0           0           0
 AtZEff=  -0.0000000  -0.0000000  -0.0000000  -0.0000000  -0.0000000  -0.0000000  -0.0000000  -0.0000000  -0.0000000  -0.0000000
 NQMom=    0.0000000   0.0000000   0.0000000   2.0440000   0.0000000   0.0000000   0.0000000   0.0000000   0.0000000   0.0000000
 NMagM=    1.1316000   0.0000000   0.0000000   0.4037610   2.7928460   2.7928460   0.0000000   0.0000000   0.0000000   0.0000000
 AtZNuc=  15.0000000   8.0000000   8.0000000   7.0000000   1.0000000   1.0000000   6.0000000   6.0000000   6.0000000   6.0000000

  Atom        11          12          13          14          15          16          17          18          19          20
 IAtWgt=           1          12           1          12           1           1           1          12          12          12
 AtmWgt=   1.0078250  12.0000000   1.0078250  12.0000000   1.0078250   1.0078250   1.0078250  12.0000000  12.0000000  12.0000000
 NucSpn=           1           0           1           0           1           1           1           0           0           0
 AtZEff=  -0.0000000  -0.0000000  -0.0000000  -0.0000000  -0.0000000  -0.0000000  -0.0000000  -0.0000000  -0.0000000  -0.0000000
 NQMom=    0.0000000   0.0000000   0.0000000   0.0000000   0.0000000   0.0000000   0.0000000   0.0000000   0.0000000   0.0000000
 NMagM=    2.7928460   0.0000000   2.7928460   0.0000000   2.7928460   2.7928460   2.7928460   0.0000000   0.0000000   0.0000000
 AtZNuc=   1.0000000   6.0000000   1.0000000   6.0000000   1.0000000   1.0000000   1.0000000   6.0000000   6.0000000   6.0000000

  Atom        21          22          23          24          25          26          27          28
 IAtWgt=          12           1          12           1          12           1           1           1
 AtmWgt=  12.0000000   1.0078250  12.0000000   1.0078250  12.0000000   1.0078250   1.0078250   1.0078250
 NucSpn=           0           1           0           1           0           1           1           1
 AtZEff=  -0.0000000  -0.0000000  -0.0000000  -0.0000000  -0.0000000  -0.0000000  -0.0000000  -0.0000000
 NQMom=    0.0000000   0.0000000   0.0000000   0.0000000   0.0000000   0.0000000   0.0000000   0.0000000
 NMagM=    0.0000000   2.7928460   0.0000000   2.7928460   0.0000000   2.7928460   2.7928460   2.7928460
 AtZNuc=   6.0000000   1.0000000   6.0000000   1.0000000   6.0000000   1.0000000   1.0000000   1.0000000
 Leave Link  101 at Mon Sep  8 14:52:51 2025, MaxMem=  4294967296 cpu:               0.8 elap:               0.1
 (Enter /opt/packages/gaussian/g16RevC.01/g16/l202.exe)
                          Input orientation:                          
 ---------------------------------------------------------------------
 Center     Atomic      Atomic             Coordinates (Angstroms)
 Number     Number       Type             X           Y           Z
 ---------------------------------------------------------------------
      1         15           0       -0.900682   -2.089446    0.983045
      2          8           0       -0.066133   -1.500104    2.071699
      3          8           0       -2.481878   -1.866792    1.380978
      4          7           0       -3.373920   -2.374047    0.371325
      5          1           0       -4.013626   -2.966943    0.899312
      6          1           0       -3.908608   -1.551989    0.091787
      7          6           0       -0.717284   -3.877887    0.767862
      8          6           0       -1.478433   -4.753309    1.551237
      9          6           0        0.254807   -4.392223   -0.096800
     10          6           0       -1.276290   -6.127824    1.461240
     11          1           0       -2.228414   -4.365153    2.235403
     12          6           0        0.455165   -5.768252   -0.184233
     13          1           0        0.859117   -3.724759   -0.705781
     14          6           0       -0.311150   -6.636254    0.591988
     15          1           0       -1.872177   -6.801885    2.070037
     16          1           0        1.210035   -6.160950   -0.859493
     17          1           0       -0.154790   -7.709169    0.521603
     18          6           0       -0.643698   -1.287094   -0.620426
     19          6           0        0.058900   -0.076964   -0.631042
     20          6           0       -1.122406   -1.821950   -1.823299
     21          6           0        0.273704    0.597019   -1.831495
     22          1           0        0.441101    0.331407    0.300167
     23          6           0       -0.903235   -1.146523   -3.020979
     24          1           0       -1.661872   -2.763841   -1.827182
     25          6           0       -0.207731    0.063107   -3.025729
     26          1           0        0.820941    1.535395   -1.833375
     27          1           0       -1.274260   -1.566162   -3.951787
     28          1           0       -0.037063    0.586686   -3.962528
 ---------------------------------------------------------------------
                    Distance matrix (angstroms):
                    1          2          3          4          5
     1  P    0.000000
     2  O    1.492971   0.000000
     3  O    1.645632   2.539169   0.000000
     4  N    2.563612   3.820537   1.439599   0.000000
     5  H    3.235341   4.371362   1.946429   1.019568   0.000000
     6  H    3.182895   4.322888   1.948505   1.019712   1.632550
     7  C    1.810652   2.788878   2.744851   3.078391   3.422421
     8  C    2.784386   3.584524   3.060698   3.262813   3.169119
     9  C    2.793564   3.629014   4.006379   4.178497   4.609033
    10  C    4.083901   4.822129   4.429027   4.436080   4.218998
    11  H    2.917210   3.593155   2.652564   2.958289   2.631941
    12  C    4.090779   4.855725   5.128109   5.146957   5.384375
    13  H    2.936541   3.676897   4.355325   4.572000   5.185965
    14  C    4.601515   5.350665   5.299277   5.253157   5.221745
    15  H    4.932792   5.600953   5.020128   4.974596   4.545677
    16  H    4.942390   5.651900   6.090133   6.071918   6.370378
    17  H    5.687756   6.400246   6.347222   6.232889   6.125519
    18  C    1.811333   2.761610   2.778592   3.101475   4.060531
    19  C    2.752482   3.057085   3.702332   4.250363   5.222971
    20  C    2.827770   4.048494   3.481029   3.192256   4.133131
    21  C    4.064223   4.443910   4.897303   5.194691   6.208086
    22  H    2.850830   2.598085   3.813665   4.677492   5.575184
    23  C    4.113553   5.173116   4.731609   4.372508   5.325143
    24  H    2.988577   4.398260   3.430656   2.813624   3.606351
    25  C    4.602601   5.333615   5.321214   5.244468   6.250759
    26  H    4.902620   5.025013   5.728486   6.143395   7.149242
    27  H    4.976540   6.143803   5.476048   4.873453   5.744517
    28  H    5.689131   6.384938   6.367867   6.219553   7.216566
                    6          7          8          9         10
     6  H    0.000000
     7  C    4.006423   0.000000
     8  C    4.276002   1.399781   0.000000
     9  C    5.043463   1.398979   2.418787   0.000000
    10  C    5.453693   2.419809   1.392211   2.789992   0.000000
    11  H    3.915614   2.162087   1.086839   3.406801   2.147761
    12  C    6.074173   2.419628   2.789403   1.393285   2.415535
    13  H    5.299835   2.163357   3.408253   1.086994   3.876940
    14  C    6.248332   2.793647   2.414164   2.414624   1.394846
    15  H    5.968411   3.402823   2.149617   3.876302   1.086312
    16  H    6.953270   3.402237   3.875685   2.150013   3.401281
    17  H    7.224040   3.880176   3.398424   3.398871   2.154375
    18  C    3.352172   2.940232   4.174632   3.274648   5.307181
    19  C    4.294101   4.123883   5.384602   4.352615   6.540129
    20  C    3.391660   3.332434   4.484096   3.388778   5.417788
    21  C    5.080254   5.269108   6.568019   5.282240   7.646444
    22  H    4.744531   4.390757   5.577107   4.743940   6.783744
    23  C    4.345800   4.674424   5.851916   4.519563   6.711395
    24  H    3.193564   2.977851   3.924965   3.052787   4.720040
    25  C    5.101366   5.493852   6.764700   5.351872   7.720255
    26  H    5.967145   6.199693   7.502701   6.202649   8.601034
    27  H    4.826021   5.284826   6.362615   5.018525   7.078815
    28  H    6.000022   6.540008   7.809910   6.310196   8.719953
                   11         12         13         14         15
    11  H    0.000000
    12  C    3.876199   0.000000
    13  H    4.312020   2.147336   0.000000
    14  C    3.396265   1.393982   3.395664   0.000000
    15  H    2.468180   3.400978   4.963249   2.156123   0.000000
    16  H    4.962479   1.086286   2.466130   2.155624   4.300346
    17  H    4.291791   2.153464   4.290688   1.086531   2.483995
    18  C    4.487932   4.634495   2.864952   5.494911   6.257849
    19  C    5.642418   5.722536   3.735283   6.682591   7.499963
    20  C    4.915709   4.555060   2.965799   5.446951   6.365530
    21  C    6.886465   6.577467   4.504188   7.650854   8.635423
    22  H    5.738390   6.118879   4.199899   7.014224   7.705034
    23  C    6.304382   5.590417   3.887586   6.598579   7.670750
    24  H    4.403381   4.025868   2.921693   4.761556   5.615901
    25  C    7.167437   6.520604   4.568178   7.614461   8.710070
    26  H    7.789094   7.496447   5.379790   8.598829   9.591650
    27  H    6.857556   5.902790   4.443804   6.875995   8.002041
    28  H    8.230254   7.409658   5.477052   8.543395   9.713417
                   16         17         18         19         20
    16  H    0.000000
    17  H    2.483376   0.000000
    18  C    5.219957   6.541124   0.000000
    19  C    6.196143   7.721710   1.399347   0.000000
    20  C    5.019574   6.410475   1.400763   2.421144   0.000000
    21  C    6.891418   8.643693   2.420371   1.393370   2.792956
    22  H    6.639787   8.065667   2.154954   1.086276   3.404498
    23  C    5.855118   7.495224   2.418631   2.789527   1.392363
    24  H    4.552430   5.678411   2.161879   3.407509   1.085448
    25  C    6.741033   8.543690   2.792596   2.413553   2.415762
    26  H    7.767468   9.589574   3.403360   2.150817   3.879235
    27  H    6.070097   7.681209   3.401978   3.875871   2.149174
    28  H    7.530914   9.430933   3.879266   3.398299   3.399382
                   21         22         23         24         25
    21  C    0.000000
    22  H    2.154659   0.000000
    23  C    2.416608   3.875761   0.000000
    24  H    3.878383   4.304494   2.148581   0.000000
    25  C    1.393928   3.399199   1.395333   3.397451   0.000000
    26  H    1.086288   2.479086   3.402333   4.964658   2.155808
    27  H    3.401644   4.962091   1.086352   2.469539   2.156290
    28  H    2.153598   4.297020   2.154247   4.292521   1.086671
                   26         27         28
    26  H    0.000000
    27  H    4.300836   0.000000
    28  H    2.483850   2.483048   0.000000
 Symmetry turned off by external request.
 Stoichiometry    C12H12NO2P
 Framework group  C1[X(C12H12NO2P)]
 Deg. of freedom    78
 Full point group                 C1      NOp   1
 Rotational constants (GHZ):           0.8221864           0.3475596           0.3044675
 Leave Link  202 at Mon Sep  8 14:52:51 2025, MaxMem=  4294967296 cpu:               0.2 elap:               0.0
 (Enter /opt/packages/gaussian/g16RevC.01/g16/l301.exe)
 Standard basis: 6-311++G(d,p) (5D, 7F)
 Ernie: Thresh=  0.10000D-02 Tol=  0.10000D-05 Strict=F.
   444 basis functions,   698 primitive gaussians,   460 cartesian basis functions
    61 alpha electrons       61 beta electrons
       nuclear repulsion energy      1195.2511171894 Hartrees.
 IExCor= 4639 DFT=T Ex+Corr=wB97XD ExCW=0 ScaHFX=  1.000000
 ScaDFX=  1.000000  1.000000  1.000000  1.000000 ScalE2=  1.000000  1.000000
 IRadAn=      5 IRanWt=     -1 IRanGd=            0 ICorTp=0 IEmpDi=121
 HFx  wShort=  0.000000 wLong=  0.200000 cFull=  0.222036 cShort=  0.000000 cLong=  0.777964
 DFx  wShort=  0.000000 wLong=  0.200000 cFull=  0.000000 cShort=  0.000000 cLong=  1.000000
 NAtoms=   28 NActive=   28 NUniq=   28 SFac= 1.00D+00 NAtFMM=   60 NAOKFM=F Big=F
 Integral buffers will be    131072 words long.
 Raffenetti 2 integral format.
 Two-electron integral symmetry is turned off.
 R6Disp:  Grimme-D2 Dispersion energy=       -0.0187870262 Hartrees.
 Nuclear repulsion after empirical dispersion term =     1195.2323301632 Hartrees.
 ------------------------------------------------------------------------------
 Polarizable Continuum Model (PCM)
 =================================
 Model                : PCM.
 Atomic radii         : SMD-Coulomb.
 Polarization charges : Total charges.
 Charge compensation  : None.
 Solution method      : On-the-fly selection.
 Cavity type          : VdW (van der Waals Surface) (Alpha=1.000).
 Cavity algorithm     : GePol (No added spheres)
                        Default sphere list used, NSphG=   28.
                        Lebedev-Laikov grids with approx.  5.0 points / Ang**2.
                        Smoothing algorithm: York/Karplus (Gamma=1.0000).
                        Polarization charges: spherical gaussians, with
                                              point-specific exponents (IZeta= 3).
                        Self-potential: point-specific (ISelfS= 7).
                        Self-field    : sphere-specific E.n sum rule (ISelfD= 2).
 Solvent              : TetraHydroFuran, Eps=   7.425700 Eps(inf)=   1.974025
 ------------------------------------------------------------------------------
 GePol: Number of generator spheres                  =      28
 GePol: Total number of spheres                      =      28
 GePol: Number of exposed spheres                    =      28 (100.00%)
 GePol: Number of points                             =    2320
 GePol: Average weight of points                     =       0.11
 GePol: Minimum weight of points                     =   0.17D-10
 GePol: Maximum weight of points                     =    0.18900
 GePol: Number of points with low weight             =     116
 GePol: Fraction of low-weight points (<1% of avg)   =       5.00%
 GePol: Cavity surface area                          =    264.900 Ang**2
 GePol: Cavity volume                                =    262.478 Ang**3
 ------------------------------------------------------------------------------
 Atomic radii for non-electrostatic terms: SMD-CDS.
 ------------------------------------------------------------------------------
 PCM non-electrostatic energy =        -0.0048175565 Hartrees.
 Nuclear repulsion after PCM non-electrostatic terms =     1195.2275126068 Hartrees.
 Leave Link  301 at Mon Sep  8 14:52:51 2025, MaxMem=  4294967296 cpu:               1.4 elap:               0.1
 (Enter /opt/packages/gaussian/g16RevC.01/g16/l302.exe)
 NPDir=0 NMtPBC=     1 NCelOv=     1 NCel=       1 NClECP=     1 NCelD=      1
         NCelK=      1 NCelE2=     1 NClLst=     1 CellRange=     0.0.
 One-electron integrals computed using PRISM.
 NBasis=   444 RedAO= T EigKep=  1.63D-06  NBF=   444
 NBsUse=   441 1.00D-06 EigRej=  9.66D-07 NBFU=   441
 Precomputing XC quadrature grid using
 IXCGrd= 4 IRadAn=           5 IRanWt=          -1 IRanGd=           0 AccXCQ= 0.00D+00.
 Generated NRdTot=       0 NPtTot=           0 NUsed=           0 NTot=          32
 NSgBfM=   460   460   460   460   460 MxSgAt=    28 MxSgA2=    28.
 Leave Link  302 at Mon Sep  8 14:52:52 2025, MaxMem=  4294967296 cpu:              10.0 elap:               0.7
 (Enter /opt/packages/gaussian/g16RevC.01/g16/l303.exe)
 DipDrv:  MaxL=1.
 Leave Link  303 at Mon Sep  8 14:52:52 2025, MaxMem=  4294967296 cpu:               0.5 elap:               0.1
 (Enter /opt/packages/gaussian/g16RevC.01/g16/l401.exe)
 ExpMin= 3.48D-02 ExpMax= 7.75D+04 ExpMxC= 2.65D+03 IAcc=3 IRadAn=         5 AccDes= 0.00D+00
 Harris functional with IExCor= 4639 and IRadAn=       5 diagonalized for initial guess.
 HarFok:  IExCor= 4639 AccDes= 0.00D+00 IRadAn=         5 IDoV= 1 UseB2=F ITyADJ=14
 ICtDFT=  3500011 ScaDFX=  1.000000  1.000000  1.000000  1.000000
 FoFCou: FMM=F IPFlag=           0 FMFlag=      100000 FMFlg1=           0
         NFxFlg=           0 DoJE=T BraDBF=F KetDBF=T FulRan=T
         wScrn=  0.000000 ICntrl=       500 IOpCl=  0 I1Cent=   200000004 NGrid=           0
         NMat0=    1 NMatS0=      1 NMatT0=    0 NMatD0=    1 NMtDS0=    0 NMtDT0=    0
 Symmetry not used in FoFCou.
 Harris En= -976.064048715554    
 JPrj=0 DoOrth=F DoCkMO=F.
 Leave Link  401 at Mon Sep  8 14:52:53 2025, MaxMem=  4294967296 cpu:              13.9 elap:               0.9
 (Enter /opt/packages/gaussian/g16RevC.01/g16/l502.exe)
 Two-electron integral symmetry not used.
 Closed shell SCF:
 Using DIIS extrapolation, IDIIS=  1040.
 NGot=  4294967296 LenX=  4294532758 LenY=  4294320698
 Requested convergence on RMS density matrix=1.00D-08 within 128 cycles.
 Requested convergence on MAX density matrix=1.00D-06.
 Requested convergence on             energy=1.00D-06.
 No special actions if energy rises.
 Fock matrices will be formed incrementally for  20 cycles.

 Cycle   1  Pass 1  IDiag  1:
 FoFJK:  IHMeth= 1 ICntrl=       0 DoSepK=T KAlg= 0 I1Cent=           0 FoldK=F
 IRaf=         1 NMat=       1 IRICut=       1 DoRegI=T DoRafI=F ISym2E= 0 IDoP0=0 IntGTp=1.
 FoFCou: FMM=F IPFlag=           0 FMFlag=      100000 FMFlg1=           0
         NFxFlg=           0 DoJE=T BraDBF=F KetDBF=F FulRan=T
         wScrn=  0.000000 ICntrl=       500 IOpCl=  0 I1Cent=           0 NGrid=           0
         NMat0=    1 NMatS0=      1 NMatT0=    0 NMatD0=    1 NMtDS0=    0 NMtDT0=    0
 Symmetry not used in FoFCou.
 Inv3:  Mode=1 IEnd=    16147200.
 Iteration    1 A*A^-1 deviation from unit magnitude is 3.11D-15 for   1244.
 Iteration    1 A*A^-1 deviation from orthogonality  is 2.14D-15 for    685    473.
 Iteration    1 A^-1*A deviation from unit magnitude is 3.22D-15 for     76.
 Iteration    1 A^-1*A deviation from orthogonality  is 7.80D-14 for    970    928.
 E= -1010.73634561187    
 DIIS: error= 5.12D-02 at cycle   1 NSaved=   1.
 NSaved= 1 IEnMin= 1 EnMin= -1010.73634561187     IErMin= 1 ErrMin= 5.12D-02
 ErrMax= 5.12D-02  0.00D+00 EMaxC= 1.00D-01 BMatC= 2.39D+00 BMatP= 2.39D+00
 IDIUse=3 WtCom= 4.88D-01 WtEn= 5.12D-01
 Coeff-Com:  0.100D+01
 Coeff-En:   0.100D+01
 Coeff:      0.100D+01
 Gap=     0.489 Goal=   None    Shift=    0.000
 GapD=    0.489 DampG=2.000 DampE=0.500 DampFc=1.0000 IDamp=-1.
 RMSDP=2.46D-02 MaxDP=1.47D+00              OVMax= 1.05D-01

 Cycle   2  Pass 1  IDiag  1:
 RMSU=  2.01D-02    CP:  7.66D-01
 E= -1010.88819700413     Delta-E=       -0.151851392257 Rises=F Damp=F
 DIIS: error= 1.54D-02 at cycle   2 NSaved=   2.
 NSaved= 2 IEnMin= 2 EnMin= -1010.88819700413     IErMin= 2 ErrMin= 1.54D-02
 ErrMax= 1.54D-02  0.00D+00 EMaxC= 1.00D-01 BMatC= 2.59D-01 BMatP= 2.39D+00
 IDIUse=3 WtCom= 8.46D-01 WtEn= 1.54D-01
 Coeff-Com:  0.198D+00 0.802D+00
 Coeff-En:   0.213D+00 0.787D+00
 Coeff:      0.200D+00 0.800D+00
 Gap=     0.468 Goal=   None    Shift=    0.000
 RMSDP=1.56D-02 MaxDP=1.07D+00 DE=-1.52D-01 OVMax= 1.14D-01

 Cycle   3  Pass 1  IDiag  1:
 RMSU=  6.09D-03    CP:  6.64D-01  3.57D-01
 E= -1010.94780458391     Delta-E=       -0.059607579781 Rises=F Damp=F
 DIIS: error= 1.01D-02 at cycle   3 NSaved=   3.
 NSaved= 3 IEnMin= 3 EnMin= -1010.94780458391     IErMin= 3 ErrMin= 1.01D-02
 ErrMax= 1.01D-02  0.00D+00 EMaxC= 1.00D-01 BMatC= 1.03D-01 BMatP= 2.59D-01
 IDIUse=3 WtCom= 8.99D-01 WtEn= 1.01D-01
 Coeff-Com:  0.490D-01 0.402D+00 0.549D+00
 Coeff-En:   0.000D+00 0.354D+00 0.646D+00
 Coeff:      0.441D-01 0.397D+00 0.559D+00
 Gap=     0.399 Goal=   None    Shift=    0.000
 RMSDP=9.97D-03 MaxDP=6.98D-01 DE=-5.96D-02 OVMax= 5.41D-02

 Cycle   4  Pass 1  IDiag  1:
 RMSU=  2.57D-03    CP:  6.81D-01  8.09D-01  5.04D-01
 E= -1011.01519126621     Delta-E=       -0.067386682303 Rises=F Damp=F
 DIIS: error= 3.20D-03 at cycle   4 NSaved=   4.
 NSaved= 4 IEnMin= 4 EnMin= -1011.01519126621     IErMin= 4 ErrMin= 3.20D-03
 ErrMax= 3.20D-03  0.00D+00 EMaxC= 1.00D-01 BMatC= 6.97D-03 BMatP= 1.03D-01
 IDIUse=3 WtCom= 9.68D-01 WtEn= 3.20D-02
 Coeff-Com:  0.740D-02 0.130D+00 0.273D+00 0.589D+00
 Coeff-En:   0.000D+00 0.000D+00 0.000D+00 0.100D+01
 Coeff:      0.716D-02 0.126D+00 0.264D+00 0.603D+00
 Gap=     0.366 Goal=   None    Shift=    0.000
 RMSDP=2.73D-03 MaxDP=2.13D-01 DE=-6.74D-02 OVMax= 1.63D-02

 Cycle   5  Pass 1  IDiag  1:
 RMSU=  7.42D-04    CP:  6.72D-01  7.01D-01  6.10D-01  5.39D-01
 E= -1011.01941097598     Delta-E=       -0.004219709771 Rises=F Damp=F
 DIIS: error= 6.07D-04 at cycle   5 NSaved=   5.
 NSaved= 5 IEnMin= 5 EnMin= -1011.01941097598     IErMin= 5 ErrMin= 6.07D-04
 ErrMax= 6.07D-04  0.00D+00 EMaxC= 1.00D-01 BMatC= 2.03D-04 BMatP= 6.97D-03
 IDIUse=3 WtCom= 9.94D-01 WtEn= 6.07D-03
 Coeff-Com:  0.432D-03 0.241D-01 0.644D-01 0.222D+00 0.689D+00
 Coeff-En:   0.000D+00 0.000D+00 0.000D+00 0.000D+00 0.100D+01
 Coeff:      0.429D-03 0.240D-01 0.640D-01 0.220D+00 0.691D+00
 Gap=     0.361 Goal=   None    Shift=    0.000
 RMSDP=6.67D-04 MaxDP=6.26D-02 DE=-4.22D-03 OVMax= 2.45D-03

 Cycle   6  Pass 1  IDiag  1:
 RMSU=  1.57D-04    CP:  6.71D-01  7.24D-01  6.08D-01  6.99D-01  7.74D-01
 E= -1011.01956631878     Delta-E=       -0.000155342798 Rises=F Damp=F
 DIIS: error= 1.55D-04 at cycle   6 NSaved=   6.
 NSaved= 6 IEnMin= 6 EnMin= -1011.01956631878     IErMin= 6 ErrMin= 1.55D-04
 ErrMax= 1.55D-04  0.00D+00 EMaxC= 1.00D-01 BMatC= 1.59D-05 BMatP= 2.03D-04
 IDIUse=3 WtCom= 9.98D-01 WtEn= 1.55D-03
 Coeff-Com: -0.474D-03-0.398D-02-0.350D-02 0.222D-01 0.252D+00 0.734D+00
 Coeff-En:   0.000D+00 0.000D+00 0.000D+00 0.000D+00 0.000D+00 0.100D+01
 Coeff:     -0.473D-03-0.397D-02-0.349D-02 0.222D-01 0.252D+00 0.734D+00
 Gap=     0.361 Goal=   None    Shift=    0.000
 RMSDP=1.69D-04 MaxDP=1.45D-02 DE=-1.55D-04 OVMax= 1.03D-03

 Cycle   7  Pass 1  IDiag  1:
 RMSU=  6.34D-05    CP:  6.69D-01  7.21D-01  6.14D-01  6.94D-01  8.38D-01
                    CP:  1.13D+00
 E= -1011.01957864946     Delta-E=       -0.000012330676 Rises=F Damp=F
 DIIS: error= 5.50D-05 at cycle   7 NSaved=   7.
 NSaved= 7 IEnMin= 7 EnMin= -1011.01957864946     IErMin= 7 ErrMin= 5.50D-05
 ErrMax= 5.50D-05  0.00D+00 EMaxC= 1.00D-01 BMatC= 2.49D-06 BMatP= 1.59D-05
 IDIUse=1 WtCom= 1.00D+00 WtEn= 0.00D+00
 Coeff-Com: -0.249D-03-0.453D-02-0.917D-02-0.145D-01 0.476D-01 0.341D+00
 Coeff-Com:  0.640D+00
 Coeff:     -0.249D-03-0.453D-02-0.917D-02-0.145D-01 0.476D-01 0.341D+00
 Coeff:      0.640D+00
 Gap=     0.361 Goal=   None    Shift=    0.000
 RMSDP=7.00D-05 MaxDP=6.03D-03 DE=-1.23D-05 OVMax= 3.51D-04

 Cycle   8  Pass 1  IDiag  1:
 RMSU=  1.70D-05    CP:  6.69D-01  7.24D-01  6.14D-01  7.03D-01  8.31D-01
                    CP:  1.31D+00  8.97D-01
 E= -1011.01958068670     Delta-E=       -0.000002037240 Rises=F Damp=F
 DIIS: error= 1.85D-05 at cycle   8 NSaved=   8.
 NSaved= 8 IEnMin= 8 EnMin= -1011.01958068670     IErMin= 8 ErrMin= 1.85D-05
 ErrMax= 1.85D-05  0.00D+00 EMaxC= 1.00D-01 BMatC= 1.71D-07 BMatP= 2.49D-06
 IDIUse=1 WtCom= 1.00D+00 WtEn= 0.00D+00
 Coeff-Com: -0.398D-04-0.114D-02-0.291D-02-0.797D-02-0.144D-01 0.300D-01
 Coeff-Com:  0.226D+00 0.770D+00
 Coeff:     -0.398D-04-0.114D-02-0.291D-02-0.797D-02-0.144D-01 0.300D-01
 Coeff:      0.226D+00 0.770D+00
 Gap=     0.361 Goal=   None    Shift=    0.000
 RMSDP=1.44D-05 MaxDP=8.88D-04 DE=-2.04D-06 OVMax= 1.45D-04

 Cycle   9  Pass 1  IDiag  1:
 RMSU=  8.75D-06    CP:  6.69D-01  7.24D-01  6.14D-01  7.04D-01  8.36D-01
                    CP:  1.33D+00  9.62D-01  9.58D-01
 E= -1011.01958091451     Delta-E=       -0.000000227815 Rises=F Damp=F
 DIIS: error= 4.81D-06 at cycle   9 NSaved=   9.
 NSaved= 9 IEnMin= 9 EnMin= -1011.01958091451     IErMin= 9 ErrMin= 4.81D-06
 ErrMax= 4.81D-06  0.00D+00 EMaxC= 1.00D-01 BMatC= 2.02D-08 BMatP= 1.71D-07
 IDIUse=1 WtCom= 1.00D+00 WtEn= 0.00D+00
 Coeff-Com:  0.151D-04 0.217D-03 0.322D-03-0.404D-03-0.112D-01-0.384D-01
 Coeff-Com: -0.230D-01 0.257D+00 0.815D+00
 Coeff:      0.151D-04 0.217D-03 0.322D-03-0.404D-03-0.112D-01-0.384D-01
 Coeff:     -0.230D-01 0.257D+00 0.815D+00
 Gap=     0.361 Goal=   None    Shift=    0.000
 RMSDP=5.88D-06 MaxDP=4.21D-04 DE=-2.28D-07 OVMax= 6.75D-05

 Cycle  10  Pass 1  IDiag  1:
 RMSU=  2.77D-06    CP:  6.69D-01  7.24D-01  6.14D-01  7.05D-01  8.35D-01
                    CP:  1.34D+00  9.83D-01  1.03D+00  1.46D+00
 E= -1011.01958094761     Delta-E=       -0.000000033102 Rises=F Damp=F
 DIIS: error= 1.58D-06 at cycle  10 NSaved=  10.
 NSaved=10 IEnMin=10 EnMin= -1011.01958094761     IErMin=10 ErrMin= 1.58D-06
 ErrMax= 1.58D-06  0.00D+00 EMaxC= 1.00D-01 BMatC= 1.19D-09 BMatP= 2.02D-08
 IDIUse=1 WtCom= 1.00D+00 WtEn= 0.00D+00
 Coeff-Com:  0.589D-05 0.996D-04 0.220D-03 0.396D-03-0.113D-02-0.755D-02
 Coeff-Com: -0.225D-01-0.633D-02 0.155D+00 0.882D+00
 Coeff:      0.589D-05 0.996D-04 0.220D-03 0.396D-03-0.113D-02-0.755D-02
 Coeff:     -0.225D-01-0.633D-02 0.155D+00 0.882D+00
 Gap=     0.361 Goal=   None    Shift=    0.000
 RMSDP=1.81D-06 MaxDP=1.42D-04 DE=-3.31D-08 OVMax= 1.97D-05

 Cycle  11  Pass 1  IDiag  1:
 RMSU=  5.94D-07    CP:  6.69D-01  7.24D-01  6.14D-01  7.04D-01  8.35D-01
                    CP:  1.34D+00  9.83D-01  1.06D+00  1.62D+00  1.07D+00
 E= -1011.01958095012     Delta-E=       -0.000000002512 Rises=F Damp=F
 DIIS: error= 6.86D-07 at cycle  11 NSaved=  11.
 NSaved=11 IEnMin=11 EnMin= -1011.01958095012     IErMin=11 ErrMin= 6.86D-07
 ErrMax= 6.86D-07  0.00D+00 EMaxC= 1.00D-01 BMatC= 2.04D-10 BMatP= 1.19D-09
 IDIUse=1 WtCom= 1.00D+00 WtEn= 0.00D+00
 Coeff-Com: -0.331D-06 0.739D-05 0.352D-04 0.207D-03 0.118D-02 0.302D-02
 Coeff-Com: -0.458D-02-0.370D-01-0.684D-01 0.258D+00 0.848D+00
 Coeff:     -0.331D-06 0.739D-05 0.352D-04 0.207D-03 0.118D-02 0.302D-02
 Coeff:     -0.458D-02-0.370D-01-0.684D-01 0.258D+00 0.848D+00
 Gap=     0.361 Goal=   None    Shift=    0.000
 RMSDP=1.00D-06 MaxDP=6.27D-05 DE=-2.51D-09 OVMax= 7.80D-06

 Cycle  12  Pass 1  IDiag  1:
 RMSU=  2.59D-07    CP:  6.69D-01  7.24D-01  6.14D-01  7.04D-01  8.35D-01
                    CP:  1.34D+00  9.80D-01  1.06D+00  1.69D+00  1.15D+00
                    CP:  1.29D+00
 E= -1011.01958095052     Delta-E=       -0.000000000391 Rises=F Damp=F
 DIIS: error= 2.43D-07 at cycle  12 NSaved=  12.
 NSaved=12 IEnMin=12 EnMin= -1011.01958095052     IErMin=12 ErrMin= 2.43D-07
 ErrMax= 2.43D-07  0.00D+00 EMaxC= 1.00D-01 BMatC= 2.01D-11 BMatP= 2.04D-10
 IDIUse=1 WtCom= 1.00D+00 WtEn= 0.00D+00
 Coeff-Com: -0.475D-06-0.370D-05-0.210D-05 0.438D-04 0.473D-03 0.135D-02
 Coeff-Com:  0.494D-03-0.111D-01-0.307D-01 0.278D-01 0.237D+00 0.775D+00
 Coeff:     -0.475D-06-0.370D-05-0.210D-05 0.438D-04 0.473D-03 0.135D-02
 Coeff:      0.494D-03-0.111D-01-0.307D-01 0.278D-01 0.237D+00 0.775D+00
 Gap=     0.361 Goal=   None    Shift=    0.000
 RMSDP=1.94D-07 MaxDP=1.39D-05 DE=-3.91D-10 OVMax= 2.67D-06

 Cycle  13  Pass 1  IDiag  1:
 RMSU=  6.55D-08    CP:  6.69D-01  7.24D-01  6.14D-01  7.04D-01  8.34D-01
                    CP:  1.34D+00  9.80D-01  1.05D+00  1.69D+00  1.16D+00
                    CP:  1.41D+00  1.35D+00
 E= -1011.01958095055     Delta-E=       -0.000000000032 Rises=F Damp=F
 DIIS: error= 1.45D-07 at cycle  13 NSaved=  13.
 NSaved=13 IEnMin=13 EnMin= -1011.01958095055     IErMin=13 ErrMin= 1.45D-07
 ErrMax= 1.45D-07  0.00D+00 EMaxC= 1.00D-01 BMatC= 4.53D-12 BMatP= 2.01D-11
 IDIUse=1 WtCom= 1.00D+00 WtEn= 0.00D+00
 Coeff-Com:  0.248D-07-0.230D-05-0.765D-05-0.322D-04-0.123D-03-0.346D-03
 Coeff-Com:  0.127D-02 0.451D-02 0.596D-02-0.460D-01-0.136D+00 0.242D+00
 Coeff-Com:  0.929D+00
 Coeff:      0.248D-07-0.230D-05-0.765D-05-0.322D-04-0.123D-03-0.346D-03
 Coeff:      0.127D-02 0.451D-02 0.596D-02-0.460D-01-0.136D+00 0.242D+00
 Coeff:      0.929D+00
 Gap=     0.361 Goal=   None    Shift=    0.000
 RMSDP=9.54D-08 MaxDP=7.33D-06 DE=-3.23D-11 OVMax= 1.88D-06

 Cycle  14  Pass 1  IDiag  1:
 RMSU=  3.01D-08    CP:  6.69D-01  7.24D-01  6.14D-01  7.04D-01  8.34D-01
                    CP:  1.34D+00  9.80D-01  1.05D+00  1.69D+00  1.16D+00
                    CP:  1.48D+00  1.58D+00  1.23D+00
 E= -1011.01958095057     Delta-E=       -0.000000000027 Rises=F Damp=F
 DIIS: error= 3.60D-08 at cycle  14 NSaved=  14.
 NSaved=14 IEnMin=14 EnMin= -1011.01958095057     IErMin=14 ErrMin= 3.60D-08
 ErrMax= 3.60D-08  0.00D+00 EMaxC= 1.00D-01 BMatC= 2.42D-13 BMatP= 4.53D-12
 IDIUse=1 WtCom= 1.00D+00 WtEn= 0.00D+00
 Coeff-Com:  0.143D-07-0.126D-08-0.560D-06-0.622D-05-0.457D-04-0.769D-04
 Coeff-Com: -0.206D-04 0.951D-03 0.257D-02-0.440D-02-0.242D-01-0.543D-01
 Coeff-Com:  0.235D-01 0.106D+01
 Coeff:      0.143D-07-0.126D-08-0.560D-06-0.622D-05-0.457D-04-0.769D-04
 Coeff:     -0.206D-04 0.951D-03 0.257D-02-0.440D-02-0.242D-01-0.543D-01
 Coeff:      0.235D-01 0.106D+01
 Gap=     0.361 Goal=   None    Shift=    0.000
 RMSDP=2.75D-08 MaxDP=2.72D-06 DE=-2.73D-11 OVMax= 5.62D-07

 Cycle  15  Pass 1  IDiag  1:
 RMSU=  7.81D-09    CP:  6.69D-01  7.24D-01  6.14D-01  7.04D-01  8.34D-01
                    CP:  1.34D+00  9.80D-01  1.05D+00  1.69D+00  1.16D+00
                    CP:  1.48D+00  1.62D+00  1.40D+00  1.30D+00
 E= -1011.01958095058     Delta-E=       -0.000000000008 Rises=F Damp=F
 DIIS: error= 1.43D-08 at cycle  15 NSaved=  15.
 NSaved=15 IEnMin=15 EnMin= -1011.01958095058     IErMin=15 ErrMin= 1.43D-08
 ErrMax= 1.43D-08  0.00D+00 EMaxC= 1.00D-01 BMatC= 5.53D-14 BMatP= 2.42D-13
 IDIUse=1 WtCom= 1.00D+00 WtEn= 0.00D+00
 Coeff-Com:  0.432D-08 0.330D-06 0.841D-06 0.161D-05-0.450D-05 0.123D-04
 Coeff-Com: -0.177D-03-0.194D-03 0.328D-03 0.409D-02 0.919D-02-0.486D-01
 Coeff-Com: -0.103D+00 0.393D+00 0.745D+00
 Coeff:      0.432D-08 0.330D-06 0.841D-06 0.161D-05-0.450D-05 0.123D-04
 Coeff:     -0.177D-03-0.194D-03 0.328D-03 0.409D-02 0.919D-02-0.486D-01
 Coeff:     -0.103D+00 0.393D+00 0.745D+00
 Gap=     0.361 Goal=   None    Shift=    0.000
 RMSDP=9.28D-09 MaxDP=1.10D-06 DE=-7.96D-12 OVMax= 1.73D-07

 Cycle  16  Pass 1  IDiag  1:
 RMSU=  2.59D-09    CP:  6.69D-01  7.24D-01  6.14D-01  7.04D-01  8.34D-01
                    CP:  1.34D+00  9.80D-01  1.05D+00  1.69D+00  1.16D+00
                    CP:  1.48D+00  1.62D+00  1.43D+00  1.38D+00  1.24D+00
 E= -1011.01958095058     Delta-E=        0.000000000001 Rises=F Damp=F
 DIIS: error= 6.16D-09 at cycle  16 NSaved=  16.
 NSaved=16 IEnMin=15 EnMin= -1011.01958095058     IErMin=16 ErrMin= 6.16D-09
 ErrMax= 6.16D-09  0.00D+00 EMaxC= 1.00D-01 BMatC= 5.55D-15 BMatP= 5.53D-14
 IDIUse=1 WtCom= 1.00D+00 WtEn= 0.00D+00
 Coeff-Com: -0.581D-10 0.307D-07 0.190D-06 0.103D-05 0.551D-05 0.756D-05
 Coeff-Com: -0.581D-05-0.128D-03-0.249D-03 0.637D-03 0.406D-02 0.263D-02
 Coeff-Com: -0.962D-02-0.140D+00 0.958D-01 0.105D+01
 Coeff:     -0.581D-10 0.307D-07 0.190D-06 0.103D-05 0.551D-05 0.756D-05
 Coeff:     -0.581D-05-0.128D-03-0.249D-03 0.637D-03 0.406D-02 0.263D-02
 Coeff:     -0.962D-02-0.140D+00 0.958D-01 0.105D+01
 Gap=     0.361 Goal=   None    Shift=    0.000
 RMSDP=3.85D-09 MaxDP=2.60D-07 DE= 1.36D-12 OVMax= 1.02D-07

 Error on total polarization charges =  0.03982
 SCF Done:  E(RwB97XD) =  -1011.01958095     A.U. after   16 cycles
            NFock= 16  Conv=0.38D-08     -V/T= 2.0033
 KE= 1.007694293004D+03 PE=-4.764355898366D+03 EE= 1.550414511804D+03
 SMD-CDS (non-electrostatic) energy       (kcal/mol) =      -3.02
 (included in total energy above)
 Leave Link  502 at Mon Sep  8 14:54:07 2025, MaxMem=  4294967296 cpu:            1177.5 elap:              74.5
 (Enter /opt/packages/gaussian/g16RevC.01/g16/l601.exe)
 Copying SCF densities to generalized density rwf, IOpCl= 0 IROHF=0.

 **********************************************************************

            Population analysis using the SCF Density.

 **********************************************************************

 Alpha  occ. eigenvalues --  -77.30734 -19.29711 -19.20198 -14.48293 -10.30664
 Alpha  occ. eigenvalues --  -10.30524 -10.30309 -10.30283 -10.30200 -10.30119
 Alpha  occ. eigenvalues --  -10.29883 -10.29840 -10.29620 -10.29600 -10.29546
 Alpha  occ. eigenvalues --  -10.29498  -6.75190  -4.90060  -4.89773  -4.89755
 Alpha  occ. eigenvalues --   -1.18929  -1.07172  -0.97192  -0.96836  -0.92271
 Alpha  occ. eigenvalues --   -0.87017  -0.85817  -0.85685  -0.85403  -0.74086
 Alpha  occ. eigenvalues --   -0.71117  -0.70944  -0.70137  -0.66153  -0.62670
 Alpha  occ. eigenvalues --   -0.61560  -0.60253  -0.58303  -0.55909  -0.55071
 Alpha  occ. eigenvalues --   -0.54841  -0.54050  -0.52673  -0.51651  -0.51475
 Alpha  occ. eigenvalues --   -0.50944  -0.48211  -0.47084  -0.46666  -0.44542
 Alpha  occ. eigenvalues --   -0.44051  -0.43356  -0.43045  -0.40296  -0.38895
 Alpha  occ. eigenvalues --   -0.36687  -0.36085  -0.34647  -0.34178  -0.34028
 Alpha  occ. eigenvalues --   -0.33676
 Alpha virt. eigenvalues --    0.02450   0.02924   0.04071   0.04268   0.04912
 Alpha virt. eigenvalues --    0.05217   0.05457   0.05779   0.06344   0.06934
 Alpha virt. eigenvalues --    0.07362   0.07755   0.08516   0.09365   0.09882
 Alpha virt. eigenvalues --    0.10248   0.10660   0.11896   0.12380   0.13459
 Alpha virt. eigenvalues --    0.13866   0.14489   0.14759   0.15213   0.15519
 Alpha virt. eigenvalues --    0.15685   0.15880   0.16319   0.16679   0.17144
 Alpha virt. eigenvalues --    0.17224   0.17594   0.17865   0.18083   0.18332
 Alpha virt. eigenvalues --    0.18715   0.18903   0.19440   0.19641   0.19945
 Alpha virt. eigenvalues --    0.20251   0.20639   0.21009   0.21238   0.21746
 Alpha virt. eigenvalues --    0.22064   0.22242   0.22741   0.23156   0.23351
 Alpha virt. eigenvalues --    0.23625   0.23831   0.24205   0.24547   0.25003
 Alpha virt. eigenvalues --    0.25373   0.26149   0.26641   0.26870   0.27414
 Alpha virt. eigenvalues --    0.27627   0.28043   0.28606   0.28950   0.29587
 Alpha virt. eigenvalues --    0.29680   0.30173   0.30490   0.31057   0.31471
 Alpha virt. eigenvalues --    0.31816   0.32457   0.32598   0.33153   0.33305
 Alpha virt. eigenvalues --    0.34082   0.34572   0.34723   0.35483   0.36035
 Alpha virt. eigenvalues --    0.36231   0.36813   0.37328   0.37823   0.38469
 Alpha virt. eigenvalues --    0.38827   0.38940   0.39838   0.40713   0.41053
 Alpha virt. eigenvalues --    0.41698   0.42325   0.42527   0.43040   0.43543
 Alpha virt. eigenvalues --    0.43643   0.44767   0.45062   0.46141   0.46960
 Alpha virt. eigenvalues --    0.48619   0.49221   0.51276   0.52509   0.53658
 Alpha virt. eigenvalues --    0.55385   0.56718   0.57225   0.58798   0.60079
 Alpha virt. eigenvalues --    0.61961   0.62477   0.62706   0.62784   0.63602
 Alpha virt. eigenvalues --    0.64122   0.64288   0.64680   0.65214   0.65341
 Alpha virt. eigenvalues --    0.66381   0.67114   0.67383   0.68614   0.69542
 Alpha virt. eigenvalues --    0.70291   0.70593   0.71158   0.72268   0.73477
 Alpha virt. eigenvalues --    0.75144   0.75604   0.75897   0.77121   0.77884
 Alpha virt. eigenvalues --    0.78483   0.79150   0.80473   0.80709   0.81083
 Alpha virt. eigenvalues --    0.81820   0.82710   0.83175   0.84710   0.85362
 Alpha virt. eigenvalues --    0.85919   0.86211   0.88951   0.89809   0.90103
 Alpha virt. eigenvalues --    0.91785   0.92804   0.93217   0.93691   0.94707
 Alpha virt. eigenvalues --    0.94969   0.95909   0.96185   0.96690   0.97692
 Alpha virt. eigenvalues --    0.98313   0.98690   0.99276   0.99864   1.01171
 Alpha virt. eigenvalues --    1.01566   1.02344   1.03580   1.04962   1.07158
 Alpha virt. eigenvalues --    1.08197   1.09475   1.09734   1.10065   1.11208
 Alpha virt. eigenvalues --    1.11798   1.13412   1.14591   1.15007   1.16268
 Alpha virt. eigenvalues --    1.16868   1.17459   1.19205   1.20473   1.21367
 Alpha virt. eigenvalues --    1.23050   1.23355   1.24271   1.28022   1.28933
 Alpha virt. eigenvalues --    1.29995   1.32284   1.34472   1.36246   1.38706
 Alpha virt. eigenvalues --    1.39818   1.40332   1.41428   1.44400   1.45818
 Alpha virt. eigenvalues --    1.48748   1.50029   1.56540   1.58784   1.60381
 Alpha virt. eigenvalues --    1.61071   1.61554   1.61852   1.62845   1.64747
 Alpha virt. eigenvalues --    1.65149   1.65321   1.65743   1.66734   1.66954
 Alpha virt. eigenvalues --    1.70964   1.72246   1.73127   1.73956   1.74937
 Alpha virt. eigenvalues --    1.75133   1.75951   1.78296   1.79780   1.81791
 Alpha virt. eigenvalues --    1.83108   1.83238   1.85094   1.86285   1.86976
 Alpha virt. eigenvalues --    1.87705   1.90141   1.92190   1.92976   1.94393
 Alpha virt. eigenvalues --    1.97146   1.97855   1.98557   2.00314   2.00376
 Alpha virt. eigenvalues --    2.00667   2.01107   2.02224   2.03900   2.04508
 Alpha virt. eigenvalues --    2.05579   2.06498   2.06973   2.07177   2.09560
 Alpha virt. eigenvalues --    2.10606   2.11088   2.11442   2.12141   2.12691
 Alpha virt. eigenvalues --    2.15007   2.16975   2.17531   2.19084   2.21180
 Alpha virt. eigenvalues --    2.23034   2.24357   2.34697   2.36004   2.37338
 Alpha virt. eigenvalues --    2.37730   2.41618   2.41836   2.42290   2.46740
 Alpha virt. eigenvalues --    2.51180   2.51814   2.54770   2.56322   2.56615
 Alpha virt. eigenvalues --    2.57152   2.61379   2.63336   2.64691   2.70062
 Alpha virt. eigenvalues --    2.72171   2.73314   2.74972   2.76348   2.78869
 Alpha virt. eigenvalues --    2.79916   2.80150   2.80555   2.81383   2.82253
 Alpha virt. eigenvalues --    2.82708   2.83273   2.84570   2.85439   2.86745
 Alpha virt. eigenvalues --    2.87704   2.90040   2.91552   2.91769   2.92680
 Alpha virt. eigenvalues --    2.92851   2.93087   2.94222   2.94471   2.95537
 Alpha virt. eigenvalues --    2.96851   2.98268   3.00241   3.00607   3.02958
 Alpha virt. eigenvalues --    3.03532   3.03799   3.04349   3.04849   3.05945
 Alpha virt. eigenvalues --    3.11372   3.14720   3.17552   3.18507   3.20660
 Alpha virt. eigenvalues --    3.21160   3.21977   3.28044   3.29275   3.32600
 Alpha virt. eigenvalues --    3.40984   3.41971   3.45473   3.45512   3.48111
 Alpha virt. eigenvalues --    3.49340   3.51439   3.59987   3.61129   3.63413
 Alpha virt. eigenvalues --    3.64434   3.69466   3.72183   3.73819   3.91197
 Alpha virt. eigenvalues --    3.91504   4.09176   4.09938   4.14322   4.14472
 Alpha virt. eigenvalues --    4.24477   4.25056   4.25521   4.26016   4.32127
 Alpha virt. eigenvalues --    4.53751   4.75644   4.93865   4.94373   5.19926
 Alpha virt. eigenvalues --    5.21563   5.23285   5.28591   5.37553   5.65809
 Alpha virt. eigenvalues --    7.42003  14.18012  14.28987  14.36751  23.70989
 Alpha virt. eigenvalues --   23.74892  24.07799  24.09047  24.09490  24.11439
 Alpha virt. eigenvalues --   24.19390  24.19661  24.22033  24.22592  24.31416
 Alpha virt. eigenvalues --   24.31661  35.64654  50.05141  50.12095 163.62518
          Condensed to atoms (all electrons):
               1          2          3          4          5          6
     1  P   19.629409   0.667614   0.758463  -0.460812   0.026842  -0.039426
     2  O    0.667614   8.113235   0.096507  -0.012573  -0.000985  -0.000719
     3  O    0.758463   0.096507   8.443386  -0.185257  -0.006007  -0.064575
     4  N   -0.460812  -0.012573  -0.185257   7.180736   0.293435   0.369452
     5  H    0.026842  -0.000985  -0.006007   0.293435   0.411299  -0.040582
     6  H   -0.039426  -0.000719  -0.064575   0.369452  -0.040582   0.400140
     7  C    0.891915  -0.013706  -0.233947  -0.447768   0.067991   0.002217
     8  C   -0.186475  -0.135232  -0.088440   0.492653  -0.053399  -0.008574
     9  C   -0.647185   0.083759  -0.030875  -0.049650   0.004947   0.001900
    10  C    0.189214   0.030604   0.191644   0.072555  -0.001194  -0.010482
    11  H   -0.095828   0.008667   0.014099   0.017285  -0.007175   0.001869
    12  C   -1.888563  -0.048760  -0.091747   0.083274  -0.008041   0.004306
    13  H   -0.138474  -0.005235  -0.009228   0.004520  -0.000513   0.000421
    14  C   -0.216293   0.002670   0.009046   0.028988   0.001566  -0.001585
    15  H    0.005117  -0.000390   0.000337  -0.001063  -0.000019   0.000047
    16  H    0.000438  -0.000152   0.000118  -0.000531  -0.000025   0.000007
    17  H   -0.004050   0.000066  -0.000115  -0.000144   0.000029   0.000035
    18  C   -2.129315  -0.797486  -0.411266  -0.007085   0.009638   0.025692
    19  C   -1.006032   0.206051  -0.031955   0.063704  -0.011797   0.019067
    20  C   -0.182494  -0.076232  -0.207368   0.107727  -0.008275   0.010333
    21  C    1.253330   0.213384   0.072130   0.017291   0.000201  -0.009922
    22  H   -0.126149  -0.025265  -0.015234   0.003360  -0.000738   0.001754
    23  C   -1.443415  -0.039722  -0.106835   0.014481  -0.006843   0.018362
    24  H   -0.192465  -0.009607  -0.030418   0.013797  -0.001415  -0.000618
    25  C   -0.401429   0.003215  -0.027966   0.010411  -0.001870   0.006687
    26  H    0.028400   0.001419   0.001123  -0.000515   0.000111  -0.000378
    27  H    0.027893   0.000679   0.002340  -0.002314   0.000110   0.000089
    28  H   -0.027087  -0.000615  -0.001103   0.000075  -0.000037   0.000344
               7          8          9         10         11         12
     1  P    0.891915  -0.186475  -0.647185   0.189214  -0.095828  -1.888563
     2  O   -0.013706  -0.135232   0.083759   0.030604   0.008667  -0.048760
     3  O   -0.233947  -0.088440  -0.030875   0.191644   0.014099  -0.091747
     4  N   -0.447768   0.492653  -0.049650   0.072555   0.017285   0.083274
     5  H    0.067991  -0.053399   0.004947  -0.001194  -0.007175  -0.008041
     6  H    0.002217  -0.008574   0.001900  -0.010482   0.001869   0.004306
     7  C   15.891131  -1.964781  -1.161208  -2.330908  -0.141102  -3.048874
     8  C   -1.964781  14.891047  -6.894568  -0.393330   0.427978   1.036459
     9  C   -1.161208  -6.894568  17.128844   0.137989   0.036315  -1.254151
    10  C   -2.330908  -0.393330   0.137989   8.086340   0.005965  -0.317429
    11  H   -0.141102   0.427978   0.036315   0.005965   0.438634   0.058948
    12  C   -3.048874   1.036459  -1.254151  -0.317429   0.058948   9.994012
    13  H   -0.134916  -0.049929   0.536547   0.016710   0.000629  -0.011245
    14  C   -0.561916  -0.818302  -1.442872   0.665057  -0.004883   1.222721
    15  H    0.011914  -0.117036   0.045985   0.439821  -0.006050  -0.007130
    16  H    0.005495   0.030658  -0.053174   0.011778   0.000892   0.394366
    17  H    0.028384  -0.017201  -0.016115  -0.063044   0.000552  -0.059017
    18  C    0.641084  -0.916576  -0.778515  -0.558925  -0.064096  -0.684672
    19  C   -0.589097   0.257501   0.339398   0.123496   0.021936   0.238325
    20  C   -0.269738   0.471981  -0.197483  -0.064582   0.008110   0.172036
    21  C   -0.276039   0.060019   0.294634   0.039820   0.007249   0.036062
    22  H    0.022200   0.005445  -0.030385  -0.004481  -0.000333   0.000074
    23  C   -0.353140   0.170256  -0.034714  -0.045215   0.001597   0.389273
    24  H   -0.029042  -0.020820   0.086360   0.001015   0.001573   0.077472
    25  C    0.149018   0.058851  -0.112259  -0.011028  -0.000531   0.046885
    26  H   -0.006071  -0.000949   0.002088   0.000220  -0.000001  -0.001025
    27  H   -0.002737  -0.000971  -0.003805   0.000740  -0.000034  -0.010555
    28  H    0.000187  -0.000969   0.000715  -0.000492  -0.000022   0.001983
              13         14         15         16         17         18
     1  P   -0.138474  -0.216293   0.005117   0.000438  -0.004050  -2.129315
     2  O   -0.005235   0.002670  -0.000390  -0.000152   0.000066  -0.797486
     3  O   -0.009228   0.009046   0.000337   0.000118  -0.000115  -0.411266
     4  N    0.004520   0.028988  -0.001063  -0.000531  -0.000144  -0.007085
     5  H   -0.000513   0.001566  -0.000019  -0.000025   0.000029   0.009638
     6  H    0.000421  -0.001585   0.000047   0.000007   0.000035   0.025692
     7  C   -0.134916  -0.561916   0.011914   0.005495   0.028384   0.641084
     8  C   -0.049929  -0.818302  -0.117036   0.030658  -0.017201  -0.916576
     9  C    0.536547  -1.442872   0.045985  -0.053174  -0.016115  -0.778515
    10  C    0.016710   0.665057   0.439821   0.011778  -0.063044  -0.558925
    11  H    0.000629  -0.004883  -0.006050   0.000892   0.000552  -0.064096
    12  C   -0.011245   1.222721  -0.007130   0.394366  -0.059017  -0.684672
    13  H    0.439671   0.004936   0.000482  -0.007265   0.001126   0.007603
    14  C    0.004936   7.114635  -0.052057  -0.059976   0.465490   0.050671
    15  H    0.000482  -0.052057   0.416380   0.001562  -0.007879  -0.006437
    16  H   -0.007265  -0.059976   0.001562   0.414607  -0.008301  -0.013704
    17  H    0.001126   0.465490  -0.007879  -0.008301   0.426454   0.002395
    18  C    0.007603   0.050671  -0.006437  -0.013704   0.002395  16.761144
    19  C    0.029755   0.012136   0.000837   0.000005  -0.000026  -1.077902
    20  C   -0.002740  -0.014384  -0.000958  -0.000633   0.000750   0.710441
    21  C    0.015622   0.000239   0.000109   0.000125  -0.000090  -3.169749
    22  H    0.001035  -0.001346   0.000019   0.000008   0.000004   0.158963
    23  C    0.023375   0.002109   0.000350   0.004459  -0.000070  -1.728970
    24  H    0.015368   0.018728   0.000056  -0.001577  -0.000164   0.017604
    25  C   -0.000860   0.002834   0.000036   0.001278  -0.000032   0.362883
    26  H   -0.000115   0.000007  -0.000003  -0.000013  -0.000001  -0.004292
    27  H   -0.001579  -0.001332  -0.000006  -0.000087   0.000030   0.004091
    28  H    0.000004   0.000251  -0.000002   0.000010  -0.000000   0.039961
              19         20         21         22         23         24
     1  P   -1.006032  -0.182494   1.253330  -0.126149  -1.443415  -0.192465
     2  O    0.206051  -0.076232   0.213384  -0.025265  -0.039722  -0.009607
     3  O   -0.031955  -0.207368   0.072130  -0.015234  -0.106835  -0.030418
     4  N    0.063704   0.107727   0.017291   0.003360   0.014481   0.013797
     5  H   -0.011797  -0.008275   0.000201  -0.000738  -0.006843  -0.001415
     6  H    0.019067   0.010333  -0.009922   0.001754   0.018362  -0.000618
     7  C   -0.589097  -0.269738  -0.276039   0.022200  -0.353140  -0.029042
     8  C    0.257501   0.471981   0.060019   0.005445   0.170256  -0.020820
     9  C    0.339398  -0.197483   0.294634  -0.030385  -0.034714   0.086360
    10  C    0.123496  -0.064582   0.039820  -0.004481  -0.045215   0.001015
    11  H    0.021936   0.008110   0.007249  -0.000333   0.001597   0.001573
    12  C    0.238325   0.172036   0.036062   0.000074   0.389273   0.077472
    13  H    0.029755  -0.002740   0.015622   0.001035   0.023375   0.015368
    14  C    0.012136  -0.014384   0.000239  -0.001346   0.002109   0.018728
    15  H    0.000837  -0.000958   0.000109   0.000019   0.000350   0.000056
    16  H    0.000005  -0.000633   0.000125   0.000008   0.004459  -0.001577
    17  H   -0.000026   0.000750  -0.000090   0.000004  -0.000070  -0.000164
    18  C   -1.077902   0.710441  -3.169749   0.158963  -1.728970   0.017604
    19  C    8.925714  -0.273960  -1.661282   0.481387   0.735532   0.025866
    20  C   -0.273960   7.598199   0.405371   0.007265  -1.204955   0.399210
    21  C   -1.661282   0.405371   9.312237  -0.203828  -0.529427   0.021187
    22  H    0.481387   0.007265  -0.203828   0.420894   0.038594   0.000848
    23  C    0.735532  -1.204955  -0.529427   0.038594   9.261230  -0.063405
    24  H    0.025866   0.399210   0.021187   0.000848  -0.063405   0.448801
    25  C   -0.772569  -1.317856   0.181516  -0.008387   1.004743  -0.018310
    26  H   -0.150358   0.040016   0.475167  -0.008835  -0.007517   0.000295
    27  H    0.002649   0.022876   0.010163   0.000238   0.368399  -0.011106
    28  H    0.060522  -0.053294  -0.114430   0.002582  -0.056948   0.001838
              25         26         27         28
     1  P   -0.401429   0.028400   0.027893  -0.027087
     2  O    0.003215   0.001419   0.000679  -0.000615
     3  O   -0.027966   0.001123   0.002340  -0.001103
     4  N    0.010411  -0.000515  -0.002314   0.000075
     5  H   -0.001870   0.000111   0.000110  -0.000037
     6  H    0.006687  -0.000378   0.000089   0.000344
     7  C    0.149018  -0.006071  -0.002737   0.000187
     8  C    0.058851  -0.000949  -0.000971  -0.000969
     9  C   -0.112259   0.002088  -0.003805   0.000715
    10  C   -0.011028   0.000220   0.000740  -0.000492
    11  H   -0.000531  -0.000001  -0.000034  -0.000022
    12  C    0.046885  -0.001025  -0.010555   0.001983
    13  H   -0.000860  -0.000115  -0.001579   0.000004
    14  C    0.002834   0.000007  -0.001332   0.000251
    15  H    0.000036  -0.000003  -0.000006  -0.000002
    16  H    0.001278  -0.000013  -0.000087   0.000010
    17  H   -0.000032  -0.000001   0.000030  -0.000000
    18  C    0.362883  -0.004292   0.004091   0.039961
    19  C   -0.772569  -0.150358   0.002649   0.060522
    20  C   -1.317856   0.040016   0.022876  -0.053294
    21  C    0.181516   0.475167   0.010163  -0.114430
    22  H   -0.008387  -0.008835   0.000238   0.002582
    23  C    1.004743  -0.007517   0.368399  -0.056948
    24  H   -0.018310   0.000295  -0.011106   0.001838
    25  C    6.932288  -0.051753  -0.098006   0.484394
    26  H   -0.051753   0.413692   0.002088  -0.010862
    27  H   -0.098006   0.002088   0.423037  -0.010390
    28  H    0.484394  -0.010862  -0.010390   0.431796
 Mulliken charges:
               1
     1  P    0.706857
     2  O   -0.261191
     3  O   -0.046853
     4  N   -0.606032
     5  H    0.332745
     6  H    0.314139
     7  C   -0.146545
     8  C   -0.235297
     9  C    0.007478
    10  C   -0.211858
    11  H    0.267756
    12  C   -0.324989
    13  H    0.264295
    14  C   -0.427138
    15  H    0.275978
    16  H    0.279633
    17  H    0.250935
    18  C   -0.443178
    19  C    0.031095
    20  C   -0.079364
    21  C   -0.451089
    22  H    0.280309
    23  C   -0.411584
    24  H    0.248930
    25  C   -0.422182
    26  H    0.278061
    27  H    0.277499
    28  H    0.251589
 Sum of Mulliken charges =  -0.00000
 Mulliken charges with hydrogens summed into heavy atoms:
               1
     1  P    0.706857
     2  O   -0.261191
     3  O   -0.046853
     4  N    0.040852
     7  C   -0.146545
     8  C    0.032459
     9  C    0.271773
    10  C    0.064120
    12  C   -0.045356
    14  C   -0.176203
    18  C   -0.443178
    19  C    0.311404
    20  C    0.169567
    21  C   -0.173028
    23  C   -0.134085
    25  C   -0.170593
 Electronic spatial extent (au):  <R**2>=           7179.2089
 Charge=             -0.0000 electrons
 Dipole moment (field-independent basis, Debye):
    X=             -3.4255    Y=             -2.7148    Z=             -5.3364  Tot=              6.8980
 Quadrupole moment (field-independent basis, Debye-Ang):
   XX=            -83.5206   YY=            -70.1605   ZZ=           -103.1206
   XY=             11.9212   XZ=             -5.1920   YZ=              1.3754
 Traceless Quadrupole moment (field-independent basis, Debye-Ang):
   XX=              2.0800   YY=             15.4401   ZZ=            -17.5200
   XY=             11.9212   XZ=             -5.1920   YZ=              1.3754
 Octapole moment (field-independent basis, Debye-Ang**2):
  XXX=            157.4698  YYY=            583.7754  ZZZ=            -42.6685  XYY=             48.2844
  XXY=            218.7371  XXZ=             22.0418  XZZ=             67.8660  YZZ=            271.3075
  YYZ=             24.5240  XYZ=             29.8100
 Hexadecapole moment (field-independent basis, Debye-Ang**3):
 XXXX=           -765.4844 YYYY=          -5571.6371 ZZZZ=          -1482.4328 XXXY=           -466.4566
 XXXZ=             57.2749 YYYX=           -525.0787 YYYZ=            267.2692 ZZZX=            141.5590
 ZZZY=            498.1053 XXYY=          -1238.8997 XXZZ=           -442.7234 YYZZ=          -1415.7367
 XXYZ=             88.1797 YYXZ=           -151.2854 ZZXY=           -149.7542
 N-N= 1.195227512607D+03 E-N=-4.764355897910D+03  KE= 1.007694293004D+03
 No NMR shielding tensors so no spin-rotation constants.
 Leave Link  601 at Mon Sep  8 14:54:08 2025, MaxMem=  4294967296 cpu:               1.5 elap:               0.1
 (Enter /opt/packages/gaussian/g16RevC.01/g16/l9999.exe)
 Unable to Open any file for archive entry.
 1\1\GINC-R061\SP\RwB97XD\6-311++G(d,p)\C12H12N1O2P1\WHUGHES\08-Sep-202
 5\0\\#p wb97xd/6-311++g** nosymm int=ultrafine scrf=(smd,solvent=tetra
 hydrofuran)\\Title\\0,1\P,0,-0.900682,-2.089446,0.983045\O,0,-0.066133
 ,-1.500104,2.071699\O,0,-2.481878,-1.866792,1.380978\N,0,-3.37392,-2.3
 74047,0.371325\H,0,-4.013626,-2.966943,0.899312\H,0,-3.908608,-1.55198
 9,0.091787\C,0,-0.717284,-3.877887,0.767862\C,0,-1.478433,-4.753309,1.
 551237\C,0,0.254807,-4.392223,-0.0968\C,0,-1.27629,-6.127824,1.46124\H
 ,0,-2.228414,-4.365153,2.235403\C,0,0.455165,-5.768252,-0.184233\H,0,0
 .859117,-3.724759,-0.705781\C,0,-0.31115,-6.636254,0.591988\H,0,-1.872
 177,-6.801885,2.070037\H,0,1.210035,-6.16095,-0.859493\H,0,-0.15479,-7
 .709169,0.521603\C,0,-0.643698,-1.287094,-0.620426\C,0,0.0589,-0.07696
 4,-0.631042\C,0,-1.122406,-1.82195,-1.823299\C,0,0.273704,0.597019,-1.
 831495\H,0,0.441101,0.331407,0.300167\C,0,-0.903235,-1.146523,-3.02097
 9\H,0,-1.661872,-2.763841,-1.827182\C,0,-0.207731,0.063107,-3.025729\H
 ,0,0.820941,1.535395,-1.833375\H,0,-1.27426,-1.566162,-3.951787\H,0,-0
 .037063,0.586686,-3.962528\\Version=ES64L-G16RevC.01\HF=-1011.019581\R
 MSD=3.847e-09\Dipole=-1.3477135,-1.0680705,-2.0995156\Quadrupole=1.546
 4039,11.4793072,-13.0257111,8.8631156,-3.8600991,1.0225874\PG=C01 [X(C
 12H12N1O2P1)]\\@
 The archive entry for this job was punched.


 IT PROBABLY IS NOT POSSIBLE FOR A SCIENTIST TO INTERROGATE NATURE 
 FROM A WHOLLY DISINTERESTED VIEWPOINT.
 EVEN IF HE HAS NO PARTICULAR AXE TO GRIND, HE IS LIKELY TO HAVE 
 A DISTINCTIVE WAY OF VIEWING NATURE.

                                                   -- JOHN LOSEE
 Job cpu time:       0 days  0 hours 20 minutes 13.3 seconds.
 Elapsed time:       0 days  0 hours  1 minutes 17.0 seconds.
 File lengths (MBytes):  RWF=    196 Int=      0 D2E=      0 Chk=     13 Scr=      1
 Normal termination of Gaussian 16 at Mon Sep  8 14:54:08 2025.
