Job Start Time: Wed Oct  8 15:27:45 MDT 2025
SLURM Job ID: 768176
SLURM Job Name: aziridinium-phos-full-c1_tzpop-sp
 Entering Gaussian System, Link 0=/opt/apps/Gaussian/G16C/g16/g16
 Initial command:
 /opt/apps/Gaussian/G16C/g16/l1.exe "/tmp/768176/Gau-587673.inp" -scrdir="/tmp/768176/"
 Entering Link 1 = /opt/apps/Gaussian/G16C/g16/l1.exe PID=    587677.
  
 Copyright (c) 1988-2019, Gaussian, Inc.  All Rights Reserved.
  
 This is part of the Gaussian(R) 16 program.  It is based on
 the Gaussian(R) 09 system (copyright 2009, Gaussian, Inc.),
 the Gaussian(R) 03 system (copyright 2003, Gaussian, Inc.),
 the Gaussian(R) 98 system (copyright 1998, Gaussian, Inc.),
 the Gaussian(R) 94 system (copyright 1995, Gaussian, Inc.),
 the Gaussian 92(TM) system (copyright 1992, Gaussian, Inc.),
 the Gaussian 90(TM) system (copyright 1990, Gaussian, Inc.),
 the Gaussian 88(TM) system (copyright 1988, Gaussian, Inc.),
 the Gaussian 86(TM) system (copyright 1986, Carnegie Mellon
 University), and the Gaussian 82(TM) system (copyright 1983,
 Carnegie Mellon University). Gaussian is a federally registered
 trademark of Gaussian, Inc.
  
 This software contains proprietary and confidential information,
 including trade secrets, belonging to Gaussian, Inc.
  
 This software is provided under written license and may be
 used, copied, transmitted, or stored only in accord with that
 written license.
  
 The following legend is applicable only to US Government
 contracts under FAR:
  
                    RESTRICTED RIGHTS LEGEND
  
 Use, reproduction and disclosure by the US Government is
 subject to restrictions as set forth in subparagraphs (a)
 and (c) of the Commercial Computer Software - Restricted
 Rights clause in FAR 52.227-19.
  
 Gaussian, Inc.
 340 Quinnipiac St., Bldg. 40, Wallingford CT 06492
  
  
 ---------------------------------------------------------------
 Warning -- This program may not be used in any manner that
 competes with the business of Gaussian, Inc. or will provide
 assistance to any competitor of Gaussian, Inc.  The licensee
 of this program is prohibited from giving any competitor of
 Gaussian, Inc. access to this program.  By using this program,
 the user acknowledges that Gaussian, Inc. is engaged in the
 business of creating and licensing software in the field of
 computational chemistry and represents and warrants to the
 licensee that it is not a competitor of Gaussian, Inc. and that
 it will not use this program in any manner prohibited above.
 ---------------------------------------------------------------
  

 Cite this work as:
 Gaussian 16, Revision C.01,
 M. J. Frisch, G. W. Trucks, H. B. Schlegel, G. E. Scuseria, 
 M. A. Robb, J. R. Cheeseman, G. Scalmani, V. Barone, 
 G. A. Petersson, H. Nakatsuji, X. Li, M. Caricato, A. V. Marenich, 
 J. Bloino, B. G. Janesko, R. Gomperts, B. Mennucci, H. P. Hratchian, 
 J. V. Ortiz, A. F. Izmaylov, J. L. Sonnenberg, D. Williams-Young, 
 F. Ding, F. Lipparini, F. Egidi, J. Goings, B. Peng, A. Petrone, 
 T. Henderson, D. Ranasinghe, V. G. Zakrzewski, J. Gao, N. Rega, 
 G. Zheng, W. Liang, M. Hada, M. Ehara, K. Toyota, R. Fukuda, 
 J. Hasegawa, M. Ishida, T. Nakajima, Y. Honda, O. Kitao, H. Nakai, 
 T. Vreven, K. Throssell, J. A. Montgomery, Jr., J. E. Peralta, 
 F. Ogliaro, M. J. Bearpark, J. J. Heyd, E. N. Brothers, K. N. Kudin, 
 V. N. Staroverov, T. A. Keith, R. Kobayashi, J. Normand, 
 K. Raghavachari, A. P. Rendell, J. C. Burant, S. S. Iyengar, 
 J. Tomasi, M. Cossi, J. M. Millam, M. Klene, C. Adamo, R. Cammi, 
 J. W. Ochterski, R. L. Martin, K. Morokuma, O. Farkas, 
 J. B. Foresman, and D. J. Fox, Gaussian, Inc., Wallingford CT, 2019.
 
 ******************************************
 Gaussian 16:  AS64L-G16RevC.01  3-Jul-2019
                 8-Oct-2025 
 ******************************************
 %chk=aziridinium-phos-full-c1_tzpop-sp.chk
 %nprocshared=4
 Will use up to    4 processors via shared memory.
 %mem=8GB
 ----------------------------------------------------------------------
 # wb97xd/6-311++g** nosymm int=ultrafine scrf=(smd,solvent=tetrahydrof
 uran)
 ----------------------------------------------------------------------
 1/38=1,172=1/1;
 2/12=2,15=1,17=6,18=5,40=1/2;
 3/5=4,6=6,7=1111,11=2,25=1,30=1,70=32201,72=20,74=-58,75=-5/1,2,3;
 4//1;
 5/5=2,38=5,53=20/2;
 6/7=2,8=2,9=2,10=2,28=1/1;
 99/5=1,9=1/99;
 ---------------------------------
 aziridinium-phos-full-c1_tzpop-sp
 ---------------------------------
 Symbolic Z-matrix:
 Charge =  0 Multiplicity = 1
 C                    -2.6255    0.2901    2.7136 
 C                    -1.6111    1.3074    3.105 
 H                    -1.1877    1.8673    2.273 
 C                    -1.5076    2.0045    4.4353 
 H                    -1.8541    1.3859    5.268 
 H                    -0.4708    2.299     4.632 
 H                    -2.1191    2.913     4.411 
 C                    -3.6197   -0.197     3.7421 
 H                    -3.9581   -1.2033    3.4786 
 H                    -3.2328   -0.2135    4.768 
 H                    -4.4987    0.4576    3.725 
 B                    -3.1175    0.2212    1.1245 
 C                    -3.7159    1.6841    0.7176 
 H                    -4.0849    1.7059   -0.3181 
 H                    -4.571     1.9485    1.3608 
 H                    -2.9819    2.4949    0.8225 
 O                    -1.9819   -0.191     0.2253 
 O                    -4.1005   -0.8761    0.9638 
 C                    -3.7528   -1.658    -0.1592 
 C                    -2.194    -1.5466   -0.1885 
 C                    -4.3973   -1.0731   -1.4265 
 H                    -3.9812   -0.0915   -1.6693 
 H                    -4.2629   -1.7305   -2.2941 
 H                    -5.4725   -0.9524   -1.2517 
 C                    -4.2731   -3.0801    0.0399 
 H                    -3.9101   -3.7508   -0.7489 
 H                    -3.9682   -3.4843    1.0094 
 H                    -5.3692   -3.0804    0.0054 
 C                    -1.5697   -1.7508   -1.5633 
 H                    -0.483    -1.6331   -1.5027 
 H                    -1.7879   -2.7563   -1.9431 
 H                    -1.9469   -1.0179   -2.279 
 C                    -1.5371   -2.5039    0.8119 
 H                    -0.4808   -2.2471    0.9244 
 H                    -2.0127   -2.4423    1.7964 
 H                    -1.5953   -3.5422    0.4656 
 P                     1.868    -0.5483    0.4762 
 O                     1.1399    0.1371   -0.6743 
 O                     1.2295   -0.5524    1.8563 
 N                    -1.2055   -0.1158    3.0244 
 H                    -0.5085   -0.3657    2.3001 
 H                    -1.0309   -0.5806    3.9127 
 Li                   -0.6022    0.8888   -0.5704 
 C                    -0.9058    3.8423   -0.4453 
 O                    -0.402     2.7624    0.3475 
 C                     0.9597    3.1011    0.6199 
 C                     1.4902    3.5793   -0.7257 
 C                     0.266     4.2981   -1.3362 
 H                    -1.7705    3.474    -0.998 
 H                    -1.2344    4.6465    0.2275 
 H                     0.9867    3.9016    1.375 
 H                     1.4539    2.2159    1.0189 
 H                     2.3645    4.2285   -0.6233 
 H                     1.7664    2.7067   -1.3251 
 H                     0.3747    5.3863   -1.3033 
 H                     0.1097    4.0035   -2.3773 
 C                    -2.0736    1.8261   -3.1496 
 O                    -0.8805    1.4658   -2.4619 
 C                     0.0814    1.1399   -3.4624 
 C                    -0.7038    0.3722   -4.5309 
 C                    -2.1547    0.8847   -4.3612 
 H                    -2.9042    1.727    -2.4474 
 H                    -2.0007    2.877    -3.4676 
 H                     0.503     2.0713   -3.8708 
 H                     0.8699    0.568    -2.972 
 H                    -0.3063    0.5603   -5.5321 
 H                    -0.6492   -0.7041   -4.3421 
 H                    -2.515     1.4162   -5.2464 
 H                    -2.8426    0.057    -4.1654 
 C                     2.1965   -2.2744   -0.0307 
 C                     2.4041   -3.2703    0.9293 
 C                     2.24     -2.6168   -1.386 
 C                     2.6495   -4.5866    0.542 
 H                     2.3584   -3.0145    1.9848 
 C                     2.4847   -3.9323   -1.7769 
 H                     2.0658   -1.8499   -2.1363 
 C                     2.6899   -4.9192   -0.8125 
 H                     2.8036   -5.354     1.2962 
 H                     2.5101   -4.1885   -2.833 
 H                     2.8778   -5.946    -1.1155 
 C                     3.523     0.2187    0.6075 
 C                     4.1085    0.8255   -0.5089 
 C                     4.2222    0.2043    1.8188 
 C                     5.3708    1.4095   -0.4172 
 H                     3.5654    0.8486   -1.4501 
 C                     5.4855    0.7869    1.9136 
 H                     3.7687   -0.2561    2.6927 
 C                     6.0614    1.39      0.7951 
 H                     5.8147    1.8821   -1.2897 
 H                     6.0195    0.7732    2.8602 
 H                     7.0455    1.8456    0.8686 
 
 Symmetry turned off by external request.
 Stoichiometry    C31H50BLiNO6P
 Framework group  C1[X(C31H50BLiNO6P)]
 Deg. of freedom   267
 Full point group                 C1      NOp   1
                          Input orientation:                          
 ---------------------------------------------------------------------
 Center     Atomic      Atomic             Coordinates (Angstroms)
 Number     Number       Type             X           Y           Z
 ---------------------------------------------------------------------
      1          6           0       -2.625500    0.290100    2.713600
      2          6           0       -1.611100    1.307400    3.105000
      3          1           0       -1.187700    1.867300    2.273000
      4          6           0       -1.507600    2.004500    4.435300
      5          1           0       -1.854100    1.385900    5.268000
      6          1           0       -0.470800    2.299000    4.632000
      7          1           0       -2.119100    2.913000    4.411000
      8          6           0       -3.619700   -0.197000    3.742100
      9          1           0       -3.958100   -1.203300    3.478600
     10          1           0       -3.232800   -0.213500    4.768000
     11          1           0       -4.498700    0.457600    3.725000
     12          5           0       -3.117500    0.221200    1.124500
     13          6           0       -3.715900    1.684100    0.717600
     14          1           0       -4.084900    1.705900   -0.318100
     15          1           0       -4.571000    1.948500    1.360800
     16          1           0       -2.981900    2.494900    0.822500
     17          8           0       -1.981900   -0.191000    0.225300
     18          8           0       -4.100500   -0.876100    0.963800
     19          6           0       -3.752800   -1.658000   -0.159200
     20          6           0       -2.194000   -1.546600   -0.188500
     21          6           0       -4.397300   -1.073100   -1.426500
     22          1           0       -3.981200   -0.091500   -1.669300
     23          1           0       -4.262900   -1.730500   -2.294100
     24          1           0       -5.472500   -0.952400   -1.251700
     25          6           0       -4.273100   -3.080100    0.039900
     26          1           0       -3.910100   -3.750800   -0.748900
     27          1           0       -3.968200   -3.484300    1.009400
     28          1           0       -5.369200   -3.080400    0.005400
     29          6           0       -1.569700   -1.750800   -1.563300
     30          1           0       -0.483000   -1.633100   -1.502700
     31          1           0       -1.787900   -2.756300   -1.943100
     32          1           0       -1.946900   -1.017900   -2.279000
     33          6           0       -1.537100   -2.503900    0.811900
     34          1           0       -0.480800   -2.247100    0.924400
     35          1           0       -2.012700   -2.442300    1.796400
     36          1           0       -1.595300   -3.542200    0.465600
     37         15           0        1.868000   -0.548300    0.476200
     38          8           0        1.139900    0.137100   -0.674300
     39          8           0        1.229500   -0.552400    1.856300
     40          7           0       -1.205500   -0.115800    3.024400
     41          1           0       -0.508500   -0.365700    2.300100
     42          1           0       -1.030900   -0.580600    3.912700
     43          3           0       -0.602200    0.888800   -0.570400
     44          6           0       -0.905800    3.842300   -0.445300
     45          8           0       -0.402000    2.762400    0.347500
     46          6           0        0.959700    3.101100    0.619900
     47          6           0        1.490200    3.579300   -0.725700
     48          6           0        0.266000    4.298100   -1.336200
     49          1           0       -1.770500    3.474000   -0.998000
     50          1           0       -1.234400    4.646500    0.227500
     51          1           0        0.986700    3.901600    1.375000
     52          1           0        1.453900    2.215900    1.018900
     53          1           0        2.364500    4.228500   -0.623300
     54          1           0        1.766400    2.706700   -1.325100
     55          1           0        0.374700    5.386300   -1.303300
     56          1           0        0.109700    4.003500   -2.377300
     57          6           0       -2.073600    1.826100   -3.149600
     58          8           0       -0.880500    1.465800   -2.461900
     59          6           0        0.081400    1.139900   -3.462400
     60          6           0       -0.703800    0.372200   -4.530900
     61          6           0       -2.154700    0.884700   -4.361200
     62          1           0       -2.904200    1.727000   -2.447400
     63          1           0       -2.000700    2.877000   -3.467600
     64          1           0        0.503000    2.071300   -3.870800
     65          1           0        0.869900    0.568000   -2.972000
     66          1           0       -0.306300    0.560300   -5.532100
     67          1           0       -0.649200   -0.704100   -4.342100
     68          1           0       -2.515000    1.416200   -5.246400
     69          1           0       -2.842600    0.057000   -4.165400
     70          6           0        2.196500   -2.274400   -0.030700
     71          6           0        2.404100   -3.270300    0.929300
     72          6           0        2.240000   -2.616800   -1.386000
     73          6           0        2.649500   -4.586600    0.542000
     74          1           0        2.358400   -3.014500    1.984800
     75          6           0        2.484700   -3.932300   -1.776900
     76          1           0        2.065800   -1.849900   -2.136300
     77          6           0        2.689900   -4.919200   -0.812500
     78          1           0        2.803600   -5.354000    1.296200
     79          1           0        2.510100   -4.188500   -2.833000
     80          1           0        2.877800   -5.946000   -1.115500
     81          6           0        3.523000    0.218700    0.607500
     82          6           0        4.108500    0.825500   -0.508900
     83          6           0        4.222200    0.204300    1.818800
     84          6           0        5.370800    1.409500   -0.417200
     85          1           0        3.565400    0.848600   -1.450100
     86          6           0        5.485500    0.786900    1.913600
     87          1           0        3.768700   -0.256100    2.692700
     88          6           0        6.061400    1.390000    0.795100
     89          1           0        5.814700    1.882100   -1.289700
     90          1           0        6.019500    0.773200    2.860200
     91          1           0        7.045500    1.845600    0.868600
 ---------------------------------------------------------------------
 Rotational constants (GHZ):           0.0996162           0.0729137           0.0686617
 Standard basis: 6-311++G(d,p) (5D, 7F)
  1260 basis functions,  1940 primitive gaussians,  1301 cartesian basis functions
   157 alpha electrons      157 beta electrons
       nuclear repulsion energy      5727.2981927624 Hartrees.
 NAtoms=   91 NActive=   91 NUniq=   91 SFac= 1.00D+00 NAtFMM=   60 NAOKFM=T Big=T
 Integral buffers will be    131072 words long.
 Raffenetti 2 integral format.
 Two-electron integral symmetry is turned off.
 Nuclear repulsion after empirical dispersion term =     5727.1825286555 Hartrees.
 ------------------------------------------------------------------------------
 Polarizable Continuum Model (PCM)
 =================================
 Model                : PCM.
 Atomic radii         : SMD-Coulomb.
 Polarization charges : Total charges.
 Charge compensation  : None.
 Solution method      : On-the-fly selection.
 Cavity type          : VdW (van der Waals Surface) (Alpha=1.000).
 Cavity algorithm     : GePol (No added spheres)
                        Default sphere list used, NSphG=   91.
                        Lebedev-Laikov grids with approx.  5.0 points / Ang**2.
                        Smoothing algorithm: York/Karplus (Gamma=1.0000).
                        Polarization charges: spherical gaussians, with
                                              point-specific exponents (IZeta= 3).
                        Self-potential: point-specific (ISelfS= 7).
                        Self-field    : sphere-specific E.n sum rule (ISelfD= 2).
 Solvent              : TetraHydroFuran, Eps=   7.425700 Eps(inf)=   1.974025
 ------------------------------------------------------------------------------
 ------------------------------------------------------------------------------
 Atomic radii for non-electrostatic terms: SMD-CDS.
 ------------------------------------------------------------------------------
 Nuclear repulsion after PCM non-electrostatic terms =     5727.1731461084 Hartrees.
 One-electron integrals computed using PRISM.
 NBasis=  1260 RedAO= T EigKep=  1.19D-06  NBF=  1260
 NBsUse=  1249 1.00D-06 EigRej=  9.24D-07 NBFU=  1249
 ExpMin= 7.40D-03 ExpMax= 7.75D+04 ExpMxC= 2.65D+03 IAcc=3 IRadAn=         5 AccDes= 0.00D+00
 Harris functional with IExCor= 4639 and IRadAn=       5 diagonalized for initial guess.
 HarFok:  IExCor= 4639 AccDes= 0.00D+00 IRadAn=         5 IDoV= 1 UseB2=F ITyADJ=14
 ICtDFT=  3500011 ScaDFX=  1.000000  1.000000  1.000000  1.000000
 FoFCou: FMM=F IPFlag=           0 FMFlag=      100000 FMFlg1=        2001
         NFxFlg=           0 DoJE=T BraDBF=F KetDBF=T FulRan=T
         wScrn=  0.000000 ICntrl=       500 IOpCl=  0 I1Cent=   200000004 NGrid=           0
         NMat0=    1 NMatS0=      1 NMatT0=    0 NMatD0=    1 NMtDS0=    0 NMtDT0=    0
 Symmetry not used in FoFCou.
 Requested convergence on RMS density matrix=1.00D-08 within 128 cycles.
 Requested convergence on MAX density matrix=1.00D-06.
 Requested convergence on             energy=1.00D-06.
 No special actions if energy rises.
 Inv3:  Mode=1 IEnd=    87285708.
 Iteration    1 A*A^-1 deviation from unit magnitude is 6.33D-15 for   5385.
 Iteration    1 A*A^-1 deviation from orthogonality  is 3.10D-15 for   3460   1747.
 Iteration    1 A^-1*A deviation from unit magnitude is 6.33D-15 for   5385.
 Iteration    1 A^-1*A deviation from orthogonality  is 3.47D-15 for   5381    482.
 Error on total polarization charges =  0.07755
 SCF Done:  E(RwB97XD) =  -2091.48189848     A.U. after   16 cycles
            NFock= 16  Conv=0.29D-08     -V/T= 2.0040
 SMD-CDS (non-electrostatic) energy       (kcal/mol) =      -5.89
 (included in total energy above)

 **********************************************************************

            Population analysis using the SCF Density.

 **********************************************************************

 Alpha  occ. eigenvalues --  -77.26681 -19.25786 -19.25769 -19.20132 -19.18082
 Alpha  occ. eigenvalues --  -19.17868 -19.17771 -14.49201 -10.32442 -10.32188
 Alpha  occ. eigenvalues --  -10.32140 -10.31905 -10.31856 -10.31716 -10.31248
 Alpha  occ. eigenvalues --  -10.29841 -10.28931 -10.28873 -10.28849 -10.28839
 Alpha  occ. eigenvalues --  -10.28791 -10.28785 -10.28728 -10.28713 -10.28668
 Alpha  occ. eigenvalues --  -10.28655 -10.28462 -10.28414 -10.27683 -10.27609
 Alpha  occ. eigenvalues --  -10.27561 -10.27426 -10.27120 -10.26471 -10.25160
 Alpha  occ. eigenvalues --  -10.24970 -10.24877 -10.24727 -10.21270  -6.81509
 Alpha  occ. eigenvalues --   -6.71019  -4.85732  -4.85716  -4.85695  -1.98121
 Alpha  occ. eigenvalues --   -1.15208  -1.14847  -1.10932  -1.09270  -1.07389
 Alpha  occ. eigenvalues --   -1.03966  -1.01383  -0.95736  -0.95600  -0.87612
 Alpha  occ. eigenvalues --   -0.87479  -0.87321  -0.85290  -0.85033  -0.84525
 Alpha  occ. eigenvalues --   -0.84449  -0.84241  -0.83530  -0.83057  -0.82679
 Alpha  occ. eigenvalues --   -0.81962  -0.78078  -0.76606  -0.75427  -0.74789
 Alpha  occ. eigenvalues --   -0.71614  -0.69771  -0.69450  -0.69126  -0.69062
 Alpha  occ. eigenvalues --   -0.68940  -0.68480  -0.68270  -0.67886  -0.65679
 Alpha  occ. eigenvalues --   -0.63900  -0.63386  -0.60938  -0.60717  -0.59929
 Alpha  occ. eigenvalues --   -0.59437  -0.59351  -0.58154  -0.57988  -0.57261
 Alpha  occ. eigenvalues --   -0.56523  -0.54119  -0.53878  -0.53851  -0.53573
 Alpha  occ. eigenvalues --   -0.53515  -0.53462  -0.53010  -0.52652  -0.52091
 Alpha  occ. eigenvalues --   -0.51183  -0.50965  -0.50566  -0.50487  -0.50385
 Alpha  occ. eigenvalues --   -0.50214  -0.50154  -0.49944  -0.49340  -0.48782
 Alpha  occ. eigenvalues --   -0.48035  -0.47885  -0.47640  -0.47066  -0.46871
 Alpha  occ. eigenvalues --   -0.46379  -0.46062  -0.45792  -0.45687  -0.45512
 Alpha  occ. eigenvalues --   -0.45038  -0.44484  -0.43874  -0.43675  -0.43313
 Alpha  occ. eigenvalues --   -0.43247  -0.43148  -0.42997  -0.42788  -0.42597
 Alpha  occ. eigenvalues --   -0.42535  -0.42245  -0.42045  -0.41991  -0.41651
 Alpha  occ. eigenvalues --   -0.41334  -0.41057  -0.40740  -0.40068  -0.40032
 Alpha  occ. eigenvalues --   -0.39844  -0.38355  -0.38143  -0.37241  -0.36829
 Alpha  occ. eigenvalues --   -0.35909  -0.35175  -0.34981  -0.34578  -0.34359
 Alpha  occ. eigenvalues --   -0.34049  -0.33343  -0.33180  -0.32894  -0.31782
 Alpha  occ. eigenvalues --   -0.31185  -0.28384
 Alpha virt. eigenvalues --    0.02302   0.02488   0.02635   0.02698   0.02971
 Alpha virt. eigenvalues --    0.04784   0.05422   0.05640   0.05723   0.05845
 Alpha virt. eigenvalues --    0.06072   0.06156   0.06251   0.06894   0.06973
 Alpha virt. eigenvalues --    0.07166   0.07224   0.07358   0.07437   0.07529
 Alpha virt. eigenvalues --    0.07726   0.07904   0.07933   0.08343   0.08427
 Alpha virt. eigenvalues --    0.08839   0.08897   0.09206   0.09644   0.09733
 Alpha virt. eigenvalues --    0.09811   0.10196   0.10411   0.10723   0.11010
 Alpha virt. eigenvalues --    0.11280   0.11512   0.11740   0.12112   0.12462
 Alpha virt. eigenvalues --    0.12605   0.12761   0.12976   0.13321   0.13505
 Alpha virt. eigenvalues --    0.13597   0.13804   0.13964   0.14204   0.14435
 Alpha virt. eigenvalues --    0.14561   0.14731   0.14944   0.15426   0.15571
 Alpha virt. eigenvalues --    0.15784   0.16120   0.16139   0.16232   0.16269
 Alpha virt. eigenvalues --    0.16490   0.16614   0.16834   0.17014   0.17139
 Alpha virt. eigenvalues --    0.17195   0.17342   0.17512   0.17573   0.17759
 Alpha virt. eigenvalues --    0.17851   0.18168   0.18211   0.18268   0.18447
 Alpha virt. eigenvalues --    0.18576   0.18650   0.18751   0.18828   0.18915
 Alpha virt. eigenvalues --    0.19073   0.19228   0.19346   0.19430   0.19642
 Alpha virt. eigenvalues --    0.19872   0.19995   0.20094   0.20353   0.20469
 Alpha virt. eigenvalues --    0.20625   0.20669   0.20808   0.20973   0.20981
 Alpha virt. eigenvalues --    0.21190   0.21298   0.21363   0.21614   0.21706
 Alpha virt. eigenvalues --    0.21768   0.21872   0.22069   0.22164   0.22393
 Alpha virt. eigenvalues --    0.22486   0.22670   0.22743   0.22822   0.22979
 Alpha virt. eigenvalues --    0.23054   0.23336   0.23412   0.23553   0.23738
 Alpha virt. eigenvalues --    0.23834   0.23963   0.24096   0.24227   0.24287
 Alpha virt. eigenvalues --    0.24501   0.24583   0.24775   0.24817   0.25024
 Alpha virt. eigenvalues --    0.25030   0.25171   0.25260   0.25445   0.25746
 Alpha virt. eigenvalues --    0.25956   0.26060   0.26185   0.26470   0.26513
 Alpha virt. eigenvalues --    0.26607   0.26797   0.26834   0.26958   0.27046
 Alpha virt. eigenvalues --    0.27122   0.27235   0.27473   0.27566   0.27731
 Alpha virt. eigenvalues --    0.28051   0.28171   0.28197   0.28319   0.28671
 Alpha virt. eigenvalues --    0.28780   0.28822   0.28875   0.29024   0.29157
 Alpha virt. eigenvalues --    0.29355   0.29601   0.29740   0.29769   0.30115
 Alpha virt. eigenvalues --    0.30151   0.30399   0.30504   0.30719   0.30736
 Alpha virt. eigenvalues --    0.30832   0.31136   0.31193   0.31282   0.31618
 Alpha virt. eigenvalues --    0.31800   0.32019   0.32047   0.32227   0.32355
 Alpha virt. eigenvalues --    0.32625   0.32801   0.32968   0.33027   0.33192
 Alpha virt. eigenvalues --    0.33280   0.33400   0.33521   0.33792   0.34017
 Alpha virt. eigenvalues --    0.34032   0.34202   0.34325   0.34565   0.34733
 Alpha virt. eigenvalues --    0.34938   0.35129   0.35395   0.35486   0.35614
 Alpha virt. eigenvalues --    0.35765   0.35832   0.36161   0.36232   0.36484
 Alpha virt. eigenvalues --    0.36567   0.36865   0.36882   0.37163   0.37500
 Alpha virt. eigenvalues --    0.37606   0.37723   0.37902   0.38170   0.38217
 Alpha virt. eigenvalues --    0.38490   0.38850   0.38911   0.39012   0.39173
 Alpha virt. eigenvalues --    0.39326   0.39489   0.39578   0.39693   0.39888
 Alpha virt. eigenvalues --    0.39914   0.40193   0.40416   0.40751   0.40836
 Alpha virt. eigenvalues --    0.40989   0.41095   0.41261   0.41405   0.41625
 Alpha virt. eigenvalues --    0.41745   0.41979   0.42155   0.42364   0.42589
 Alpha virt. eigenvalues --    0.42847   0.42948   0.43328   0.43567   0.43631
 Alpha virt. eigenvalues --    0.43761   0.43954   0.44011   0.44199   0.44462
 Alpha virt. eigenvalues --    0.44557   0.44817   0.45113   0.45339   0.45464
 Alpha virt. eigenvalues --    0.45607   0.45771   0.46128   0.46260   0.46611
 Alpha virt. eigenvalues --    0.46689   0.46937   0.47188   0.47333   0.47360
 Alpha virt. eigenvalues --    0.47599   0.48083   0.48408   0.48524   0.48634
 Alpha virt. eigenvalues --    0.48889   0.49092   0.49405   0.49583   0.49940
 Alpha virt. eigenvalues --    0.50149   0.50471   0.50632   0.50929   0.51026
 Alpha virt. eigenvalues --    0.51363   0.52065   0.52263   0.52524   0.52763
 Alpha virt. eigenvalues --    0.53363   0.53696   0.54105   0.54236   0.54659
 Alpha virt. eigenvalues --    0.55029   0.55555   0.55950   0.56216   0.56712
 Alpha virt. eigenvalues --    0.57193   0.57563   0.58124   0.58315   0.58695
 Alpha virt. eigenvalues --    0.58955   0.59035   0.59251   0.59867   0.60293
 Alpha virt. eigenvalues --    0.60803   0.60962   0.61207   0.61403   0.61940
 Alpha virt. eigenvalues --    0.62026   0.62643   0.63006   0.63329   0.63624
 Alpha virt. eigenvalues --    0.64003   0.64075   0.64435   0.64606   0.64964
 Alpha virt. eigenvalues --    0.65118   0.65314   0.65576   0.65971   0.66143
 Alpha virt. eigenvalues --    0.66300   0.66494   0.66910   0.67232   0.67325
 Alpha virt. eigenvalues --    0.67592   0.68142   0.68444   0.68659   0.68818
 Alpha virt. eigenvalues --    0.69097   0.69307   0.69457   0.70081   0.70374
 Alpha virt. eigenvalues --    0.70674   0.71015   0.71199   0.71454   0.71980
 Alpha virt. eigenvalues --    0.72263   0.72492   0.72671   0.72970   0.73226
 Alpha virt. eigenvalues --    0.73550   0.73639   0.74002   0.74175   0.74707
 Alpha virt. eigenvalues --    0.74910   0.75039   0.75386   0.75622   0.75979
 Alpha virt. eigenvalues --    0.76178   0.76299   0.76580   0.76726   0.77002
 Alpha virt. eigenvalues --    0.77180   0.77398   0.78148   0.78343   0.78455
 Alpha virt. eigenvalues --    0.78881   0.79017   0.79299   0.79630   0.79864
 Alpha virt. eigenvalues --    0.80055   0.80178   0.80585   0.80775   0.80996
 Alpha virt. eigenvalues --    0.81139   0.81382   0.81872   0.82146   0.82307
 Alpha virt. eigenvalues --    0.82562   0.82875   0.82931   0.83103   0.83452
 Alpha virt. eigenvalues --    0.83876   0.84051   0.84132   0.84393   0.84492
 Alpha virt. eigenvalues --    0.84531   0.84987   0.85184   0.85650   0.85719
 Alpha virt. eigenvalues --    0.85943   0.86145   0.86656   0.86882   0.87224
 Alpha virt. eigenvalues --    0.87349   0.87573   0.87575   0.87900   0.88120
 Alpha virt. eigenvalues --    0.88438   0.88641   0.88840   0.89096   0.89196
 Alpha virt. eigenvalues --    0.89561   0.89639   0.90086   0.90342   0.90515
 Alpha virt. eigenvalues --    0.90624   0.90653   0.91199   0.91558   0.91992
 Alpha virt. eigenvalues --    0.92076   0.92497   0.92774   0.92871   0.93060
 Alpha virt. eigenvalues --    0.93205   0.93453   0.93857   0.94152   0.94777
 Alpha virt. eigenvalues --    0.95019   0.95259   0.95517   0.95822   0.96058
 Alpha virt. eigenvalues --    0.96329   0.96688   0.97164   0.97302   0.97711
 Alpha virt. eigenvalues --    0.97998   0.98277   0.98508   0.98641   0.98778
 Alpha virt. eigenvalues --    0.99756   0.99980   1.00216   1.00612   1.00961
 Alpha virt. eigenvalues --    1.01322   1.02057   1.02407   1.02743   1.03466
 Alpha virt. eigenvalues --    1.03671   1.04412   1.04755   1.04845   1.05220
 Alpha virt. eigenvalues --    1.05595   1.05925   1.06810   1.07425   1.07742
 Alpha virt. eigenvalues --    1.08116   1.08412   1.09002   1.09439   1.09724
 Alpha virt. eigenvalues --    1.10307   1.11091   1.11293   1.11672   1.12036
 Alpha virt. eigenvalues --    1.12896   1.12977   1.13523   1.13882   1.14714
 Alpha virt. eigenvalues --    1.14990   1.15706   1.16218   1.16444   1.17348
 Alpha virt. eigenvalues --    1.17620   1.18426   1.18595   1.18931   1.19366
 Alpha virt. eigenvalues --    1.20432   1.20735   1.20897   1.21663   1.21946
 Alpha virt. eigenvalues --    1.22336   1.23081   1.23826   1.24223   1.24594
 Alpha virt. eigenvalues --    1.24798   1.24965   1.25569   1.26340   1.26586
 Alpha virt. eigenvalues --    1.26689   1.27591   1.28027   1.28429   1.29487
 Alpha virt. eigenvalues --    1.29692   1.30200   1.31174   1.32033   1.32329
 Alpha virt. eigenvalues --    1.32376   1.32575   1.33131   1.33482   1.34837
 Alpha virt. eigenvalues --    1.35151   1.36033   1.36384   1.37305   1.37723
 Alpha virt. eigenvalues --    1.38365   1.38682   1.39267   1.39683   1.40825
 Alpha virt. eigenvalues --    1.41327   1.42129   1.42319   1.42769   1.43152
 Alpha virt. eigenvalues --    1.44307   1.44803   1.45360   1.45881   1.46376
 Alpha virt. eigenvalues --    1.47245   1.47441   1.47788   1.48350   1.48796
 Alpha virt. eigenvalues --    1.49648   1.50613   1.51066   1.51694   1.51820
 Alpha virt. eigenvalues --    1.52254   1.53284   1.54151   1.54550   1.54647
 Alpha virt. eigenvalues --    1.55893   1.56098   1.56569   1.56831   1.57486
 Alpha virt. eigenvalues --    1.57926   1.58615   1.59195   1.59350   1.60358
 Alpha virt. eigenvalues --    1.60647   1.60963   1.61159   1.61868   1.62237
 Alpha virt. eigenvalues --    1.62544   1.62835   1.63294   1.63688   1.64122
 Alpha virt. eigenvalues --    1.64436   1.64946   1.65190   1.65582   1.65852
 Alpha virt. eigenvalues --    1.66103   1.66267   1.66630   1.66951   1.67032
 Alpha virt. eigenvalues --    1.67442   1.68098   1.68188   1.68525   1.68832
 Alpha virt. eigenvalues --    1.69320   1.69651   1.69776   1.70035   1.70252
 Alpha virt. eigenvalues --    1.70636   1.71264   1.71632   1.71782   1.71929
 Alpha virt. eigenvalues --    1.72395   1.72537   1.73012   1.73379   1.73665
 Alpha virt. eigenvalues --    1.74017   1.74731   1.74893   1.75351   1.75814
 Alpha virt. eigenvalues --    1.75873   1.76079   1.76499   1.76914   1.77386
 Alpha virt. eigenvalues --    1.77608   1.77834   1.78049   1.78466   1.78867
 Alpha virt. eigenvalues --    1.79134   1.79415   1.79588   1.79933   1.80626
 Alpha virt. eigenvalues --    1.80742   1.81270   1.82007   1.82278   1.82344
 Alpha virt. eigenvalues --    1.82969   1.83057   1.83501   1.83954   1.84273
 Alpha virt. eigenvalues --    1.84479   1.85024   1.85340   1.85393   1.85595
 Alpha virt. eigenvalues --    1.86079   1.86704   1.87134   1.87513   1.87787
 Alpha virt. eigenvalues --    1.87890   1.88406   1.88864   1.89132   1.89465
 Alpha virt. eigenvalues --    1.89875   1.90200   1.90498   1.91430   1.91694
 Alpha virt. eigenvalues --    1.92136   1.92270   1.92795   1.93062   1.93631
 Alpha virt. eigenvalues --    1.94228   1.94350   1.94515   1.94622   1.95009
 Alpha virt. eigenvalues --    1.95189   1.95771   1.95915   1.96360   1.97113
 Alpha virt. eigenvalues --    1.97561   1.98020   1.98476   1.98795   1.99450
 Alpha virt. eigenvalues --    1.99842   2.00081   2.00403   2.01001   2.01115
 Alpha virt. eigenvalues --    2.01665   2.02105   2.02257   2.02643   2.03105
 Alpha virt. eigenvalues --    2.03362   2.03451   2.03875   2.04254   2.04794
 Alpha virt. eigenvalues --    2.04820   2.05640   2.05991   2.06363   2.06532
 Alpha virt. eigenvalues --    2.07027   2.07756   2.07895   2.08414   2.08769
 Alpha virt. eigenvalues --    2.08925   2.09111   2.09595   2.09926   2.10216
 Alpha virt. eigenvalues --    2.10524   2.10758   2.11349   2.11695   2.12221
 Alpha virt. eigenvalues --    2.12792   2.13307   2.13728   2.14372   2.15026
 Alpha virt. eigenvalues --    2.15438   2.15506   2.16056   2.16802   2.17121
 Alpha virt. eigenvalues --    2.17545   2.18068   2.19428   2.19608   2.20030
 Alpha virt. eigenvalues --    2.20451   2.21059   2.21692   2.21999   2.22626
 Alpha virt. eigenvalues --    2.22998   2.23830   2.24290   2.24646   2.25553
 Alpha virt. eigenvalues --    2.25924   2.26402   2.26599   2.26954   2.27542
 Alpha virt. eigenvalues --    2.28345   2.29084   2.29439   2.29913   2.30435
 Alpha virt. eigenvalues --    2.31562   2.32423   2.32690   2.33488   2.33946
 Alpha virt. eigenvalues --    2.34746   2.35810   2.36757   2.37355   2.38013
 Alpha virt. eigenvalues --    2.38638   2.39333   2.39757   2.40452   2.42002
 Alpha virt. eigenvalues --    2.42131   2.42538   2.42973   2.43178   2.43370
 Alpha virt. eigenvalues --    2.43626   2.44037   2.44640   2.44978   2.45331
 Alpha virt. eigenvalues --    2.46454   2.47206   2.48424   2.48771   2.49336
 Alpha virt. eigenvalues --    2.50376   2.50616   2.52483   2.52542   2.53081
 Alpha virt. eigenvalues --    2.53414   2.54080   2.55067   2.56740   2.58287
 Alpha virt. eigenvalues --    2.59087   2.59649   2.60007   2.60242   2.60433
 Alpha virt. eigenvalues --    2.60863   2.61130   2.61712   2.61845   2.62759
 Alpha virt. eigenvalues --    2.62826   2.63232   2.63803   2.64248   2.64665
 Alpha virt. eigenvalues --    2.65422   2.66766   2.66896   2.67291   2.67954
 Alpha virt. eigenvalues --    2.68205   2.68725   2.69232   2.69544   2.70309
 Alpha virt. eigenvalues --    2.70523   2.70853   2.71062   2.72169   2.72884
 Alpha virt. eigenvalues --    2.72999   2.73529   2.73763   2.74333   2.74537
 Alpha virt. eigenvalues --    2.74743   2.74913   2.75034   2.75608   2.76814
 Alpha virt. eigenvalues --    2.77194   2.77625   2.77709   2.78358   2.78997
 Alpha virt. eigenvalues --    2.79681   2.80244   2.80409   2.80891   2.81456
 Alpha virt. eigenvalues --    2.82484   2.82866   2.83071   2.83601   2.83849
 Alpha virt. eigenvalues --    2.84961   2.85454   2.85528   2.85794   2.86660
 Alpha virt. eigenvalues --    2.87068   2.87168   2.87761   2.88155   2.88335
 Alpha virt. eigenvalues --    2.89051   2.89126   2.89937   2.90178   2.90373
 Alpha virt. eigenvalues --    2.90748   2.91250   2.91648   2.92132   2.92734
 Alpha virt. eigenvalues --    2.93160   2.93723   2.94107   2.94551   2.94835
 Alpha virt. eigenvalues --    2.95189   2.96112   2.96329   2.96523   2.97641
 Alpha virt. eigenvalues --    2.97805   2.98234   2.98604   2.98766   2.99109
 Alpha virt. eigenvalues --    2.99518   2.99909   3.00093   3.00433   3.00746
 Alpha virt. eigenvalues --    3.01458   3.02175   3.02705   3.02945   3.03569
 Alpha virt. eigenvalues --    3.03967   3.04396   3.04710   3.05332   3.05753
 Alpha virt. eigenvalues --    3.06033   3.06105   3.06959   3.07209   3.07620
 Alpha virt. eigenvalues --    3.08354   3.08978   3.10161   3.10487   3.10905
 Alpha virt. eigenvalues --    3.11272   3.11833   3.12047   3.13167   3.13716
 Alpha virt. eigenvalues --    3.13916   3.14215   3.15609   3.16409   3.17099
 Alpha virt. eigenvalues --    3.17602   3.19082   3.19601   3.20047   3.20723
 Alpha virt. eigenvalues --    3.21759   3.22412   3.23103   3.23906   3.23989
 Alpha virt. eigenvalues --    3.25117   3.25230   3.25609   3.26530   3.27535
 Alpha virt. eigenvalues --    3.28385   3.28761   3.29879   3.30615   3.31353
 Alpha virt. eigenvalues --    3.31922   3.32566   3.33354   3.33912   3.34464
 Alpha virt. eigenvalues --    3.34851   3.35463   3.36678   3.37640   3.38405
 Alpha virt. eigenvalues --    3.39569   3.40560   3.41750   3.42930   3.43415
 Alpha virt. eigenvalues --    3.44578   3.45592   3.45984   3.46711   3.49415
 Alpha virt. eigenvalues --    3.50173   3.50679   3.51398   3.51517   3.52142
 Alpha virt. eigenvalues --    3.52869   3.54119   3.54567   3.56386   3.60631
 Alpha virt. eigenvalues --    3.63526   3.63982   3.65153   3.65507   3.67141
 Alpha virt. eigenvalues --    3.68092   3.69305   3.73911   3.74425   3.75165
 Alpha virt. eigenvalues --    3.77305   3.79801   3.81949   3.84656   3.87425
 Alpha virt. eigenvalues --    3.88956   3.89697   3.90225   3.91756   3.92326
 Alpha virt. eigenvalues --    3.93028   3.94330   3.94583   3.94743   3.95934
 Alpha virt. eigenvalues --    3.96402   3.96808   3.98072   3.98828   3.99631
 Alpha virt. eigenvalues --    4.01210   4.02740   4.03565   4.05070   4.05321
 Alpha virt. eigenvalues --    4.06761   4.10382   4.12481   4.14458   4.14905
 Alpha virt. eigenvalues --    4.15441   4.15633   4.15756   4.17253   4.20573
 Alpha virt. eigenvalues --    4.21038   4.22522   4.23857   4.25529   4.27742
 Alpha virt. eigenvalues --    4.28013   4.29146   4.29250   4.31090   4.31960
 Alpha virt. eigenvalues --    4.34742   4.38105   4.41343   4.42073   4.43546
 Alpha virt. eigenvalues --    4.47124   4.50109   4.50224   4.53507   4.78359
 Alpha virt. eigenvalues --    4.84393   4.87157   4.95170   4.96096   5.11264
 Alpha virt. eigenvalues --    5.39466   5.40713   5.41906   5.44591   5.48007
 Alpha virt. eigenvalues --    5.50835   5.51641   5.53688   5.57743   5.59883
 Alpha virt. eigenvalues --    5.63020   5.69481   5.71231   5.74407   5.78537
 Alpha virt. eigenvalues --    5.80296   5.82242   5.88627   7.69088  14.38528
 Alpha virt. eigenvalues --   14.41387  14.48176  14.97522  23.78334  23.80217
 Alpha virt. eigenvalues --   23.96456  23.99064  24.02783  24.03413  24.04768
 Alpha virt. eigenvalues --   24.05622  24.06482  24.07361  24.10646  24.11746
 Alpha virt. eigenvalues --   24.12081  24.12275  24.12991  24.13472  24.13829
 Alpha virt. eigenvalues --   24.14382  24.14902  24.15442  24.15964  24.17357
 Alpha virt. eigenvalues --   24.19519  24.21544  24.21736  24.23248  24.23357
 Alpha virt. eigenvalues --   24.23511  24.24791  24.32722  24.32848  35.74215
 Alpha virt. eigenvalues --   50.15089  50.15635  50.19344  50.22817  50.25167
 Alpha virt. eigenvalues --   50.25509 163.95038
          Condensed to atoms (all electrons):
 Mulliken charges:
               1
     1  C   -0.005436
     2  C   -0.015048
     3  H    0.306153
     4  C   -0.781947
     5  H    0.166650
     6  H    0.202851
     7  H    0.225231
     8  C   -0.511933
     9  H    0.221800
    10  H    0.138055
    11  H    0.240194
    12  B    0.429372
    13  C   -0.633309
    14  H    0.193898
    15  H    0.173251
    16  H    0.208447
    17  O    0.112527
    18  O   -0.156402
    19  C    0.039180
    20  C   -0.352380
    21  C   -0.224347
    22  H    0.017400
    23  H    0.221292
    24  H    0.209443
    25  C   -0.863697
    26  H    0.174352
    27  H    0.176443
    28  H    0.196801
    29  C   -0.718378
    30  H    0.116477
    31  H    0.267397
    32  H    0.176458
    33  C   -0.540200
    34  H    0.065539
    35  H    0.204412
    36  H    0.242394
    37  P   -0.872320
    38  O   -0.111678
    39  O   -0.240432
    40  N   -0.335496
    41  H    0.500175
    42  H    0.473842
    43  Li  -0.969420
    44  C   -0.127635
    45  O    0.082613
    46  C   -0.321594
    47  C   -0.260254
    48  C   -0.690088
    49  H    0.273196
    50  H    0.256028
    51  H    0.239106
    52  H    0.190064
    53  H    0.272271
    54  H    0.068828
    55  H    0.237570
    56  H    0.154943
    57  C   -0.172275
    58  O    0.109218
    59  C   -0.000140
    60  C   -0.636192
    61  C   -0.385746
    62  H    0.247238
    63  H    0.259580
    64  H    0.240636
    65  H    0.117613
    66  H    0.234373
    67  H    0.219242
    68  H    0.244402
    69  H    0.188129
    70  C    0.239860
    71  C   -0.091336
    72  C    0.065644
    73  C   -0.461626
    74  H    0.301966
    75  C   -0.576426
    76  H    0.323886
    77  C   -0.593460
    78  H    0.276055
    79  H    0.281330
    80  H    0.256555
    81  C   -0.049559
    82  C    0.281419
    83  C    0.090566
    84  C   -0.226448
    85  H    0.315947
    86  C   -0.344858
    87  H    0.312294
    88  C   -0.618335
    89  H    0.282121
    90  H    0.274895
    91  H    0.250774
 Sum of Mulliken charges =  -0.00000
 Mulliken charges with hydrogens summed into heavy atoms:
               1
     1  C   -0.005436
     2  C    0.291106
     4  C   -0.187215
     8  C    0.088115
    12  B    0.429372
    13  C   -0.057714
    17  O    0.112527
    18  O   -0.156402
    19  C    0.039180
    20  C   -0.352380
    21  C    0.223789
    25  C   -0.316101
    29  C   -0.158046
    33  C   -0.027855
    37  P   -0.872320
    38  O   -0.111678
    39  O   -0.240432
    40  N    0.638521
    43  Li  -0.969420
    44  C    0.401589
    45  O    0.082613
    46  C    0.107577
    47  C    0.080845
    48  C   -0.297575
    57  C    0.334543
    58  O    0.109218
    59  C    0.358109
    60  C   -0.182577
    61  C    0.046785
    70  C    0.239860
    71  C    0.210630
    72  C    0.389530
    73  C   -0.185571
    75  C   -0.295096
    77  C   -0.336905
    81  C   -0.049559
    82  C    0.597366
    83  C    0.402860
    84  C    0.055673
    86  C   -0.069964
    88  C   -0.367561
 Electronic spatial extent (au):  <R**2>=          19888.7523
 Charge=              0.0000 electrons
 Dipole moment (field-independent basis, Debye):
    X=              2.7234    Y=              4.1052    Z=             -1.3374  Tot=              5.1047
 Quadrupole moment (field-independent basis, Debye-Ang):
   XX=           -278.0589   YY=           -232.5829   ZZ=           -210.3156
   XY=              1.6225   XZ=              2.8065   YZ=             -2.8337
 Traceless Quadrupole moment (field-independent basis, Debye-Ang):
   XX=            -37.7397   YY=              7.7362   ZZ=             30.0036
   XY=              1.6225   XZ=              2.8065   YZ=             -2.8337
 Octapole moment (field-independent basis, Debye-Ang**2):
  XXX=            183.8449  YYY=             24.1345  ZZZ=             18.2750  XYY=             35.7210
  XXY=             59.8154  XXZ=            -23.0964  XZZ=            -21.6737  YZZ=             26.5753
  YYZ=            -22.3928  XYZ=             -1.8253
 Hexadecapole moment (field-independent basis, Debye-Ang**3):
 XXXX=         -13170.4598 YYYY=          -7242.1953 ZZZZ=          -5912.8127 XXXY=            425.4967
 XXXZ=            272.8893 YYYX=           -139.0123 YYYZ=             32.4914 ZZZX=            -80.9645
 ZZZY=            -52.5146 XXYY=          -3454.4873 XXZZ=          -3082.0012 YYZZ=          -2285.5081
 XXYZ=              3.5826 YYXZ=             -2.8081 ZZXY=            -63.2753
 N-N= 5.727173146108D+03 E-N=-1.634960443109D+04  KE= 2.083121370486D+03
 Unable to Open any file for archive entry.
 1\1\GINC-NODE18\SP\RwB97XD\6-311++G(d,p)\C31H50B1Li1N1O6P1\WHUGHES2\08
 -Oct-2025\0\\# wb97xd/6-311++g** nosymm int=ultrafine scrf=(smd,solven
 t=tetrahydrofuran)\\aziridinium-phos-full-c1_tzpop-sp\\0,1\C,0,-2.6255
 ,0.2901,2.7136\C,0,-1.6111,1.3074,3.105\H,0,-1.1877,1.8673,2.273\C,0,-
 1.5076,2.0045,4.4353\H,0,-1.8541,1.3859,5.268\H,0,-0.4708,2.299,4.632\
 H,0,-2.1191,2.913,4.411\C,0,-3.6197,-0.197,3.7421\H,0,-3.9581,-1.2033,
 3.4786\H,0,-3.2328,-0.2135,4.768\H,0,-4.4987,0.4576,3.725\B,0,-3.1175,
 0.2212,1.1245\C,0,-3.7159,1.6841,0.7176\H,0,-4.0849,1.7059,-0.3181\H,0
 ,-4.571,1.9485,1.3608\H,0,-2.9819,2.4949,0.8225\O,0,-1.9819,-0.191,0.2
 253\O,0,-4.1005,-0.8761,0.9638\C,0,-3.7528,-1.658,-0.1592\C,0,-2.194,-
 1.5466,-0.1885\C,0,-4.3973,-1.0731,-1.4265\H,0,-3.9812,-0.0915,-1.6693
 \H,0,-4.2629,-1.7305,-2.2941\H,0,-5.4725,-0.9524,-1.2517\C,0,-4.2731,-
 3.0801,0.0399\H,0,-3.9101,-3.7508,-0.7489\H,0,-3.9682,-3.4843,1.0094\H
 ,0,-5.3692,-3.0804,0.0054\C,0,-1.5697,-1.7508,-1.5633\H,0,-0.483,-1.63
 31,-1.5027\H,0,-1.7879,-2.7563,-1.9431\H,0,-1.9469,-1.0179,-2.279\C,0,
 -1.5371,-2.5039,0.8119\H,0,-0.4808,-2.2471,0.9244\H,0,-2.0127,-2.4423,
 1.7964\H,0,-1.5953,-3.5422,0.4656\P,0,1.868,-0.5483,0.4762\O,0,1.1399,
 0.1371,-0.6743\O,0,1.2295,-0.5524,1.8563\N,0,-1.2055,-0.1158,3.0244\H,
 0,-0.5085,-0.3657,2.3001\H,0,-1.0309,-0.5806,3.9127\Li,0,-0.6022,0.888
 8,-0.5704\C,0,-0.9058,3.8423,-0.4453\O,0,-0.402,2.7624,0.3475\C,0,0.95
 97,3.1011,0.6199\C,0,1.4902,3.5793,-0.7257\C,0,0.266,4.2981,-1.3362\H,
 0,-1.7705,3.474,-0.998\H,0,-1.2344,4.6465,0.2275\H,0,0.9867,3.9016,1.3
 75\H,0,1.4539,2.2159,1.0189\H,0,2.3645,4.2285,-0.6233\H,0,1.7664,2.706
 7,-1.3251\H,0,0.3747,5.3863,-1.3033\H,0,0.1097,4.0035,-2.3773\C,0,-2.0
 736,1.8261,-3.1496\O,0,-0.8805,1.4658,-2.4619\C,0,0.0814,1.1399,-3.462
 4\C,0,-0.7038,0.3722,-4.5309\C,0,-2.1547,0.8847,-4.3612\H,0,-2.9042,1.
 727,-2.4474\H,0,-2.0007,2.877,-3.4676\H,0,0.503,2.0713,-3.8708\H,0,0.8
 699,0.568,-2.972\H,0,-0.3063,0.5603,-5.5321\H,0,-0.6492,-0.7041,-4.342
 1\H,0,-2.515,1.4162,-5.2464\H,0,-2.8426,0.057,-4.1654\C,0,2.1965,-2.27
 44,-0.0307\C,0,2.4041,-3.2703,0.9293\C,0,2.24,-2.6168,-1.386\C,0,2.649
 5,-4.5866,0.542\H,0,2.3584,-3.0145,1.9848\C,0,2.4847,-3.9323,-1.7769\H
 ,0,2.0658,-1.8499,-2.1363\C,0,2.6899,-4.9192,-0.8125\H,0,2.8036,-5.354
 ,1.2962\H,0,2.5101,-4.1885,-2.833\H,0,2.8778,-5.946,-1.1155\C,0,3.523,
 0.2187,0.6075\C,0,4.1085,0.8255,-0.5089\C,0,4.2222,0.2043,1.8188\C,0,5
 .3708,1.4095,-0.4172\H,0,3.5654,0.8486,-1.4501\C,0,5.4855,0.7869,1.913
 6\H,0,3.7687,-0.2561,2.6927\C,0,6.0614,1.39,0.7951\H,0,5.8147,1.8821,-
 1.2897\H,0,6.0195,0.7732,2.8602\H,0,7.0455,1.8456,0.8686\\Version=AS64
 L-G16RevC.01\HF=-2091.4818985\RMSD=2.909e-09\Dipole=1.0714637,1.615090
 9,-0.5261687\Quadrupole=-28.0585761,5.7516558,22.3069203,1.2063036,2.0
 865907,-2.1067679\PG=C01 [X(C31H50B1Li1N1O6P1)]\\@
 The archive entry for this job was punched.


 The mind is not a vessel to be filled but a fire to be kindled.
                                  -- Plutarch
 Job cpu time:       0 days  7 hours 52 minutes 17.0 seconds.
 Elapsed time:       0 days  1 hours 59 minutes  3.4 seconds.
 File lengths (MBytes):  RWF=   1310 Int=      0 D2E=      0 Chk=     95 Scr=      1
 Normal termination of Gaussian 16 at Wed Oct  8 17:26:49 2025.
