Job Start Time: Wed Oct  8 15:27:45 MDT 2025
SLURM Job ID: 768179
SLURM Job Name: aziridinium-phos-full-c4_tzpop-sp
 Entering Gaussian System, Link 0=/opt/apps/Gaussian/G16C/g16/g16
 Initial command:
 /opt/apps/Gaussian/G16C/g16/l1.exe "/tmp/768179/Gau-3495100.inp" -scrdir="/tmp/768179/"
 Entering Link 1 = /opt/apps/Gaussian/G16C/g16/l1.exe PID=   3495104.
  
 Copyright (c) 1988-2019, Gaussian, Inc.  All Rights Reserved.
  
 This is part of the Gaussian(R) 16 program.  It is based on
 the Gaussian(R) 09 system (copyright 2009, Gaussian, Inc.),
 the Gaussian(R) 03 system (copyright 2003, Gaussian, Inc.),
 the Gaussian(R) 98 system (copyright 1998, Gaussian, Inc.),
 the Gaussian(R) 94 system (copyright 1995, Gaussian, Inc.),
 the Gaussian 92(TM) system (copyright 1992, Gaussian, Inc.),
 the Gaussian 90(TM) system (copyright 1990, Gaussian, Inc.),
 the Gaussian 88(TM) system (copyright 1988, Gaussian, Inc.),
 the Gaussian 86(TM) system (copyright 1986, Carnegie Mellon
 University), and the Gaussian 82(TM) system (copyright 1983,
 Carnegie Mellon University). Gaussian is a federally registered
 trademark of Gaussian, Inc.
  
 This software contains proprietary and confidential information,
 including trade secrets, belonging to Gaussian, Inc.
  
 This software is provided under written license and may be
 used, copied, transmitted, or stored only in accord with that
 written license.
  
 The following legend is applicable only to US Government
 contracts under FAR:
  
                    RESTRICTED RIGHTS LEGEND
  
 Use, reproduction and disclosure by the US Government is
 subject to restrictions as set forth in subparagraphs (a)
 and (c) of the Commercial Computer Software - Restricted
 Rights clause in FAR 52.227-19.
  
 Gaussian, Inc.
 340 Quinnipiac St., Bldg. 40, Wallingford CT 06492
  
  
 ---------------------------------------------------------------
 Warning -- This program may not be used in any manner that
 competes with the business of Gaussian, Inc. or will provide
 assistance to any competitor of Gaussian, Inc.  The licensee
 of this program is prohibited from giving any competitor of
 Gaussian, Inc. access to this program.  By using this program,
 the user acknowledges that Gaussian, Inc. is engaged in the
 business of creating and licensing software in the field of
 computational chemistry and represents and warrants to the
 licensee that it is not a competitor of Gaussian, Inc. and that
 it will not use this program in any manner prohibited above.
 ---------------------------------------------------------------
  

 Cite this work as:
 Gaussian 16, Revision C.01,
 M. J. Frisch, G. W. Trucks, H. B. Schlegel, G. E. Scuseria, 
 M. A. Robb, J. R. Cheeseman, G. Scalmani, V. Barone, 
 G. A. Petersson, H. Nakatsuji, X. Li, M. Caricato, A. V. Marenich, 
 J. Bloino, B. G. Janesko, R. Gomperts, B. Mennucci, H. P. Hratchian, 
 J. V. Ortiz, A. F. Izmaylov, J. L. Sonnenberg, D. Williams-Young, 
 F. Ding, F. Lipparini, F. Egidi, J. Goings, B. Peng, A. Petrone, 
 T. Henderson, D. Ranasinghe, V. G. Zakrzewski, J. Gao, N. Rega, 
 G. Zheng, W. Liang, M. Hada, M. Ehara, K. Toyota, R. Fukuda, 
 J. Hasegawa, M. Ishida, T. Nakajima, Y. Honda, O. Kitao, H. Nakai, 
 T. Vreven, K. Throssell, J. A. Montgomery, Jr., J. E. Peralta, 
 F. Ogliaro, M. J. Bearpark, J. J. Heyd, E. N. Brothers, K. N. Kudin, 
 V. N. Staroverov, T. A. Keith, R. Kobayashi, J. Normand, 
 K. Raghavachari, A. P. Rendell, J. C. Burant, S. S. Iyengar, 
 J. Tomasi, M. Cossi, J. M. Millam, M. Klene, C. Adamo, R. Cammi, 
 J. W. Ochterski, R. L. Martin, K. Morokuma, O. Farkas, 
 J. B. Foresman, and D. J. Fox, Gaussian, Inc., Wallingford CT, 2019.
 
 ******************************************
 Gaussian 16:  AS64L-G16RevC.01  3-Jul-2019
                 8-Oct-2025 
 ******************************************
 %chk=aziridinium-phos-full-c4_tzpop-sp.chk
 %nprocshared=4
 Will use up to    4 processors via shared memory.
 %mem=8GB
 ----------------------------------------------------------------------
 # wb97xd/6-311++g** nosymm int=ultrafine scrf=(smd,solvent=tetrahydrof
 uran)
 ----------------------------------------------------------------------
 1/38=1,172=1/1;
 2/12=2,15=1,17=6,18=5,40=1/2;
 3/5=4,6=6,7=1111,11=2,25=1,30=1,70=32201,72=20,74=-58,75=-5/1,2,3;
 4//1;
 5/5=2,38=5,53=20/2;
 6/7=2,8=2,9=2,10=2,28=1/1;
 99/5=1,9=1/99;
 ---------------------------------
 aziridinium-phos-full-c4_tzpop-sp
 ---------------------------------
 Symbolic Z-matrix:
 Charge =  0 Multiplicity = 1
 C                    -1.6777   -0.3559    2.5842 
 C                    -1.956    -1.6754    1.9648 
 H                    -2.5043   -1.6305    1.0266 
 C                    -1.141    -2.9252    2.1685 
 H                    -0.888    -3.0885    3.2211 
 H                    -1.6922   -3.8025    1.813 
 H                    -0.1981   -2.8392    1.6162 
 C                    -0.4996   -0.2111    3.5154 
 H                    -0.2074   -1.1452    4.0074 
 H                     0.3569    0.1381    2.9335 
 H                    -0.7058    0.5347    4.2901 
 B                    -2.3505    0.9982    1.8448 
 C                    -1.5801    2.3464    2.3362 
 H                    -0.4944    2.306     2.164 
 H                    -1.9519    3.2474    1.831 
 H                    -1.7195    2.5137    3.4156 
 O                    -2.3655    0.7967    0.3612 
 O                    -3.811     1.0361    2.1732 
 C                    -4.619     0.9837    1.0067 
 C                    -3.6086    1.2393   -0.1741 
 C                    -5.7215    2.0377    1.1191 
 H                    -6.3258    2.0831    0.2046 
 H                    -6.3879    1.7824    1.9512 
 H                    -5.3075    3.0305    1.3146 
 C                    -5.2925   -0.3956    0.9277 
 H                    -5.8383   -0.5781    1.8615 
 H                    -6.0132   -0.453     0.1042 
 H                    -4.5677   -1.2045    0.7914 
 C                    -3.509     2.7187   -0.5711 
 H                    -4.4303    3.0615   -1.0559 
 H                    -3.3112    3.3692    0.2834 
 H                    -2.6894    2.8333   -1.2862 
 C                    -3.9128    0.4407   -1.4391 
 H                    -4.9135    0.6801   -1.8185 
 H                    -3.1863    0.7009   -2.2161 
 H                    -3.8481   -0.6359   -1.2658 
 P                     2.0051   -0.9528    0.4837 
 O                     0.7223   -0.1765    0.2033 
 O                     1.9088   -2.3755    0.991 
 N                    -2.7878   -1.2306    3.118 
 H                    -3.7108   -0.8175    2.9574 
 H                    -2.6654   -1.7216    4.0003 
 Li                   -0.89      0.0994   -0.6774 
 C                     0.0205    2.6665   -1.262 
 O                    -0.444     1.5495   -2.0445 
 C                     0.5736    1.1549   -2.9823 
 C                     1.5957    2.2848   -2.9878 
 C                     1.5116    2.7823   -1.5438 
 H                    -0.5187    3.5663   -1.5858 
 H                    -0.2198    2.4685   -0.2143 
 H                     1.0179    0.214    -2.6368 
 H                     0.0996    0.9957   -3.9556 
 H                     2.5917    1.934    -3.2695 
 H                     1.292     3.0748   -3.6852 
 H                     2.07      2.1144   -0.8815 
 H                     1.8799    3.8038   -1.4116 
 C                    -1.6544   -1.5316   -3.1621 
 O                    -1.3355   -1.5209   -1.773 
 C                    -0.9087   -2.8379   -1.3905 
 C                    -0.5788   -3.5875   -2.6955 
 C                    -0.6391   -2.4886   -3.7662 
 H                    -2.6832   -1.8953   -3.3064 
 H                    -1.5895   -0.5058   -3.5286 
 H                    -0.0505   -2.7185   -0.7258 
 H                    -1.7195   -3.3272   -0.8368 
 H                     0.396    -4.0807   -2.6504 
 H                    -1.3334   -4.3549   -2.8967 
 H                     0.3294   -1.9853   -3.8654 
 H                    -0.9428   -2.8636   -4.7477 
 C                     3.0002   -0.9704   -1.0625 
 C                     2.7818   -2.0078   -1.9771 
 C                     3.9241    0.0262   -1.3911 
 C                     3.4451   -2.0351   -3.2015 
 H                     2.089    -2.805    -1.7221 
 C                     4.6014   -0.0033   -2.6107 
 H                     4.1244    0.8356   -0.6931 
 C                     4.3572   -1.0288   -3.5228 
 H                     3.257    -2.8454   -3.9016 
 H                     5.3178    0.7789   -2.8487 
 H                     4.8815   -1.0494   -4.4747 
 C                     2.9889    0.0677    1.6425 
 C                     4.1288   -0.4583    2.2604 
 C                     2.6139    1.3852    1.9218 
 C                     4.8822    0.3197    3.1376 
 H                     4.4266   -1.4838    2.0548 
 C                     3.3621    2.1662    2.8024 
 H                     1.722     1.7911    1.4516 
 C                     4.4992    1.6343    3.4097 
 H                     5.7657   -0.0993    3.6125 
 H                     3.056     3.1873    3.0156 
 H                     5.0849    2.2407    4.0959 
 
 Symmetry turned off by external request.
 Stoichiometry    C31H50BLiNO6P
 Framework group  C1[X(C31H50BLiNO6P)]
 Deg. of freedom   267
 Full point group                 C1      NOp   1
                          Input orientation:                          
 ---------------------------------------------------------------------
 Center     Atomic      Atomic             Coordinates (Angstroms)
 Number     Number       Type             X           Y           Z
 ---------------------------------------------------------------------
      1          6           0       -1.677700   -0.355900    2.584200
      2          6           0       -1.956000   -1.675400    1.964800
      3          1           0       -2.504300   -1.630500    1.026600
      4          6           0       -1.141000   -2.925200    2.168500
      5          1           0       -0.888000   -3.088500    3.221100
      6          1           0       -1.692200   -3.802500    1.813000
      7          1           0       -0.198100   -2.839200    1.616200
      8          6           0       -0.499600   -0.211100    3.515400
      9          1           0       -0.207400   -1.145200    4.007400
     10          1           0        0.356900    0.138100    2.933500
     11          1           0       -0.705800    0.534700    4.290100
     12          5           0       -2.350500    0.998200    1.844800
     13          6           0       -1.580100    2.346400    2.336200
     14          1           0       -0.494400    2.306000    2.164000
     15          1           0       -1.951900    3.247400    1.831000
     16          1           0       -1.719500    2.513700    3.415600
     17          8           0       -2.365500    0.796700    0.361200
     18          8           0       -3.811000    1.036100    2.173200
     19          6           0       -4.619000    0.983700    1.006700
     20          6           0       -3.608600    1.239300   -0.174100
     21          6           0       -5.721500    2.037700    1.119100
     22          1           0       -6.325800    2.083100    0.204600
     23          1           0       -6.387900    1.782400    1.951200
     24          1           0       -5.307500    3.030500    1.314600
     25          6           0       -5.292500   -0.395600    0.927700
     26          1           0       -5.838300   -0.578100    1.861500
     27          1           0       -6.013200   -0.453000    0.104200
     28          1           0       -4.567700   -1.204500    0.791400
     29          6           0       -3.509000    2.718700   -0.571100
     30          1           0       -4.430300    3.061500   -1.055900
     31          1           0       -3.311200    3.369200    0.283400
     32          1           0       -2.689400    2.833300   -1.286200
     33          6           0       -3.912800    0.440700   -1.439100
     34          1           0       -4.913500    0.680100   -1.818500
     35          1           0       -3.186300    0.700900   -2.216100
     36          1           0       -3.848100   -0.635900   -1.265800
     37         15           0        2.005100   -0.952800    0.483700
     38          8           0        0.722300   -0.176500    0.203300
     39          8           0        1.908800   -2.375500    0.991000
     40          7           0       -2.787800   -1.230600    3.118000
     41          1           0       -3.710800   -0.817500    2.957400
     42          1           0       -2.665400   -1.721600    4.000300
     43          3           0       -0.890000    0.099400   -0.677400
     44          6           0        0.020500    2.666500   -1.262000
     45          8           0       -0.444000    1.549500   -2.044500
     46          6           0        0.573600    1.154900   -2.982300
     47          6           0        1.595700    2.284800   -2.987800
     48          6           0        1.511600    2.782300   -1.543800
     49          1           0       -0.518700    3.566300   -1.585800
     50          1           0       -0.219800    2.468500   -0.214300
     51          1           0        1.017900    0.214000   -2.636800
     52          1           0        0.099600    0.995700   -3.955600
     53          1           0        2.591700    1.934000   -3.269500
     54          1           0        1.292000    3.074800   -3.685200
     55          1           0        2.070000    2.114400   -0.881500
     56          1           0        1.879900    3.803800   -1.411600
     57          6           0       -1.654400   -1.531600   -3.162100
     58          8           0       -1.335500   -1.520900   -1.773000
     59          6           0       -0.908700   -2.837900   -1.390500
     60          6           0       -0.578800   -3.587500   -2.695500
     61          6           0       -0.639100   -2.488600   -3.766200
     62          1           0       -2.683200   -1.895300   -3.306400
     63          1           0       -1.589500   -0.505800   -3.528600
     64          1           0       -0.050500   -2.718500   -0.725800
     65          1           0       -1.719500   -3.327200   -0.836800
     66          1           0        0.396000   -4.080700   -2.650400
     67          1           0       -1.333400   -4.354900   -2.896700
     68          1           0        0.329400   -1.985300   -3.865400
     69          1           0       -0.942800   -2.863600   -4.747700
     70          6           0        3.000200   -0.970400   -1.062500
     71          6           0        2.781800   -2.007800   -1.977100
     72          6           0        3.924100    0.026200   -1.391100
     73          6           0        3.445100   -2.035100   -3.201500
     74          1           0        2.089000   -2.805000   -1.722100
     75          6           0        4.601400   -0.003300   -2.610700
     76          1           0        4.124400    0.835600   -0.693100
     77          6           0        4.357200   -1.028800   -3.522800
     78          1           0        3.257000   -2.845400   -3.901600
     79          1           0        5.317800    0.778900   -2.848700
     80          1           0        4.881500   -1.049400   -4.474700
     81          6           0        2.988900    0.067700    1.642500
     82          6           0        4.128800   -0.458300    2.260400
     83          6           0        2.613900    1.385200    1.921800
     84          6           0        4.882200    0.319700    3.137600
     85          1           0        4.426600   -1.483800    2.054800
     86          6           0        3.362100    2.166200    2.802400
     87          1           0        1.722000    1.791100    1.451600
     88          6           0        4.499200    1.634300    3.409700
     89          1           0        5.765700   -0.099300    3.612500
     90          1           0        3.056000    3.187300    3.015600
     91          1           0        5.084900    2.240700    4.095900
 ---------------------------------------------------------------------
 Rotational constants (GHZ):           0.1141199           0.0746118           0.0633059
 Standard basis: 6-311++G(d,p) (5D, 7F)
  1260 basis functions,  1940 primitive gaussians,  1301 cartesian basis functions
   157 alpha electrons      157 beta electrons
       nuclear repulsion energy      5762.9795113398 Hartrees.
 NAtoms=   91 NActive=   91 NUniq=   91 SFac= 1.00D+00 NAtFMM=   60 NAOKFM=T Big=T
 Integral buffers will be    131072 words long.
 Raffenetti 2 integral format.
 Two-electron integral symmetry is turned off.
 Nuclear repulsion after empirical dispersion term =     5762.8582619574 Hartrees.
 ------------------------------------------------------------------------------
 Polarizable Continuum Model (PCM)
 =================================
 Model                : PCM.
 Atomic radii         : SMD-Coulomb.
 Polarization charges : Total charges.
 Charge compensation  : None.
 Solution method      : On-the-fly selection.
 Cavity type          : VdW (van der Waals Surface) (Alpha=1.000).
 Cavity algorithm     : GePol (No added spheres)
                        Default sphere list used, NSphG=   91.
                        Lebedev-Laikov grids with approx.  5.0 points / Ang**2.
                        Smoothing algorithm: York/Karplus (Gamma=1.0000).
                        Polarization charges: spherical gaussians, with
                                              point-specific exponents (IZeta= 3).
                        Self-potential: point-specific (ISelfS= 7).
                        Self-field    : sphere-specific E.n sum rule (ISelfD= 2).
 Solvent              : TetraHydroFuran, Eps=   7.425700 Eps(inf)=   1.974025
 ------------------------------------------------------------------------------
 ------------------------------------------------------------------------------
 Atomic radii for non-electrostatic terms: SMD-CDS.
 ------------------------------------------------------------------------------
 Nuclear repulsion after PCM non-electrostatic terms =     5762.8497554088 Hartrees.
 One-electron integrals computed using PRISM.
 NBasis=  1260 RedAO= T EigKep=  1.09D-06  NBF=  1260
 NBsUse=  1252 1.00D-06 EigRej=  7.88D-07 NBFU=  1252
 ExpMin= 7.40D-03 ExpMax= 7.75D+04 ExpMxC= 2.65D+03 IAcc=3 IRadAn=         5 AccDes= 0.00D+00
 Harris functional with IExCor= 4639 and IRadAn=       5 diagonalized for initial guess.
 HarFok:  IExCor= 4639 AccDes= 0.00D+00 IRadAn=         5 IDoV= 1 UseB2=F ITyADJ=14
 ICtDFT=  3500011 ScaDFX=  1.000000  1.000000  1.000000  1.000000
 FoFCou: FMM=F IPFlag=           0 FMFlag=      100000 FMFlg1=        2001
         NFxFlg=           0 DoJE=T BraDBF=F KetDBF=T FulRan=T
         wScrn=  0.000000 ICntrl=       500 IOpCl=  0 I1Cent=   200000004 NGrid=           0
         NMat0=    1 NMatS0=      1 NMatT0=    0 NMatD0=    1 NMtDS0=    0 NMtDT0=    0
 Symmetry not used in FoFCou.
 Requested convergence on RMS density matrix=1.00D-08 within 128 cycles.
 Requested convergence on MAX density matrix=1.00D-06.
 Requested convergence on             energy=1.00D-06.
 No special actions if energy rises.
 Inv3:  Mode=1 IEnd=    91875468.
 Iteration    1 A*A^-1 deviation from unit magnitude is 1.52D-14 for   5531.
 Iteration    1 A*A^-1 deviation from orthogonality  is 4.87D-15 for   5316    394.
 Iteration    1 A^-1*A deviation from unit magnitude is 1.52D-14 for   5531.
 Iteration    1 A^-1*A deviation from orthogonality  is 2.61D-13 for   5524   2523.
 Error on total polarization charges =  0.07409
 SCF Done:  E(RwB97XD) =  -2091.47196026     A.U. after   16 cycles
            NFock= 16  Conv=0.44D-08     -V/T= 2.0040
 SMD-CDS (non-electrostatic) energy       (kcal/mol) =      -5.34
 (included in total energy above)

 **********************************************************************

            Population analysis using the SCF Density.

 **********************************************************************

 Alpha  occ. eigenvalues --  -77.25808 -19.25504 -19.24882 -19.20300 -19.19485
 Alpha  occ. eigenvalues --  -19.17144 -19.16239 -14.50457 -10.33171 -10.32389
 Alpha  occ. eigenvalues --  -10.32338 -10.32245 -10.31898 -10.31750 -10.31607
 Alpha  occ. eigenvalues --  -10.30272 -10.28705 -10.28694 -10.28625 -10.28593
 Alpha  occ. eigenvalues --  -10.28568 -10.28553 -10.28492 -10.28478 -10.28470
 Alpha  occ. eigenvalues --  -10.28414 -10.28198 -10.28000 -10.27700 -10.27654
 Alpha  occ. eigenvalues --  -10.27318 -10.27078 -10.26741 -10.26228 -10.25915
 Alpha  occ. eigenvalues --  -10.25565 -10.25517 -10.25127 -10.21352  -6.82317
 Alpha  occ. eigenvalues --   -6.70102  -4.84824  -4.84811  -4.84768  -1.97462
 Alpha  occ. eigenvalues --   -1.14600  -1.13585  -1.11764  -1.09938  -1.06200
 Alpha  occ. eigenvalues --   -1.04741  -1.00031  -0.95534  -0.95351  -0.88178
 Alpha  occ. eigenvalues --   -0.87954  -0.87821  -0.85610  -0.85002  -0.84340
 Alpha  occ. eigenvalues --   -0.84223  -0.83900  -0.83543  -0.83039  -0.82662
 Alpha  occ. eigenvalues --   -0.82456  -0.78688  -0.76716  -0.75808  -0.75033
 Alpha  occ. eigenvalues --   -0.71168  -0.69599  -0.69414  -0.69338  -0.68805
 Alpha  occ. eigenvalues --   -0.68665  -0.68291  -0.68176  -0.67737  -0.65935
 Alpha  occ. eigenvalues --   -0.64890  -0.63282  -0.61388  -0.60742  -0.60403
 Alpha  occ. eigenvalues --   -0.59476  -0.59091  -0.58307  -0.57691  -0.57665
 Alpha  occ. eigenvalues --   -0.57042  -0.54220  -0.54049  -0.53547  -0.53400
 Alpha  occ. eigenvalues --   -0.53210  -0.53034  -0.52513  -0.52229  -0.51599
 Alpha  occ. eigenvalues --   -0.51313  -0.51014  -0.50697  -0.50586  -0.50225
 Alpha  occ. eigenvalues --   -0.50024  -0.49866  -0.49676  -0.48915  -0.48559
 Alpha  occ. eigenvalues --   -0.48338  -0.48202  -0.47619  -0.47381  -0.47083
 Alpha  occ. eigenvalues --   -0.46976  -0.46212  -0.46011  -0.45760  -0.45603
 Alpha  occ. eigenvalues --   -0.44906  -0.44534  -0.44116  -0.43786  -0.43601
 Alpha  occ. eigenvalues --   -0.43586  -0.43276  -0.43030  -0.42712  -0.42556
 Alpha  occ. eigenvalues --   -0.42467  -0.42262  -0.42120  -0.41722  -0.41669
 Alpha  occ. eigenvalues --   -0.41330  -0.40942  -0.40680  -0.40417  -0.40393
 Alpha  occ. eigenvalues --   -0.39839  -0.38823  -0.37655  -0.37527  -0.35943
 Alpha  occ. eigenvalues --   -0.35770  -0.35362  -0.34515  -0.34073  -0.33648
 Alpha  occ. eigenvalues --   -0.33149  -0.32952  -0.32641  -0.31879  -0.31780
 Alpha  occ. eigenvalues --   -0.31121  -0.29511
 Alpha virt. eigenvalues --    0.02217   0.02422   0.02590   0.02719   0.04350
 Alpha virt. eigenvalues --    0.04821   0.05198   0.05419   0.05754   0.05844
 Alpha virt. eigenvalues --    0.05938   0.06116   0.06180   0.06848   0.06990
 Alpha virt. eigenvalues --    0.07061   0.07252   0.07374   0.07466   0.07520
 Alpha virt. eigenvalues --    0.07779   0.07848   0.08081   0.08212   0.08724
 Alpha virt. eigenvalues --    0.08927   0.09084   0.09307   0.09422   0.09890
 Alpha virt. eigenvalues --    0.10045   0.10151   0.10518   0.11055   0.11103
 Alpha virt. eigenvalues --    0.11321   0.11545   0.12023   0.12208   0.12401
 Alpha virt. eigenvalues --    0.12582   0.12874   0.13189   0.13427   0.13460
 Alpha virt. eigenvalues --    0.13736   0.13859   0.14189   0.14423   0.14560
 Alpha virt. eigenvalues --    0.14984   0.15172   0.15225   0.15491   0.15733
 Alpha virt. eigenvalues --    0.15839   0.16010   0.16144   0.16255   0.16410
 Alpha virt. eigenvalues --    0.16473   0.16628   0.16702   0.16918   0.16990
 Alpha virt. eigenvalues --    0.17175   0.17314   0.17455   0.17531   0.17808
 Alpha virt. eigenvalues --    0.17958   0.18090   0.18113   0.18191   0.18354
 Alpha virt. eigenvalues --    0.18497   0.18585   0.18780   0.19073   0.19172
 Alpha virt. eigenvalues --    0.19315   0.19415   0.19595   0.19678   0.19693
 Alpha virt. eigenvalues --    0.19907   0.19950   0.20253   0.20295   0.20351
 Alpha virt. eigenvalues --    0.20490   0.20724   0.20794   0.21016   0.21288
 Alpha virt. eigenvalues --    0.21305   0.21426   0.21623   0.21660   0.21774
 Alpha virt. eigenvalues --    0.21828   0.21944   0.22054   0.22234   0.22311
 Alpha virt. eigenvalues --    0.22481   0.22545   0.22741   0.22920   0.23034
 Alpha virt. eigenvalues --    0.23379   0.23408   0.23473   0.23613   0.23739
 Alpha virt. eigenvalues --    0.23958   0.24060   0.24098   0.24258   0.24292
 Alpha virt. eigenvalues --    0.24394   0.24605   0.24815   0.24984   0.25054
 Alpha virt. eigenvalues --    0.25161   0.25480   0.25555   0.25650   0.25720
 Alpha virt. eigenvalues --    0.25892   0.26144   0.26233   0.26386   0.26485
 Alpha virt. eigenvalues --    0.26528   0.26637   0.26777   0.26940   0.26989
 Alpha virt. eigenvalues --    0.27157   0.27440   0.27508   0.27652   0.27887
 Alpha virt. eigenvalues --    0.28021   0.28127   0.28176   0.28427   0.28542
 Alpha virt. eigenvalues --    0.28699   0.28834   0.29031   0.29195   0.29340
 Alpha virt. eigenvalues --    0.29469   0.29643   0.29756   0.29941   0.30075
 Alpha virt. eigenvalues --    0.30280   0.30427   0.30545   0.30690   0.30902
 Alpha virt. eigenvalues --    0.31037   0.31224   0.31334   0.31497   0.31654
 Alpha virt. eigenvalues --    0.31897   0.32011   0.32122   0.32185   0.32230
 Alpha virt. eigenvalues --    0.32488   0.32660   0.32889   0.33049   0.33258
 Alpha virt. eigenvalues --    0.33420   0.33606   0.33744   0.34010   0.34134
 Alpha virt. eigenvalues --    0.34266   0.34544   0.34629   0.34736   0.34915
 Alpha virt. eigenvalues --    0.35085   0.35343   0.35460   0.35685   0.35859
 Alpha virt. eigenvalues --    0.36026   0.36162   0.36480   0.36593   0.36731
 Alpha virt. eigenvalues --    0.36769   0.37007   0.37080   0.37186   0.37297
 Alpha virt. eigenvalues --    0.37689   0.37846   0.37983   0.38114   0.38361
 Alpha virt. eigenvalues --    0.38442   0.38484   0.38802   0.38910   0.38955
 Alpha virt. eigenvalues --    0.39261   0.39635   0.39692   0.39761   0.39891
 Alpha virt. eigenvalues --    0.40045   0.40287   0.40396   0.40511   0.40646
 Alpha virt. eigenvalues --    0.40789   0.41117   0.41293   0.41480   0.41658
 Alpha virt. eigenvalues --    0.41911   0.42104   0.42164   0.42441   0.42524
 Alpha virt. eigenvalues --    0.42760   0.42804   0.43073   0.43352   0.43486
 Alpha virt. eigenvalues --    0.43615   0.43777   0.43893   0.44111   0.44243
 Alpha virt. eigenvalues --    0.44490   0.44642   0.44663   0.44875   0.44974
 Alpha virt. eigenvalues --    0.45173   0.45450   0.45627   0.46020   0.46139
 Alpha virt. eigenvalues --    0.46369   0.46480   0.46674   0.46954   0.47074
 Alpha virt. eigenvalues --    0.47466   0.47626   0.47984   0.48077   0.48564
 Alpha virt. eigenvalues --    0.48849   0.49079   0.49275   0.49310   0.49922
 Alpha virt. eigenvalues --    0.50093   0.50171   0.50416   0.50598   0.50762
 Alpha virt. eigenvalues --    0.51224   0.51329   0.51698   0.51936   0.52297
 Alpha virt. eigenvalues --    0.52718   0.53006   0.53159   0.53576   0.53871
 Alpha virt. eigenvalues --    0.54413   0.54567   0.55265   0.55324   0.55521
 Alpha virt. eigenvalues --    0.55737   0.56679   0.57257   0.57450   0.57824
 Alpha virt. eigenvalues --    0.58107   0.58268   0.58570   0.58725   0.59668
 Alpha virt. eigenvalues --    0.60087   0.60186   0.60525   0.60871   0.61204
 Alpha virt. eigenvalues --    0.61517   0.61757   0.62346   0.62921   0.62988
 Alpha virt. eigenvalues --    0.63358   0.63503   0.64011   0.64365   0.64748
 Alpha virt. eigenvalues --    0.64975   0.65270   0.65792   0.65997   0.66300
 Alpha virt. eigenvalues --    0.66528   0.66694   0.67115   0.67318   0.67489
 Alpha virt. eigenvalues --    0.67929   0.68437   0.68535   0.68814   0.68883
 Alpha virt. eigenvalues --    0.69177   0.69743   0.69876   0.70065   0.70294
 Alpha virt. eigenvalues --    0.70515   0.70879   0.71202   0.71435   0.71770
 Alpha virt. eigenvalues --    0.72321   0.72555   0.72702   0.72759   0.73092
 Alpha virt. eigenvalues --    0.73142   0.73361   0.73609   0.73789   0.74026
 Alpha virt. eigenvalues --    0.74465   0.74637   0.74868   0.75229   0.75485
 Alpha virt. eigenvalues --    0.75862   0.76055   0.76316   0.76620   0.77049
 Alpha virt. eigenvalues --    0.77366   0.77454   0.77797   0.78157   0.78612
 Alpha virt. eigenvalues --    0.78837   0.78950   0.79362   0.79587   0.79701
 Alpha virt. eigenvalues --    0.79804   0.80259   0.80340   0.80615   0.80870
 Alpha virt. eigenvalues --    0.81166   0.81233   0.81661   0.81804   0.82243
 Alpha virt. eigenvalues --    0.82428   0.82543   0.82855   0.82941   0.83267
 Alpha virt. eigenvalues --    0.83494   0.83902   0.83992   0.84439   0.84572
 Alpha virt. eigenvalues --    0.84752   0.85076   0.85280   0.85464   0.85692
 Alpha virt. eigenvalues --    0.85857   0.86233   0.86438   0.86631   0.86741
 Alpha virt. eigenvalues --    0.86879   0.87006   0.87344   0.87493   0.87955
 Alpha virt. eigenvalues --    0.88010   0.88350   0.88498   0.88584   0.88752
 Alpha virt. eigenvalues --    0.89115   0.89299   0.89564   0.89729   0.89984
 Alpha virt. eigenvalues --    0.90361   0.90510   0.90820   0.91117   0.91387
 Alpha virt. eigenvalues --    0.91503   0.91782   0.92056   0.92099   0.92475
 Alpha virt. eigenvalues --    0.92793   0.92968   0.93394   0.93864   0.93914
 Alpha virt. eigenvalues --    0.94044   0.95049   0.95099   0.95412   0.95602
 Alpha virt. eigenvalues --    0.95993   0.96115   0.96634   0.96806   0.96960
 Alpha virt. eigenvalues --    0.97500   0.97713   0.97937   0.98291   0.98837
 Alpha virt. eigenvalues --    0.98990   0.99455   0.99973   1.00193   1.00367
 Alpha virt. eigenvalues --    1.01286   1.01420   1.01788   1.02058   1.02267
 Alpha virt. eigenvalues --    1.02685   1.02764   1.03240   1.03837   1.04110
 Alpha virt. eigenvalues --    1.04436   1.05065   1.05765   1.05931   1.06914
 Alpha virt. eigenvalues --    1.07359   1.07410   1.08161   1.08425   1.09332
 Alpha virt. eigenvalues --    1.09731   1.10240   1.10797   1.10863   1.11600
 Alpha virt. eigenvalues --    1.11998   1.12739   1.13215   1.13628   1.14064
 Alpha virt. eigenvalues --    1.14685   1.14760   1.15275   1.15893   1.16437
 Alpha virt. eigenvalues --    1.16764   1.16974   1.18067   1.18339   1.18977
 Alpha virt. eigenvalues --    1.19148   1.19320   1.19934   1.20264   1.20361
 Alpha virt. eigenvalues --    1.20623   1.21087   1.21871   1.22253   1.22870
 Alpha virt. eigenvalues --    1.23383   1.23989   1.24377   1.24838   1.25042
 Alpha virt. eigenvalues --    1.25828   1.26470   1.27545   1.27909   1.28129
 Alpha virt. eigenvalues --    1.28782   1.29676   1.30608   1.31275   1.31515
 Alpha virt. eigenvalues --    1.31922   1.32474   1.32756   1.33242   1.33914
 Alpha virt. eigenvalues --    1.34314   1.34861   1.35810   1.35978   1.36648
 Alpha virt. eigenvalues --    1.37249   1.37664   1.38286   1.38583   1.38913
 Alpha virt. eigenvalues --    1.39447   1.40124   1.40678   1.41235   1.41683
 Alpha virt. eigenvalues --    1.42174   1.42757   1.43374   1.44095   1.44613
 Alpha virt. eigenvalues --    1.44946   1.45386   1.45875   1.46200   1.46933
 Alpha virt. eigenvalues --    1.47929   1.48935   1.49897   1.50379   1.50947
 Alpha virt. eigenvalues --    1.51627   1.52251   1.52517   1.53524   1.54190
 Alpha virt. eigenvalues --    1.54710   1.55077   1.55212   1.55893   1.56462
 Alpha virt. eigenvalues --    1.56920   1.57504   1.58307   1.58583   1.59564
 Alpha virt. eigenvalues --    1.60192   1.60809   1.61081   1.61481   1.61797
 Alpha virt. eigenvalues --    1.62047   1.62608   1.63032   1.63108   1.63883
 Alpha virt. eigenvalues --    1.64047   1.64286   1.64638   1.64887   1.65104
 Alpha virt. eigenvalues --    1.65336   1.65588   1.66277   1.66424   1.66453
 Alpha virt. eigenvalues --    1.67136   1.67346   1.67568   1.67902   1.68084
 Alpha virt. eigenvalues --    1.68274   1.68880   1.69099   1.69431   1.69890
 Alpha virt. eigenvalues --    1.70090   1.70432   1.70839   1.70964   1.71572
 Alpha virt. eigenvalues --    1.71853   1.72072   1.72326   1.72852   1.73100
 Alpha virt. eigenvalues --    1.73547   1.74149   1.74391   1.74695   1.74864
 Alpha virt. eigenvalues --    1.75332   1.75472   1.76068   1.76364   1.76838
 Alpha virt. eigenvalues --    1.77169   1.77326   1.77697   1.77885   1.78303
 Alpha virt. eigenvalues --    1.78501   1.78857   1.79066   1.79382   1.79693
 Alpha virt. eigenvalues --    1.79816   1.80188   1.80601   1.80803   1.81329
 Alpha virt. eigenvalues --    1.81572   1.82277   1.82620   1.82789   1.83206
 Alpha virt. eigenvalues --    1.83460   1.84386   1.84567   1.84862   1.85123
 Alpha virt. eigenvalues --    1.85363   1.85916   1.86002   1.86414   1.86896
 Alpha virt. eigenvalues --    1.87058   1.87479   1.87820   1.88341   1.88546
 Alpha virt. eigenvalues --    1.88806   1.89068   1.89447   1.90015   1.90168
 Alpha virt. eigenvalues --    1.90351   1.90969   1.91482   1.91777   1.92015
 Alpha virt. eigenvalues --    1.92417   1.92505   1.92986   1.93364   1.93819
 Alpha virt. eigenvalues --    1.94490   1.94691   1.95195   1.95716   1.95932
 Alpha virt. eigenvalues --    1.96277   1.96497   1.97159   1.97428   1.97586
 Alpha virt. eigenvalues --    1.98354   1.98957   1.99070   1.99728   2.00143
 Alpha virt. eigenvalues --    2.00215   2.00579   2.00791   2.01362   2.02524
 Alpha virt. eigenvalues --    2.02957   2.03418   2.03627   2.03864   2.04175
 Alpha virt. eigenvalues --    2.04726   2.04833   2.05166   2.05542   2.05612
 Alpha virt. eigenvalues --    2.05879   2.06126   2.06528   2.07018   2.07853
 Alpha virt. eigenvalues --    2.07960   2.08360   2.08802   2.09102   2.09752
 Alpha virt. eigenvalues --    2.09948   2.10325   2.10592   2.10967   2.11184
 Alpha virt. eigenvalues --    2.11505   2.12543   2.12818   2.13457   2.13932
 Alpha virt. eigenvalues --    2.14662   2.14882   2.15437   2.15741   2.16177
 Alpha virt. eigenvalues --    2.16522   2.17306   2.17615   2.17814   2.18695
 Alpha virt. eigenvalues --    2.19188   2.20036   2.20101   2.21032   2.21308
 Alpha virt. eigenvalues --    2.21575   2.21958   2.22429   2.23413   2.24331
 Alpha virt. eigenvalues --    2.25381   2.25726   2.25864   2.26411   2.26967
 Alpha virt. eigenvalues --    2.28209   2.29212   2.29555   2.29748   2.30565
 Alpha virt. eigenvalues --    2.31567   2.32490   2.32634   2.33267   2.33820
 Alpha virt. eigenvalues --    2.34182   2.34910   2.35164   2.35703   2.36324
 Alpha virt. eigenvalues --    2.36976   2.38213   2.38686   2.39479   2.39938
 Alpha virt. eigenvalues --    2.40014   2.40115   2.41244   2.41567   2.41880
 Alpha virt. eigenvalues --    2.42703   2.43080   2.43201   2.43356   2.43433
 Alpha virt. eigenvalues --    2.44218   2.45047   2.45601   2.46309   2.47080
 Alpha virt. eigenvalues --    2.47605   2.48011   2.49034   2.50129   2.50508
 Alpha virt. eigenvalues --    2.50872   2.51332   2.52672   2.53828   2.54416
 Alpha virt. eigenvalues --    2.54964   2.55232   2.55489   2.56089   2.59023
 Alpha virt. eigenvalues --    2.59234   2.59852   2.60009   2.61355   2.61544
 Alpha virt. eigenvalues --    2.62267   2.63264   2.63847   2.63945   2.64444
 Alpha virt. eigenvalues --    2.64851   2.65109   2.65726   2.65879   2.65994
 Alpha virt. eigenvalues --    2.66226   2.67104   2.67201   2.67736   2.68573
 Alpha virt. eigenvalues --    2.68636   2.69698   2.69741   2.70150   2.71230
 Alpha virt. eigenvalues --    2.71454   2.72223   2.72804   2.73846   2.74223
 Alpha virt. eigenvalues --    2.74334   2.74652   2.75186   2.75513   2.76199
 Alpha virt. eigenvalues --    2.76319   2.77103   2.77361   2.78287   2.78990
 Alpha virt. eigenvalues --    2.79285   2.79456   2.80523   2.80769   2.80919
 Alpha virt. eigenvalues --    2.81681   2.81908   2.82259   2.83091   2.83214
 Alpha virt. eigenvalues --    2.83816   2.84748   2.85160   2.85604   2.85905
 Alpha virt. eigenvalues --    2.86162   2.86845   2.87648   2.88018   2.88678
 Alpha virt. eigenvalues --    2.89063   2.89335   2.89787   2.90143   2.90808
 Alpha virt. eigenvalues --    2.91138   2.91340   2.91711   2.92320   2.92927
 Alpha virt. eigenvalues --    2.93521   2.93594   2.94012   2.94197   2.94595
 Alpha virt. eigenvalues --    2.94744   2.95182   2.95380   2.96234   2.96761
 Alpha virt. eigenvalues --    2.97232   2.97429   2.97780   2.98705   2.99126
 Alpha virt. eigenvalues --    2.99295   2.99513   2.99809   3.00308   3.00886
 Alpha virt. eigenvalues --    3.01373   3.01743   3.02401   3.02466   3.03226
 Alpha virt. eigenvalues --    3.03706   3.04178   3.04607   3.04973   3.05280
 Alpha virt. eigenvalues --    3.05621   3.06387   3.06788   3.06936   3.07253
 Alpha virt. eigenvalues --    3.07567   3.07893   3.09017   3.09339   3.09743
 Alpha virt. eigenvalues --    3.10229   3.10841   3.11196   3.11643   3.11986
 Alpha virt. eigenvalues --    3.12066   3.14245   3.14811   3.15512   3.16051
 Alpha virt. eigenvalues --    3.16934   3.17617   3.18367   3.19384   3.20156
 Alpha virt. eigenvalues --    3.20531   3.20820   3.21079   3.21675   3.22266
 Alpha virt. eigenvalues --    3.22833   3.23662   3.24061   3.25098   3.25463
 Alpha virt. eigenvalues --    3.25928   3.26929   3.27674   3.28052   3.28922
 Alpha virt. eigenvalues --    3.29347   3.30052   3.31366   3.32356   3.33363
 Alpha virt. eigenvalues --    3.33662   3.35428   3.35525   3.36077   3.36541
 Alpha virt. eigenvalues --    3.37456   3.38053   3.38956   3.40142   3.41595
 Alpha virt. eigenvalues --    3.42472   3.42838   3.43581   3.44287   3.45432
 Alpha virt. eigenvalues --    3.47136   3.47930   3.49394   3.49894   3.50574
 Alpha virt. eigenvalues --    3.51283   3.51595   3.51885   3.52732   3.53515
 Alpha virt. eigenvalues --    3.54799   3.56453   3.58484   3.62148   3.65395
 Alpha virt. eigenvalues --    3.67188   3.68163   3.69421   3.69667   3.70062
 Alpha virt. eigenvalues --    3.74382   3.74943   3.76937   3.78450   3.79594
 Alpha virt. eigenvalues --    3.81553   3.81629   3.88586   3.89301   3.90665
 Alpha virt. eigenvalues --    3.91160   3.91829   3.92615   3.93153   3.94490
 Alpha virt. eigenvalues --    3.94729   3.95945   3.96041   3.96176   3.97038
 Alpha virt. eigenvalues --    3.97292   3.97951   3.98987   3.99640   4.00927
 Alpha virt. eigenvalues --    4.01387   4.02266   4.04759   4.08600   4.09925
 Alpha virt. eigenvalues --    4.11982   4.12399   4.12633   4.14268   4.15867
 Alpha virt. eigenvalues --    4.16167   4.18687   4.21245   4.21786   4.26065
 Alpha virt. eigenvalues --    4.26577   4.28324   4.29058   4.29477   4.30074
 Alpha virt. eigenvalues --    4.30554   4.30813   4.31485   4.33352   4.35193
 Alpha virt. eigenvalues --    4.39839   4.42525   4.43437   4.45670   4.47050
 Alpha virt. eigenvalues --    4.48012   4.53714   4.72073   4.79688   4.87138
 Alpha virt. eigenvalues --    4.95826   4.96406   5.08350   5.38141   5.39604
 Alpha virt. eigenvalues --    5.40303   5.41707   5.45496   5.50823   5.52555
 Alpha virt. eigenvalues --    5.56707   5.57430   5.58416   5.65026   5.67414
 Alpha virt. eigenvalues --    5.68278   5.76723   5.77804   5.80051   5.81562
 Alpha virt. eigenvalues --    5.92073   7.70406  14.38062  14.44320  14.49273
 Alpha virt. eigenvalues --   14.93978  23.80209  23.82489  23.95778  24.00031
 Alpha virt. eigenvalues --   24.01631  24.02324  24.03635  24.05103  24.05858
 Alpha virt. eigenvalues --   24.07209  24.11139  24.12042  24.12723  24.13289
 Alpha virt. eigenvalues --   24.13684  24.14509  24.14579  24.16085  24.16326
 Alpha virt. eigenvalues --   24.17175  24.18091  24.18590  24.18878  24.20712
 Alpha virt. eigenvalues --   24.22069  24.22167  24.23537  24.23877  24.24569
 Alpha virt. eigenvalues --   24.33138  24.33254  35.72274  50.15442  50.18312
 Alpha virt. eigenvalues --   50.20151  50.24567  50.24726  50.26840 163.95843
          Condensed to atoms (all electrons):
 Mulliken charges:
               1
     1  C   -0.736073
     2  C    0.032627
     3  H    0.177944
     4  C   -0.930485
     5  H    0.179108
     6  H    0.207004
     7  H    0.181251
     8  C   -0.516340
     9  H    0.157400
    10  H    0.153628
    11  H    0.220470
    12  B    1.379173
    13  C   -0.812351
    14  H    0.211326
    15  H    0.115901
    16  H    0.140589
    17  O    0.054596
    18  O   -0.211799
    19  C   -0.571344
    20  C    0.061796
    21  C   -0.720918
    22  H    0.198126
    23  H    0.184928
    24  H    0.189809
    25  C   -0.514807
    26  H    0.218769
    27  H    0.207231
    28  H    0.127275
    29  C   -0.435673
    30  H    0.202150
    31  H    0.151121
    32  H    0.132012
    33  C   -0.636010
    34  H    0.248554
    35  H    0.126714
    36  H    0.130898
    37  P   -0.133222
    38  O    0.268118
    39  O   -0.123467
    40  N    0.047183
    41  H    0.372386
    42  H    0.448413
    43  Li  -0.632915
    44  C   -0.243704
    45  O    0.051997
    46  C   -0.109967
    47  C   -0.795502
    48  C   -0.219781
    49  H    0.181370
    50  H    0.071806
    51  H    0.266704
    52  H    0.175761
    53  H    0.202912
    54  H    0.243965
    55  H    0.164822
    56  H    0.274323
    57  C   -0.015627
    58  O    0.122626
    59  C    0.050946
    60  C   -0.628873
    61  C   -0.702591
    62  H    0.214446
    63  H    0.158461
    64  H    0.209235
    65  H    0.204842
    66  H    0.212257
    67  H    0.222313
    68  H    0.109849
    69  H    0.266424
    70  C    0.351516
    71  C   -0.163798
    72  C   -0.227235
    73  C   -0.563365
    74  H    0.299878
    75  C   -0.516325
    76  H    0.270711
    77  C   -0.467873
    78  H    0.267665
    79  H    0.273633
    80  H    0.256632
    81  C    0.235379
    82  C    0.027373
    83  C   -0.117791
    84  C   -0.657885
    85  H    0.297319
    86  C   -0.275096
    87  H    0.159560
    88  C   -0.514516
    89  H    0.271387
    90  H    0.292279
    91  H    0.260441
 Sum of Mulliken charges =  -0.00000
 Mulliken charges with hydrogens summed into heavy atoms:
               1
     1  C   -0.736073
     2  C    0.210571
     4  C   -0.363122
     8  C    0.015157
    12  B    1.379173
    13  C   -0.344535
    17  O    0.054596
    18  O   -0.211799
    19  C   -0.571344
    20  C    0.061796
    21  C   -0.148055
    25  C    0.038468
    29  C    0.049610
    33  C   -0.129845
    37  P   -0.133222
    38  O    0.268118
    39  O   -0.123467
    40  N    0.867983
    43  Li  -0.632915
    44  C    0.009472
    45  O    0.051997
    46  C    0.332498
    47  C   -0.348625
    48  C    0.219365
    57  C    0.357280
    58  O    0.122626
    59  C    0.465024
    60  C   -0.194304
    61  C   -0.326318
    70  C    0.351516
    71  C    0.136080
    72  C    0.043476
    73  C   -0.295700
    75  C   -0.242691
    77  C   -0.211241
    81  C    0.235379
    82  C    0.324691
    83  C    0.041768
    84  C   -0.386498
    86  C    0.017184
    88  C   -0.254075
 Electronic spatial extent (au):  <R**2>=          19679.8290
 Charge=              0.0000 electrons
 Dipole moment (field-independent basis, Debye):
    X=             -5.1151    Y=             -1.9164    Z=             -3.7102  Tot=              6.6032
 Quadrupole moment (field-independent basis, Debye-Ang):
   XX=           -245.7338   YY=           -249.5165   ZZ=           -222.6577
   XY=             32.8236   XZ=             -7.9764   YZ=             -5.6382
 Traceless Quadrupole moment (field-independent basis, Debye-Ang):
   XX=             -6.4312   YY=            -10.2138   ZZ=             16.6450
   XY=             32.8236   XZ=             -7.9764   YZ=             -5.6382
 Octapole moment (field-independent basis, Debye-Ang**2):
  XXX=            -20.3754  YYY=             11.6673  ZZZ=             -6.1756  XYY=            -25.8944
  XXY=             -5.2654  XXZ=              4.3003  XZZ=             -1.2041  YZZ=            -71.9302
  YYZ=            -38.3384  XYZ=             60.4037
 Hexadecapole moment (field-independent basis, Debye-Ang**3):
 XXXX=         -13726.1342 YYYY=          -5122.9140 ZZZZ=          -7341.1014 XXXY=            695.3401
 XXXZ=            693.8825 YYYX=            646.3449 YYYZ=           -513.8735 ZZZX=            335.1086
 ZZZY=           -642.2874 XXYY=          -3238.5262 XXZZ=          -3255.6167 YYZZ=          -2020.0030
 XXYZ=           -305.0658 YYXZ=            183.2454 ZZXY=            384.7283
 N-N= 5.762849755409D+03 E-N=-1.642057525374D+04  KE= 2.083080519031D+03
 Unable to Open any file for archive entry.
 1\1\GINC-NODE20\SP\RwB97XD\6-311++G(d,p)\C31H50B1Li1N1O6P1\WHUGHES2\08
 -Oct-2025\0\\# wb97xd/6-311++g** nosymm int=ultrafine scrf=(smd,solven
 t=tetrahydrofuran)\\aziridinium-phos-full-c4_tzpop-sp\\0,1\C,0,-1.6777
 ,-0.3559,2.5842\C,0,-1.956,-1.6754,1.9648\H,0,-2.5043,-1.6305,1.0266\C
 ,0,-1.141,-2.9252,2.1685\H,0,-0.888,-3.0885,3.2211\H,0,-1.6922,-3.8025
 ,1.813\H,0,-0.1981,-2.8392,1.6162\C,0,-0.4996,-0.2111,3.5154\H,0,-0.20
 74,-1.1452,4.0074\H,0,0.3569,0.1381,2.9335\H,0,-0.7058,0.5347,4.2901\B
 ,0,-2.3505,0.9982,1.8448\C,0,-1.5801,2.3464,2.3362\H,0,-0.4944,2.306,2
 .164\H,0,-1.9519,3.2474,1.831\H,0,-1.7195,2.5137,3.4156\O,0,-2.3655,0.
 7967,0.3612\O,0,-3.811,1.0361,2.1732\C,0,-4.619,0.9837,1.0067\C,0,-3.6
 086,1.2393,-0.1741\C,0,-5.7215,2.0377,1.1191\H,0,-6.3258,2.0831,0.2046
 \H,0,-6.3879,1.7824,1.9512\H,0,-5.3075,3.0305,1.3146\C,0,-5.2925,-0.39
 56,0.9277\H,0,-5.8383,-0.5781,1.8615\H,0,-6.0132,-0.453,0.1042\H,0,-4.
 5677,-1.2045,0.7914\C,0,-3.509,2.7187,-0.5711\H,0,-4.4303,3.0615,-1.05
 59\H,0,-3.3112,3.3692,0.2834\H,0,-2.6894,2.8333,-1.2862\C,0,-3.9128,0.
 4407,-1.4391\H,0,-4.9135,0.6801,-1.8185\H,0,-3.1863,0.7009,-2.2161\H,0
 ,-3.8481,-0.6359,-1.2658\P,0,2.0051,-0.9528,0.4837\O,0,0.7223,-0.1765,
 0.2033\O,0,1.9088,-2.3755,0.991\N,0,-2.7878,-1.2306,3.118\H,0,-3.7108,
 -0.8175,2.9574\H,0,-2.6654,-1.7216,4.0003\Li,0,-0.89,0.0994,-0.6774\C,
 0,0.0205,2.6665,-1.262\O,0,-0.444,1.5495,-2.0445\C,0,0.5736,1.1549,-2.
 9823\C,0,1.5957,2.2848,-2.9878\C,0,1.5116,2.7823,-1.5438\H,0,-0.5187,3
 .5663,-1.5858\H,0,-0.2198,2.4685,-0.2143\H,0,1.0179,0.214,-2.6368\H,0,
 0.0996,0.9957,-3.9556\H,0,2.5917,1.934,-3.2695\H,0,1.292,3.0748,-3.685
 2\H,0,2.07,2.1144,-0.8815\H,0,1.8799,3.8038,-1.4116\C,0,-1.6544,-1.531
 6,-3.1621\O,0,-1.3355,-1.5209,-1.773\C,0,-0.9087,-2.8379,-1.3905\C,0,-
 0.5788,-3.5875,-2.6955\C,0,-0.6391,-2.4886,-3.7662\H,0,-2.6832,-1.8953
 ,-3.3064\H,0,-1.5895,-0.5058,-3.5286\H,0,-0.0505,-2.7185,-0.7258\H,0,-
 1.7195,-3.3272,-0.8368\H,0,0.396,-4.0807,-2.6504\H,0,-1.3334,-4.3549,-
 2.8967\H,0,0.3294,-1.9853,-3.8654\H,0,-0.9428,-2.8636,-4.7477\C,0,3.00
 02,-0.9704,-1.0625\C,0,2.7818,-2.0078,-1.9771\C,0,3.9241,0.0262,-1.391
 1\C,0,3.4451,-2.0351,-3.2015\H,0,2.089,-2.805,-1.7221\C,0,4.6014,-0.00
 33,-2.6107\H,0,4.1244,0.8356,-0.6931\C,0,4.3572,-1.0288,-3.5228\H,0,3.
 257,-2.8454,-3.9016\H,0,5.3178,0.7789,-2.8487\H,0,4.8815,-1.0494,-4.47
 47\C,0,2.9889,0.0677,1.6425\C,0,4.1288,-0.4583,2.2604\C,0,2.6139,1.385
 2,1.9218\C,0,4.8822,0.3197,3.1376\H,0,4.4266,-1.4838,2.0548\C,0,3.3621
 ,2.1662,2.8024\H,0,1.722,1.7911,1.4516\C,0,4.4992,1.6343,3.4097\H,0,5.
 7657,-0.0993,3.6125\H,0,3.056,3.1873,3.0156\H,0,5.0849,2.2407,4.0959\\
 Version=AS64L-G16RevC.01\HF=-2091.4719603\RMSD=4.411e-09\Dipole=-2.012
 4417,-0.7539891,-1.4596963\Quadrupole=-4.7814163,-7.5937222,12.3751385
 ,24.4035092,-5.9302904,-4.1918592\PG=C01 [X(C31H50B1Li1N1O6P1)]\\@
 The archive entry for this job was punched.


 WHAT THE SLIME CONTAINS, THE GLOWING REVEALS
 BY THE FLAME'S BRIGHT HUE WHEN YOU IGNITE IT.
   --  LEONARD THURNEYSSER, 1531-1596
 DESCRIBING HIS FLAME PHOTOLYSIS ANALYTIC METHOD
 Job cpu time:       0 days  7 hours 44 minutes  7.8 seconds.
 Elapsed time:       0 days  1 hours 57 minutes  1.9 seconds.
 File lengths (MBytes):  RWF=   1336 Int=      0 D2E=      0 Chk=     95 Scr=      1
 Normal termination of Gaussian 16 at Wed Oct  8 17:24:47 2025.
