Job Start Time: Wed Oct  8 15:27:45 MDT 2025
SLURM Job ID: 768181
SLURM Job Name: aziridinium-phos-full-c7_tzpop-sp
 Entering Gaussian System, Link 0=/opt/apps/Gaussian/G16C/g16/g16
 Initial command:
 /opt/apps/Gaussian/G16C/g16/l1.exe "/tmp/768181/Gau-407002.inp" -scrdir="/tmp/768181/"
 Entering Link 1 = /opt/apps/Gaussian/G16C/g16/l1.exe PID=    407003.
  
 Copyright (c) 1988-2019, Gaussian, Inc.  All Rights Reserved.
  
 This is part of the Gaussian(R) 16 program.  It is based on
 the Gaussian(R) 09 system (copyright 2009, Gaussian, Inc.),
 the Gaussian(R) 03 system (copyright 2003, Gaussian, Inc.),
 the Gaussian(R) 98 system (copyright 1998, Gaussian, Inc.),
 the Gaussian(R) 94 system (copyright 1995, Gaussian, Inc.),
 the Gaussian 92(TM) system (copyright 1992, Gaussian, Inc.),
 the Gaussian 90(TM) system (copyright 1990, Gaussian, Inc.),
 the Gaussian 88(TM) system (copyright 1988, Gaussian, Inc.),
 the Gaussian 86(TM) system (copyright 1986, Carnegie Mellon
 University), and the Gaussian 82(TM) system (copyright 1983,
 Carnegie Mellon University). Gaussian is a federally registered
 trademark of Gaussian, Inc.
  
 This software contains proprietary and confidential information,
 including trade secrets, belonging to Gaussian, Inc.
  
 This software is provided under written license and may be
 used, copied, transmitted, or stored only in accord with that
 written license.
  
 The following legend is applicable only to US Government
 contracts under FAR:
  
                    RESTRICTED RIGHTS LEGEND
  
 Use, reproduction and disclosure by the US Government is
 subject to restrictions as set forth in subparagraphs (a)
 and (c) of the Commercial Computer Software - Restricted
 Rights clause in FAR 52.227-19.
  
 Gaussian, Inc.
 340 Quinnipiac St., Bldg. 40, Wallingford CT 06492
  
  
 ---------------------------------------------------------------
 Warning -- This program may not be used in any manner that
 competes with the business of Gaussian, Inc. or will provide
 assistance to any competitor of Gaussian, Inc.  The licensee
 of this program is prohibited from giving any competitor of
 Gaussian, Inc. access to this program.  By using this program,
 the user acknowledges that Gaussian, Inc. is engaged in the
 business of creating and licensing software in the field of
 computational chemistry and represents and warrants to the
 licensee that it is not a competitor of Gaussian, Inc. and that
 it will not use this program in any manner prohibited above.
 ---------------------------------------------------------------
  

 Cite this work as:
 Gaussian 16, Revision C.01,
 M. J. Frisch, G. W. Trucks, H. B. Schlegel, G. E. Scuseria, 
 M. A. Robb, J. R. Cheeseman, G. Scalmani, V. Barone, 
 G. A. Petersson, H. Nakatsuji, X. Li, M. Caricato, A. V. Marenich, 
 J. Bloino, B. G. Janesko, R. Gomperts, B. Mennucci, H. P. Hratchian, 
 J. V. Ortiz, A. F. Izmaylov, J. L. Sonnenberg, D. Williams-Young, 
 F. Ding, F. Lipparini, F. Egidi, J. Goings, B. Peng, A. Petrone, 
 T. Henderson, D. Ranasinghe, V. G. Zakrzewski, J. Gao, N. Rega, 
 G. Zheng, W. Liang, M. Hada, M. Ehara, K. Toyota, R. Fukuda, 
 J. Hasegawa, M. Ishida, T. Nakajima, Y. Honda, O. Kitao, H. Nakai, 
 T. Vreven, K. Throssell, J. A. Montgomery, Jr., J. E. Peralta, 
 F. Ogliaro, M. J. Bearpark, J. J. Heyd, E. N. Brothers, K. N. Kudin, 
 V. N. Staroverov, T. A. Keith, R. Kobayashi, J. Normand, 
 K. Raghavachari, A. P. Rendell, J. C. Burant, S. S. Iyengar, 
 J. Tomasi, M. Cossi, J. M. Millam, M. Klene, C. Adamo, R. Cammi, 
 J. W. Ochterski, R. L. Martin, K. Morokuma, O. Farkas, 
 J. B. Foresman, and D. J. Fox, Gaussian, Inc., Wallingford CT, 2019.
 
 ******************************************
 Gaussian 16:  AS64L-G16RevC.01  3-Jul-2019
                 8-Oct-2025 
 ******************************************
 %chk=aziridinium-phos-full-c7_tzpop-sp.chk
 %nprocshared=4
 Will use up to    4 processors via shared memory.
 %mem=8GB
 ----------------------------------------------------------------------
 # wb97xd/6-311++g** nosymm int=ultrafine scrf=(smd,solvent=tetrahydrof
 uran)
 ----------------------------------------------------------------------
 1/38=1,172=1/1;
 2/12=2,15=1,17=6,18=5,40=1/2;
 3/5=4,6=6,7=1111,11=2,25=1,30=1,70=32201,72=20,74=-58,75=-5/1,2,3;
 4//1;
 5/5=2,38=5,53=20/2;
 6/7=2,8=2,9=2,10=2,28=1/1;
 99/5=1,9=1/99;
 ---------------------------------
 aziridinium-phos-full-c7_tzpop-sp
 ---------------------------------
 Symbolic Z-matrix:
 Charge =  0 Multiplicity = 1
 C                    -3.7622    1.597     1.2734 
 C                    -3.8297    1.4749    2.7573 
 H                    -3.7346    0.4594    3.1307 
 C                    -3.5272    2.5429    3.773 
 H                    -3.6241    3.5564    3.3747 
 H                    -4.1966    2.4425    4.6345 
 H                    -2.5017    2.4134    4.1319 
 C                    -3.4174    2.9159    0.6266 
 H                    -3.5483    3.7866    1.279 
 H                    -2.372     2.8858    0.3043 
 H                    -4.0323    3.0652   -0.2667 
 B                    -3.6423    0.199     0.3721 
 C                    -4.2709    0.4576   -1.1098 
 H                    -4.2956   -0.4696   -1.6997 
 H                    -5.3074    0.8316   -1.0619 
 H                    -3.6839    1.1854   -1.6852 
 O                    -2.2413   -0.3213    0.2949 
 O                    -4.3615   -0.8335    1.1586 
 C                    -3.6193   -2.0373    1.1719 
 C                    -2.1257   -1.5683    0.9867 
 C                    -4.1137   -2.9356    0.0267 
 H                    -5.1963   -3.0692    0.1333 
 H                    -3.9264   -2.487    -0.9525 
 H                    -3.6433   -3.9253    0.0482 
 C                    -3.8736   -2.7609    2.4931 
 H                    -4.9261   -3.0629    2.5501 
 H                    -3.2575   -3.6643    2.5757 
 H                    -3.6597   -2.117     3.3515 
 C                    -1.2887   -2.5317    0.1475 
 H                    -0.2719   -2.1458    0.0596 
 H                    -1.2423   -3.5213    0.6184 
 H                    -1.6932   -2.6455   -0.8622 
 C                    -1.3844   -1.3191    2.3047 
 H                    -0.4044   -0.8804    2.0829 
 H                    -1.9315   -0.6323    2.9572 
 H                    -1.2086   -2.2504    2.8555 
 P                     2.249    -0.7876    0.1141 
 O                     1.0143   -0.1924   -0.5576 
 O                     2.2802   -0.983     1.613 
 N                    -5.0968    1.6062    1.9924 
 H                    -5.6594    0.7614    1.8956 
 H                    -5.617     2.4766    2.078 
 Li                   -0.6306    0.6533   -0.2554 
 C                     1.1566    2.9107    0.475 
 O                    -0.1502    2.3634    0.736 
 C                    -0.3519    2.2831    2.1494 
 C                     1.0379    2.0668    2.7239 
 C                     1.8805    2.9826    1.8269 
 H                     1.6488    2.2374   -0.2307 
 H                     1.0397    3.8977    0.0132 
 H                    -0.799     3.2223    2.508 
 H                    -1.0497    1.4637    2.3324 
 H                     1.0997    2.3316    3.7839 
 H                     1.3389    1.0214    2.5919 
 H                     1.8741    4.0085    2.212 
 H                     2.9202    2.6549    1.7449 
 C                    -1.0664    0.3605   -2.9655 
 O                    -1.1995    1.4228   -2.0183 
 C                    -0.6003    2.5685   -2.6107 
 C                     0.6653    2.0389   -3.2793 
 C                     0.2631    0.6092   -3.7033 
 H                    -1.0953   -0.5766   -2.4048 
 H                    -1.9232    0.389    -3.6528 
 H                    -1.2946    2.9996   -3.3485 
 H                    -0.4265    3.2999   -1.8193 
 H                     0.9792    2.6629   -4.1212 
 H                     1.4794    2.0029   -2.5501 
 H                     0.1269    0.5274   -4.7859 
 H                     1.0211   -0.1148   -3.396 
 C                     2.5777   -2.3839   -0.7282 
 C                     1.8289   -2.7716   -1.8432 
 C                     3.5886   -3.2333   -0.2637 
 C                     2.0821   -3.9849   -2.4836 
 H                     1.0362   -2.1187   -2.1991 
 C                     3.8479   -4.4443   -0.9023 
 H                     4.1747   -2.9461    0.6066 
 C                     3.0937   -4.8222   -2.0147 
 H                     1.4887   -4.2768   -3.3466 
 H                     4.6354   -5.0956   -0.5316 
 H                     3.2935   -5.7677   -2.5125 
 C                     3.6794    0.2525   -0.3754 
 C                     4.5993    0.6881    0.5813 
 C                     3.8583    0.6348   -1.7103 
 C                     5.6726    1.5026    0.2163 
 H                     4.4635    0.3891    1.6175 
 C                     4.9285    1.4457   -2.0803 
 H                     3.1527    0.2963   -2.4657 
 C                     5.837     1.8843   -1.1143 
 H                     6.3793    1.8392    0.9708 
 H                     5.0552    1.7369   -3.12 
 H                     6.6724    2.5181   -1.4008 
 
 Symmetry turned off by external request.
 Stoichiometry    C31H50BLiNO6P
 Framework group  C1[X(C31H50BLiNO6P)]
 Deg. of freedom   267
 Full point group                 C1      NOp   1
                          Input orientation:                          
 ---------------------------------------------------------------------
 Center     Atomic      Atomic             Coordinates (Angstroms)
 Number     Number       Type             X           Y           Z
 ---------------------------------------------------------------------
      1          6           0       -3.762200    1.597000    1.273400
      2          6           0       -3.829700    1.474900    2.757300
      3          1           0       -3.734600    0.459400    3.130700
      4          6           0       -3.527200    2.542900    3.773000
      5          1           0       -3.624100    3.556400    3.374700
      6          1           0       -4.196600    2.442500    4.634500
      7          1           0       -2.501700    2.413400    4.131900
      8          6           0       -3.417400    2.915900    0.626600
      9          1           0       -3.548300    3.786600    1.279000
     10          1           0       -2.372000    2.885800    0.304300
     11          1           0       -4.032300    3.065200   -0.266700
     12          5           0       -3.642300    0.199000    0.372100
     13          6           0       -4.270900    0.457600   -1.109800
     14          1           0       -4.295600   -0.469600   -1.699700
     15          1           0       -5.307400    0.831600   -1.061900
     16          1           0       -3.683900    1.185400   -1.685200
     17          8           0       -2.241300   -0.321300    0.294900
     18          8           0       -4.361500   -0.833500    1.158600
     19          6           0       -3.619300   -2.037300    1.171900
     20          6           0       -2.125700   -1.568300    0.986700
     21          6           0       -4.113700   -2.935600    0.026700
     22          1           0       -5.196300   -3.069200    0.133300
     23          1           0       -3.926400   -2.487000   -0.952500
     24          1           0       -3.643300   -3.925300    0.048200
     25          6           0       -3.873600   -2.760900    2.493100
     26          1           0       -4.926100   -3.062900    2.550100
     27          1           0       -3.257500   -3.664300    2.575700
     28          1           0       -3.659700   -2.117000    3.351500
     29          6           0       -1.288700   -2.531700    0.147500
     30          1           0       -0.271900   -2.145800    0.059600
     31          1           0       -1.242300   -3.521300    0.618400
     32          1           0       -1.693200   -2.645500   -0.862200
     33          6           0       -1.384400   -1.319100    2.304700
     34          1           0       -0.404400   -0.880400    2.082900
     35          1           0       -1.931500   -0.632300    2.957200
     36          1           0       -1.208600   -2.250400    2.855500
     37         15           0        2.249000   -0.787600    0.114100
     38          8           0        1.014300   -0.192400   -0.557600
     39          8           0        2.280200   -0.983000    1.613000
     40          7           0       -5.096800    1.606200    1.992400
     41          1           0       -5.659400    0.761400    1.895600
     42          1           0       -5.617000    2.476600    2.078000
     43          3           0       -0.630600    0.653300   -0.255400
     44          6           0        1.156600    2.910700    0.475000
     45          8           0       -0.150200    2.363400    0.736000
     46          6           0       -0.351900    2.283100    2.149400
     47          6           0        1.037900    2.066800    2.723900
     48          6           0        1.880500    2.982600    1.826900
     49          1           0        1.648800    2.237400   -0.230700
     50          1           0        1.039700    3.897700    0.013200
     51          1           0       -0.799000    3.222300    2.508000
     52          1           0       -1.049700    1.463700    2.332400
     53          1           0        1.099700    2.331600    3.783900
     54          1           0        1.338900    1.021400    2.591900
     55          1           0        1.874100    4.008500    2.212000
     56          1           0        2.920200    2.654900    1.744900
     57          6           0       -1.066400    0.360500   -2.965500
     58          8           0       -1.199500    1.422800   -2.018300
     59          6           0       -0.600300    2.568500   -2.610700
     60          6           0        0.665300    2.038900   -3.279300
     61          6           0        0.263100    0.609200   -3.703300
     62          1           0       -1.095300   -0.576600   -2.404800
     63          1           0       -1.923200    0.389000   -3.652800
     64          1           0       -1.294600    2.999600   -3.348500
     65          1           0       -0.426500    3.299900   -1.819300
     66          1           0        0.979200    2.662900   -4.121200
     67          1           0        1.479400    2.002900   -2.550100
     68          1           0        0.126900    0.527400   -4.785900
     69          1           0        1.021100   -0.114800   -3.396000
     70          6           0        2.577700   -2.383900   -0.728200
     71          6           0        1.828900   -2.771600   -1.843200
     72          6           0        3.588600   -3.233300   -0.263700
     73          6           0        2.082100   -3.984900   -2.483600
     74          1           0        1.036200   -2.118700   -2.199100
     75          6           0        3.847900   -4.444300   -0.902300
     76          1           0        4.174700   -2.946100    0.606600
     77          6           0        3.093700   -4.822200   -2.014700
     78          1           0        1.488700   -4.276800   -3.346600
     79          1           0        4.635400   -5.095600   -0.531600
     80          1           0        3.293500   -5.767700   -2.512500
     81          6           0        3.679400    0.252500   -0.375400
     82          6           0        4.599300    0.688100    0.581300
     83          6           0        3.858300    0.634800   -1.710300
     84          6           0        5.672600    1.502600    0.216300
     85          1           0        4.463500    0.389100    1.617500
     86          6           0        4.928500    1.445700   -2.080300
     87          1           0        3.152700    0.296300   -2.465700
     88          6           0        5.837000    1.884300   -1.114300
     89          1           0        6.379300    1.839200    0.970800
     90          1           0        5.055200    1.736900   -3.120000
     91          1           0        6.672400    2.518100   -1.400800
 ---------------------------------------------------------------------
 Rotational constants (GHZ):           0.1196025           0.0669228           0.0575755
 Standard basis: 6-311++G(d,p) (5D, 7F)
  1260 basis functions,  1940 primitive gaussians,  1301 cartesian basis functions
   157 alpha electrons      157 beta electrons
       nuclear repulsion energy      5681.0000360344 Hartrees.
 NAtoms=   91 NActive=   91 NUniq=   91 SFac= 1.00D+00 NAtFMM=   60 NAOKFM=T Big=T
 Integral buffers will be    131072 words long.
 Raffenetti 2 integral format.
 Two-electron integral symmetry is turned off.
 Nuclear repulsion after empirical dispersion term =     5680.8827818554 Hartrees.
 ------------------------------------------------------------------------------
 Polarizable Continuum Model (PCM)
 =================================
 Model                : PCM.
 Atomic radii         : SMD-Coulomb.
 Polarization charges : Total charges.
 Charge compensation  : None.
 Solution method      : On-the-fly selection.
 Cavity type          : VdW (van der Waals Surface) (Alpha=1.000).
 Cavity algorithm     : GePol (No added spheres)
                        Default sphere list used, NSphG=   91.
                        Lebedev-Laikov grids with approx.  5.0 points / Ang**2.
                        Smoothing algorithm: York/Karplus (Gamma=1.0000).
                        Polarization charges: spherical gaussians, with
                                              point-specific exponents (IZeta= 3).
                        Self-potential: point-specific (ISelfS= 7).
                        Self-field    : sphere-specific E.n sum rule (ISelfD= 2).
 Solvent              : TetraHydroFuran, Eps=   7.425700 Eps(inf)=   1.974025
 ------------------------------------------------------------------------------
 ------------------------------------------------------------------------------
 Atomic radii for non-electrostatic terms: SMD-CDS.
 ------------------------------------------------------------------------------
 Nuclear repulsion after PCM non-electrostatic terms =     5680.8742745755 Hartrees.
 One-electron integrals computed using PRISM.
 NBasis=  1260 RedAO= T EigKep=  1.07D-06  NBF=  1260
 NBsUse=  1251 1.00D-06 EigRej=  9.35D-07 NBFU=  1251
 ExpMin= 7.40D-03 ExpMax= 7.75D+04 ExpMxC= 2.65D+03 IAcc=3 IRadAn=         5 AccDes= 0.00D+00
 Harris functional with IExCor= 4639 and IRadAn=       5 diagonalized for initial guess.
 HarFok:  IExCor= 4639 AccDes= 0.00D+00 IRadAn=         5 IDoV= 1 UseB2=F ITyADJ=14
 ICtDFT=  3500011 ScaDFX=  1.000000  1.000000  1.000000  1.000000
 FoFCou: FMM=F IPFlag=           0 FMFlag=      100000 FMFlg1=        2001
         NFxFlg=           0 DoJE=T BraDBF=F KetDBF=T FulRan=T
         wScrn=  0.000000 ICntrl=       500 IOpCl=  0 I1Cent=   200000004 NGrid=           0
         NMat0=    1 NMatS0=      1 NMatT0=    0 NMatD0=    1 NMtDS0=    0 NMtDT0=    0
 Symmetry not used in FoFCou.
 Requested convergence on RMS density matrix=1.00D-08 within 128 cycles.
 Requested convergence on MAX density matrix=1.00D-06.
 Requested convergence on             energy=1.00D-06.
 No special actions if energy rises.
 Inv3:  Mode=1 IEnd=    89631468.
 Iteration    1 A*A^-1 deviation from unit magnitude is 1.64D-14 for   5449.
 Iteration    1 A*A^-1 deviation from orthogonality  is 7.01D-15 for   5465     98.
 Iteration    1 A^-1*A deviation from unit magnitude is 1.64D-14 for   5449.
 Iteration    1 A^-1*A deviation from orthogonality  is 1.23D-13 for   4273   4244.
 Error on total polarization charges =  0.07513
 SCF Done:  E(RwB97XD) =  -2091.46812606     A.U. after   15 cycles
            NFock= 15  Conv=0.80D-08     -V/T= 2.0040
 SMD-CDS (non-electrostatic) energy       (kcal/mol) =      -5.34
 (included in total energy above)

 **********************************************************************

            Population analysis using the SCF Density.

 **********************************************************************

 Alpha  occ. eigenvalues --  -77.25582 -19.25245 -19.25141 -19.20157 -19.19283
 Alpha  occ. eigenvalues --  -19.17017 -19.16098 -14.51403 -10.33743 -10.31949
 Alpha  occ. eigenvalues --  -10.31934 -10.31934 -10.31916 -10.31709 -10.31649
 Alpha  occ. eigenvalues --  -10.31030 -10.28655 -10.28555 -10.28502 -10.28478
 Alpha  occ. eigenvalues --  -10.28438 -10.28374 -10.28357 -10.28330 -10.28319
 Alpha  occ. eigenvalues --  -10.28291 -10.28237 -10.27914 -10.27824 -10.27204
 Alpha  occ. eigenvalues --  -10.27085 -10.27046 -10.26932 -10.26682 -10.25501
 Alpha  occ. eigenvalues --  -10.24996 -10.24908 -10.24573 -10.21150  -6.82054
 Alpha  occ. eigenvalues --   -6.69892  -4.84608  -4.84598  -4.84562  -1.97710
 Alpha  occ. eigenvalues --   -1.14576  -1.14131  -1.11773  -1.10399  -1.06100
 Alpha  occ. eigenvalues --   -1.04651  -0.99999  -0.95368  -0.95173  -0.87758
 Alpha  occ. eigenvalues --   -0.87486  -0.87091  -0.86477  -0.84761  -0.84188
 Alpha  occ. eigenvalues --   -0.84033  -0.83793  -0.83588  -0.83254  -0.82887
 Alpha  occ. eigenvalues --   -0.82177  -0.78243  -0.77485  -0.75272  -0.75004
 Alpha  occ. eigenvalues --   -0.70996  -0.69427  -0.69120  -0.68972  -0.68632
 Alpha  occ. eigenvalues --   -0.68532  -0.68239  -0.67908  -0.67672  -0.66762
 Alpha  occ. eigenvalues --   -0.65461  -0.63091  -0.61199  -0.60509  -0.60163
 Alpha  occ. eigenvalues --   -0.59496  -0.58917  -0.57891  -0.57545  -0.57377
 Alpha  occ. eigenvalues --   -0.57227  -0.54121  -0.53772  -0.53386  -0.53325
 Alpha  occ. eigenvalues --   -0.53225  -0.53160  -0.52773  -0.52439  -0.52328
 Alpha  occ. eigenvalues --   -0.51501  -0.50804  -0.50468  -0.50360  -0.50154
 Alpha  occ. eigenvalues --   -0.49867  -0.49711  -0.49390  -0.49126  -0.48710
 Alpha  occ. eigenvalues --   -0.48296  -0.47876  -0.47776  -0.47692  -0.46805
 Alpha  occ. eigenvalues --   -0.46389  -0.46116  -0.45929  -0.45817  -0.45370
 Alpha  occ. eigenvalues --   -0.44897  -0.44630  -0.44081  -0.43493  -0.43411
 Alpha  occ. eigenvalues --   -0.43049  -0.42924  -0.42760  -0.42600  -0.42386
 Alpha  occ. eigenvalues --   -0.42331  -0.42148  -0.41941  -0.41621  -0.41502
 Alpha  occ. eigenvalues --   -0.41204  -0.40730  -0.40630  -0.40384  -0.40141
 Alpha  occ. eigenvalues --   -0.39458  -0.38768  -0.38202  -0.37530  -0.36409
 Alpha  occ. eigenvalues --   -0.35230  -0.35126  -0.34512  -0.34149  -0.33316
 Alpha  occ. eigenvalues --   -0.33165  -0.32801  -0.32636  -0.31950  -0.31564
 Alpha  occ. eigenvalues --   -0.31034  -0.28984
 Alpha virt. eigenvalues --    0.02163   0.02520   0.02613   0.02841   0.03750
 Alpha virt. eigenvalues --    0.05154   0.05410   0.05620   0.05660   0.05998
 Alpha virt. eigenvalues --    0.06056   0.06127   0.06406   0.06741   0.06890
 Alpha virt. eigenvalues --    0.06981   0.07063   0.07287   0.07583   0.07686
 Alpha virt. eigenvalues --    0.07741   0.07808   0.07993   0.08128   0.08621
 Alpha virt. eigenvalues --    0.08797   0.09006   0.09189   0.09516   0.09767
 Alpha virt. eigenvalues --    0.09970   0.10088   0.10405   0.10672   0.11026
 Alpha virt. eigenvalues --    0.11282   0.11615   0.11793   0.11945   0.12247
 Alpha virt. eigenvalues --    0.12794   0.12910   0.13108   0.13409   0.13427
 Alpha virt. eigenvalues --    0.13705   0.13860   0.14284   0.14387   0.14561
 Alpha virt. eigenvalues --    0.14723   0.14842   0.14888   0.15279   0.15506
 Alpha virt. eigenvalues --    0.15697   0.15846   0.15949   0.16139   0.16204
 Alpha virt. eigenvalues --    0.16506   0.16723   0.16834   0.16924   0.17043
 Alpha virt. eigenvalues --    0.17211   0.17365   0.17513   0.17585   0.17769
 Alpha virt. eigenvalues --    0.17882   0.18041   0.18245   0.18389   0.18455
 Alpha virt. eigenvalues --    0.18535   0.18665   0.18825   0.18973   0.19136
 Alpha virt. eigenvalues --    0.19293   0.19333   0.19470   0.19673   0.19725
 Alpha virt. eigenvalues --    0.19810   0.20025   0.20093   0.20258   0.20365
 Alpha virt. eigenvalues --    0.20420   0.20637   0.20833   0.20880   0.21010
 Alpha virt. eigenvalues --    0.21248   0.21298   0.21481   0.21561   0.21647
 Alpha virt. eigenvalues --    0.21856   0.21897   0.22008   0.22081   0.22116
 Alpha virt. eigenvalues --    0.22234   0.22556   0.22755   0.22866   0.23028
 Alpha virt. eigenvalues --    0.23088   0.23286   0.23402   0.23579   0.23660
 Alpha virt. eigenvalues --    0.23747   0.23979   0.24045   0.24243   0.24365
 Alpha virt. eigenvalues --    0.24465   0.24571   0.24724   0.24846   0.25094
 Alpha virt. eigenvalues --    0.25170   0.25231   0.25387   0.25548   0.25628
 Alpha virt. eigenvalues --    0.25839   0.26023   0.26236   0.26294   0.26350
 Alpha virt. eigenvalues --    0.26485   0.26665   0.26905   0.27068   0.27131
 Alpha virt. eigenvalues --    0.27160   0.27377   0.27475   0.27559   0.27651
 Alpha virt. eigenvalues --    0.27948   0.28132   0.28263   0.28418   0.28617
 Alpha virt. eigenvalues --    0.28682   0.28775   0.28964   0.29079   0.29394
 Alpha virt. eigenvalues --    0.29445   0.29589   0.29679   0.29800   0.29942
 Alpha virt. eigenvalues --    0.30158   0.30430   0.30531   0.30720   0.30860
 Alpha virt. eigenvalues --    0.30990   0.31104   0.31427   0.31475   0.31704
 Alpha virt. eigenvalues --    0.31902   0.32093   0.32232   0.32387   0.32459
 Alpha virt. eigenvalues --    0.32494   0.32744   0.32922   0.33223   0.33278
 Alpha virt. eigenvalues --    0.33421   0.33648   0.33808   0.33869   0.34007
 Alpha virt. eigenvalues --    0.34114   0.34167   0.34339   0.34566   0.34783
 Alpha virt. eigenvalues --    0.35001   0.35227   0.35303   0.35513   0.35751
 Alpha virt. eigenvalues --    0.35852   0.35940   0.36147   0.36300   0.36431
 Alpha virt. eigenvalues --    0.36647   0.36836   0.36985   0.37061   0.37490
 Alpha virt. eigenvalues --    0.37523   0.37708   0.37991   0.38059   0.38260
 Alpha virt. eigenvalues --    0.38456   0.38529   0.38672   0.38968   0.39155
 Alpha virt. eigenvalues --    0.39184   0.39289   0.39569   0.39611   0.39782
 Alpha virt. eigenvalues --    0.39876   0.40180   0.40230   0.40410   0.40639
 Alpha virt. eigenvalues --    0.40763   0.40855   0.41156   0.41347   0.41493
 Alpha virt. eigenvalues --    0.41766   0.41915   0.42104   0.42353   0.42452
 Alpha virt. eigenvalues --    0.42622   0.42831   0.42966   0.43147   0.43217
 Alpha virt. eigenvalues --    0.43536   0.43635   0.43823   0.44040   0.44163
 Alpha virt. eigenvalues --    0.44360   0.44561   0.44927   0.45085   0.45178
 Alpha virt. eigenvalues --    0.45388   0.45517   0.45649   0.45806   0.46022
 Alpha virt. eigenvalues --    0.46190   0.46554   0.46685   0.46896   0.47050
 Alpha virt. eigenvalues --    0.47169   0.47472   0.47759   0.47901   0.48143
 Alpha virt. eigenvalues --    0.48314   0.48815   0.49021   0.49225   0.49564
 Alpha virt. eigenvalues --    0.49840   0.50061   0.50220   0.50618   0.50796
 Alpha virt. eigenvalues --    0.51220   0.51489   0.51825   0.51934   0.52380
 Alpha virt. eigenvalues --    0.53103   0.53289   0.53613   0.53957   0.54095
 Alpha virt. eigenvalues --    0.54631   0.54967   0.55521   0.55751   0.56195
 Alpha virt. eigenvalues --    0.56383   0.56600   0.57138   0.57282   0.57508
 Alpha virt. eigenvalues --    0.57651   0.58143   0.58334   0.58973   0.59347
 Alpha virt. eigenvalues --    0.59512   0.59832   0.60357   0.60759   0.61076
 Alpha virt. eigenvalues --    0.61815   0.61986   0.62263   0.62763   0.62931
 Alpha virt. eigenvalues --    0.63470   0.63676   0.64003   0.64632   0.64759
 Alpha virt. eigenvalues --    0.64961   0.65154   0.65338   0.65519   0.65720
 Alpha virt. eigenvalues --    0.66086   0.66208   0.66513   0.67163   0.67342
 Alpha virt. eigenvalues --    0.67514   0.67786   0.67942   0.68522   0.68675
 Alpha virt. eigenvalues --    0.68839   0.69115   0.69405   0.69856   0.70113
 Alpha virt. eigenvalues --    0.70246   0.70491   0.70875   0.71038   0.71285
 Alpha virt. eigenvalues --    0.71874   0.72001   0.72264   0.72665   0.72880
 Alpha virt. eigenvalues --    0.73080   0.73529   0.73740   0.73799   0.74315
 Alpha virt. eigenvalues --    0.74659   0.74995   0.75186   0.75327   0.75457
 Alpha virt. eigenvalues --    0.75963   0.76251   0.76526   0.76720   0.76787
 Alpha virt. eigenvalues --    0.76973   0.77518   0.77682   0.77905   0.77979
 Alpha virt. eigenvalues --    0.78563   0.78930   0.79154   0.79554   0.80057
 Alpha virt. eigenvalues --    0.80210   0.80316   0.80703   0.81031   0.81244
 Alpha virt. eigenvalues --    0.81409   0.81713   0.81971   0.82049   0.82181
 Alpha virt. eigenvalues --    0.82412   0.82521   0.82720   0.83022   0.83260
 Alpha virt. eigenvalues --    0.83478   0.83722   0.84166   0.84438   0.84467
 Alpha virt. eigenvalues --    0.84860   0.85009   0.85148   0.85377   0.85747
 Alpha virt. eigenvalues --    0.85887   0.86222   0.86258   0.86494   0.86722
 Alpha virt. eigenvalues --    0.87114   0.87226   0.87543   0.87713   0.87786
 Alpha virt. eigenvalues --    0.87901   0.88171   0.88405   0.88815   0.88952
 Alpha virt. eigenvalues --    0.89261   0.89647   0.89952   0.90092   0.90306
 Alpha virt. eigenvalues --    0.90503   0.90839   0.91061   0.91330   0.91677
 Alpha virt. eigenvalues --    0.91835   0.92171   0.92386   0.92652   0.92814
 Alpha virt. eigenvalues --    0.92956   0.93298   0.93529   0.93721   0.93901
 Alpha virt. eigenvalues --    0.94349   0.94613   0.95039   0.95602   0.95855
 Alpha virt. eigenvalues --    0.96073   0.96426   0.96616   0.96710   0.97030
 Alpha virt. eigenvalues --    0.97534   0.97607   0.98021   0.98282   0.98452
 Alpha virt. eigenvalues --    0.98956   0.99297   0.99485   0.99876   1.00100
 Alpha virt. eigenvalues --    1.00537   1.00612   1.00865   1.01537   1.01972
 Alpha virt. eigenvalues --    1.02058   1.02880   1.03360   1.03459   1.03883
 Alpha virt. eigenvalues --    1.04785   1.05046   1.05997   1.06667   1.06810
 Alpha virt. eigenvalues --    1.07565   1.07909   1.08137   1.08450   1.08996
 Alpha virt. eigenvalues --    1.09396   1.09859   1.10886   1.10986   1.11493
 Alpha virt. eigenvalues --    1.11898   1.12101   1.12593   1.12704   1.13343
 Alpha virt. eigenvalues --    1.13550   1.14392   1.15022   1.15816   1.16496
 Alpha virt. eigenvalues --    1.16697   1.16902   1.17288   1.17837   1.18493
 Alpha virt. eigenvalues --    1.18676   1.19240   1.19946   1.20328   1.20876
 Alpha virt. eigenvalues --    1.21454   1.21852   1.22125   1.22641   1.23018
 Alpha virt. eigenvalues --    1.24129   1.24320   1.24411   1.25035   1.25398
 Alpha virt. eigenvalues --    1.26639   1.26807   1.27304   1.27832   1.28419
 Alpha virt. eigenvalues --    1.28628   1.29402   1.30301   1.30410   1.31202
 Alpha virt. eigenvalues --    1.31825   1.32094   1.33013   1.33342   1.33405
 Alpha virt. eigenvalues --    1.34238   1.34811   1.34974   1.35902   1.36165
 Alpha virt. eigenvalues --    1.36569   1.37018   1.37662   1.37908   1.38968
 Alpha virt. eigenvalues --    1.39274   1.40096   1.40743   1.40804   1.42389
 Alpha virt. eigenvalues --    1.42618   1.43342   1.43775   1.43945   1.45048
 Alpha virt. eigenvalues --    1.45507   1.45552   1.46026   1.46933   1.47388
 Alpha virt. eigenvalues --    1.48022   1.48851   1.49087   1.50820   1.51067
 Alpha virt. eigenvalues --    1.51928   1.52206   1.53115   1.53691   1.53806
 Alpha virt. eigenvalues --    1.54252   1.54473   1.55679   1.55965   1.56468
 Alpha virt. eigenvalues --    1.57031   1.57305   1.57965   1.58871   1.58949
 Alpha virt. eigenvalues --    1.59422   1.59668   1.60431   1.60966   1.61313
 Alpha virt. eigenvalues --    1.61518   1.61920   1.62768   1.62934   1.63305
 Alpha virt. eigenvalues --    1.63473   1.63629   1.63947   1.64072   1.64571
 Alpha virt. eigenvalues --    1.65091   1.65198   1.65557   1.65895   1.66482
 Alpha virt. eigenvalues --    1.66684   1.66990   1.67070   1.67307   1.67647
 Alpha virt. eigenvalues --    1.67967   1.68358   1.68976   1.69262   1.69834
 Alpha virt. eigenvalues --    1.70020   1.70336   1.70847   1.70942   1.71246
 Alpha virt. eigenvalues --    1.71633   1.71810   1.72256   1.72605   1.72928
 Alpha virt. eigenvalues --    1.73269   1.73429   1.73923   1.74384   1.75118
 Alpha virt. eigenvalues --    1.75164   1.75571   1.75855   1.76226   1.76504
 Alpha virt. eigenvalues --    1.76872   1.77064   1.77536   1.77901   1.78113
 Alpha virt. eigenvalues --    1.78283   1.78900   1.79200   1.79519   1.79934
 Alpha virt. eigenvalues --    1.80349   1.80435   1.80540   1.81335   1.82080
 Alpha virt. eigenvalues --    1.82191   1.82437   1.82776   1.82905   1.83030
 Alpha virt. eigenvalues --    1.83826   1.84426   1.84585   1.84959   1.85101
 Alpha virt. eigenvalues --    1.85384   1.85925   1.86010   1.86522   1.86642
 Alpha virt. eigenvalues --    1.87322   1.87502   1.87950   1.88321   1.88767
 Alpha virt. eigenvalues --    1.89019   1.89154   1.89481   1.89743   1.90512
 Alpha virt. eigenvalues --    1.90842   1.90866   1.91161   1.92105   1.92442
 Alpha virt. eigenvalues --    1.92802   1.93311   1.93833   1.93874   1.94102
 Alpha virt. eigenvalues --    1.94509   1.94658   1.95143   1.95692   1.96170
 Alpha virt. eigenvalues --    1.96484   1.97117   1.97502   1.97932   1.98594
 Alpha virt. eigenvalues --    1.98736   1.99160   1.99527   1.99691   2.00104
 Alpha virt. eigenvalues --    2.00482   2.01365   2.01775   2.01896   2.02709
 Alpha virt. eigenvalues --    2.03020   2.03245   2.03367   2.04076   2.04255
 Alpha virt. eigenvalues --    2.04586   2.04909   2.05084   2.05591   2.05943
 Alpha virt. eigenvalues --    2.06054   2.06510   2.07094   2.07340   2.07755
 Alpha virt. eigenvalues --    2.08098   2.08523   2.08729   2.09182   2.09607
 Alpha virt. eigenvalues --    2.09847   2.10154   2.10653   2.11280   2.11721
 Alpha virt. eigenvalues --    2.12138   2.12805   2.13252   2.13601   2.13738
 Alpha virt. eigenvalues --    2.14380   2.14938   2.15150   2.16179   2.16492
 Alpha virt. eigenvalues --    2.17063   2.17193   2.17889   2.18455   2.18791
 Alpha virt. eigenvalues --    2.18850   2.19696   2.20672   2.21094   2.21677
 Alpha virt. eigenvalues --    2.22412   2.22924   2.23575   2.23823   2.24181
 Alpha virt. eigenvalues --    2.25168   2.25259   2.25963   2.26996   2.27226
 Alpha virt. eigenvalues --    2.28146   2.28326   2.28899   2.29831   2.30219
 Alpha virt. eigenvalues --    2.30897   2.32426   2.32771   2.33200   2.33732
 Alpha virt. eigenvalues --    2.34410   2.34548   2.35831   2.36136   2.36787
 Alpha virt. eigenvalues --    2.37795   2.38195   2.38913   2.39964   2.40305
 Alpha virt. eigenvalues --    2.40782   2.41094   2.41541   2.42315   2.43149
 Alpha virt. eigenvalues --    2.43404   2.43550   2.43784   2.43928   2.44101
 Alpha virt. eigenvalues --    2.45193   2.45673   2.46285   2.46907   2.47218
 Alpha virt. eigenvalues --    2.48625   2.49626   2.50291   2.50931   2.51690
 Alpha virt. eigenvalues --    2.52739   2.52834   2.53852   2.54122   2.54653
 Alpha virt. eigenvalues --    2.56040   2.57430   2.58556   2.58911   2.59395
 Alpha virt. eigenvalues --    2.59859   2.60046   2.60342   2.60837   2.61483
 Alpha virt. eigenvalues --    2.62521   2.62927   2.63729   2.63819   2.64137
 Alpha virt. eigenvalues --    2.64784   2.65690   2.65989   2.66189   2.66759
 Alpha virt. eigenvalues --    2.67283   2.67712   2.67766   2.68214   2.68680
 Alpha virt. eigenvalues --    2.69526   2.70286   2.70609   2.70854   2.71370
 Alpha virt. eigenvalues --    2.71523   2.72436   2.72928   2.73169   2.73565
 Alpha virt. eigenvalues --    2.73941   2.74911   2.75350   2.75543   2.75760
 Alpha virt. eigenvalues --    2.75929   2.77252   2.77717   2.78275   2.78398
 Alpha virt. eigenvalues --    2.78754   2.79074   2.79470   2.80244   2.80418
 Alpha virt. eigenvalues --    2.81237   2.81521   2.82477   2.83343   2.83372
 Alpha virt. eigenvalues --    2.84070   2.84239   2.84639   2.85338   2.85923
 Alpha virt. eigenvalues --    2.86756   2.87408   2.87726   2.88296   2.88344
 Alpha virt. eigenvalues --    2.88691   2.89126   2.89423   2.89713   2.89957
 Alpha virt. eigenvalues --    2.90532   2.91242   2.91631   2.91942   2.92701
 Alpha virt. eigenvalues --    2.93050   2.93498   2.93816   2.94191   2.94525
 Alpha virt. eigenvalues --    2.95097   2.95375   2.95525   2.95626   2.96505
 Alpha virt. eigenvalues --    2.97463   2.97659   2.98283   2.98704   2.99182
 Alpha virt. eigenvalues --    2.99397   2.99892   2.99969   3.00402   3.00577
 Alpha virt. eigenvalues --    3.00902   3.01062   3.01678   3.01994   3.02573
 Alpha virt. eigenvalues --    3.03107   3.03368   3.03961   3.04821   3.05295
 Alpha virt. eigenvalues --    3.05585   3.05999   3.06563   3.07456   3.07599
 Alpha virt. eigenvalues --    3.07850   3.08260   3.09036   3.09504   3.10335
 Alpha virt. eigenvalues --    3.10779   3.10933   3.11245   3.12076   3.12991
 Alpha virt. eigenvalues --    3.13332   3.14040   3.14272   3.14838   3.15574
 Alpha virt. eigenvalues --    3.16835   3.17094   3.18356   3.18997   3.19351
 Alpha virt. eigenvalues --    3.19758   3.20255   3.20635   3.21356   3.21777
 Alpha virt. eigenvalues --    3.22815   3.23879   3.24674   3.24850   3.26044
 Alpha virt. eigenvalues --    3.26771   3.27258   3.27710   3.28089   3.28665
 Alpha virt. eigenvalues --    3.29487   3.30746   3.31563   3.32614   3.32969
 Alpha virt. eigenvalues --    3.33465   3.35020   3.35494   3.36521   3.37029
 Alpha virt. eigenvalues --    3.37246   3.38827   3.39274   3.40989   3.42133
 Alpha virt. eigenvalues --    3.42831   3.43503   3.43928   3.44622   3.45619
 Alpha virt. eigenvalues --    3.47125   3.47969   3.48624   3.50916   3.51323
 Alpha virt. eigenvalues --    3.51572   3.52245   3.52719   3.53149   3.55755
 Alpha virt. eigenvalues --    3.56352   3.56996   3.62255   3.64302   3.65943
 Alpha virt. eigenvalues --    3.66957   3.68073   3.68516   3.70148   3.74560
 Alpha virt. eigenvalues --    3.74819   3.76845   3.77639   3.78713   3.80336
 Alpha virt. eigenvalues --    3.82585   3.89050   3.89637   3.90212   3.91094
 Alpha virt. eigenvalues --    3.91347   3.92592   3.94027   3.94308   3.94798
 Alpha virt. eigenvalues --    3.95148   3.95449   3.96306   3.96644   3.97586
 Alpha virt. eigenvalues --    3.97947   3.98624   4.00055   4.01679   4.02921
 Alpha virt. eigenvalues --    4.04052   4.05979   4.06750   4.11232   4.11951
 Alpha virt. eigenvalues --    4.12314   4.12817   4.15792   4.15971   4.16525
 Alpha virt. eigenvalues --    4.18767   4.19245   4.20818   4.22512   4.26126
 Alpha virt. eigenvalues --    4.27140   4.28131   4.28541   4.28778   4.29275
 Alpha virt. eigenvalues --    4.30950   4.31025   4.32910   4.37202   4.40792
 Alpha virt. eigenvalues --    4.42435   4.43124   4.47113   4.48571   4.50409
 Alpha virt. eigenvalues --    4.53553   4.76099   4.78968   4.86281   4.96025
 Alpha virt. eigenvalues --    4.96309   5.08361   5.37468   5.40802   5.41572
 Alpha virt. eigenvalues --    5.43057   5.45190   5.46910   5.52596   5.53655
 Alpha virt. eigenvalues --    5.56440   5.57855   5.65656   5.68128   5.69746
 Alpha virt. eigenvalues --    5.75540   5.78747   5.79628   5.81119   5.92245
 Alpha virt. eigenvalues --    7.71606  14.37355  14.40651  14.53745  14.95382
 Alpha virt. eigenvalues --   23.77484  23.80690  23.95511  23.97199  24.01505
 Alpha virt. eigenvalues --   24.03019  24.04034  24.04184  24.05291  24.06990
 Alpha virt. eigenvalues --   24.11643  24.12189  24.12313  24.12893  24.13003
 Alpha virt. eigenvalues --   24.14026  24.14185  24.14525  24.14798  24.15099
 Alpha virt. eigenvalues --   24.16419  24.17599  24.20199  24.21722  24.22117
 Alpha virt. eigenvalues --   24.22813  24.23122  24.23781  24.24090  24.33106
 Alpha virt. eigenvalues --   24.33384  35.70654  50.15666  50.16225  50.20715
 Alpha virt. eigenvalues --   50.24546  50.25229  50.25818 163.97061
          Condensed to atoms (all electrons):
 Mulliken charges:
               1
     1  C   -0.717497
     2  C    0.071648
     3  H    0.300721
     4  C   -0.824842
     5  H    0.180135
     6  H    0.219537
     7  H    0.221200
     8  C   -0.702013
     9  H    0.159784
    10  H    0.354875
    11  H    0.235844
    12  B    0.808341
    13  C   -0.577989
    14  H    0.145975
    15  H    0.152101
    16  H    0.218274
    17  O    0.212805
    18  O   -0.179252
    19  C    0.004680
    20  C   -0.568003
    21  C   -0.155236
    22  H    0.199160
    23  H    0.147121
    24  H    0.186160
    25  C   -0.855387
    26  H    0.195943
    27  H    0.194524
    28  H    0.170390
    29  C   -0.723737
    30  H   -0.137885
    31  H    0.271888
    32  H    0.202881
    33  C   -0.320087
    34  H   -0.060981
    35  H    0.145089
    36  H    0.253000
    37  P   -0.905421
    38  O   -0.086536
    39  O   -0.084703
    40  N   -0.003887
    41  H    0.392339
    42  H    0.425700
    43  Li  -0.506534
    44  C    0.029075
    45  O    0.027405
    46  C   -0.362992
    47  C   -0.391582
    48  C   -0.628373
    49  H   -0.071767
    50  H    0.227388
    51  H    0.231414
    52  H    0.110867
    53  H    0.253162
    54  H    0.328790
    55  H    0.243482
    56  H    0.207408
    57  C   -0.248936
    58  O    0.185462
    59  C   -0.188454
    60  C   -0.506359
    61  C   -0.250799
    62  H    0.018094
    63  H    0.229845
    64  H    0.208492
    65  H    0.154212
    66  H    0.253842
    67  H    0.020933
    68  H    0.250113
    69  H    0.046434
    70  C    0.201859
    71  C    0.262744
    72  C   -0.120089
    73  C   -0.190317
    74  H    0.307363
    75  C   -0.300419
    76  H    0.314608
    77  C   -0.580682
    78  H    0.287659
    79  H    0.271487
    80  H    0.250411
    81  C    0.491736
    82  C   -0.277899
    83  C   -0.035116
    84  C   -0.423326
    85  H    0.281037
    86  C   -0.325619
    87  H    0.295625
    88  C   -0.558714
    89  H    0.275797
    90  H    0.279426
    91  H    0.255147
 Sum of Mulliken charges =  -0.00000
 Mulliken charges with hydrogens summed into heavy atoms:
               1
     1  C   -0.717497
     2  C    0.372368
     4  C   -0.203970
     8  C    0.048490
    12  B    0.808341
    13  C   -0.061639
    17  O    0.212805
    18  O   -0.179252
    19  C    0.004680
    20  C   -0.568003
    21  C    0.377205
    25  C   -0.294529
    29  C   -0.386852
    33  C    0.017021
    37  P   -0.905421
    38  O   -0.086536
    39  O   -0.084703
    40  N    0.814152
    43  Li  -0.506534
    44  C    0.184697
    45  O    0.027405
    46  C   -0.020710
    47  C    0.190370
    48  C   -0.177482
    57  C   -0.000997
    58  O    0.185462
    59  C    0.174250
    60  C   -0.231584
    61  C    0.045747
    70  C    0.201859
    71  C    0.570107
    72  C    0.194519
    73  C    0.097342
    75  C   -0.028932
    77  C   -0.330271
    81  C    0.491736
    82  C    0.003139
    83  C    0.260509
    84  C   -0.147529
    86  C   -0.046194
    88  C   -0.303567
 Electronic spatial extent (au):  <R**2>=          20953.9842
 Charge=             -0.0000 electrons
 Dipole moment (field-independent basis, Debye):
    X=             -8.8561    Y=              9.9264    Z=              2.2373  Tot=             13.4896
 Quadrupole moment (field-independent basis, Debye-Ang):
   XX=           -226.6871   YY=           -230.3129   ZZ=           -229.2076
   XY=            -16.5735   XZ=            -34.0377   YZ=             18.2035
 Traceless Quadrupole moment (field-independent basis, Debye-Ang):
   XX=              2.0488   YY=             -1.5771   ZZ=             -0.4718
   XY=            -16.5735   XZ=            -34.0377   YZ=             18.2035
 Octapole moment (field-independent basis, Debye-Ang**2):
  XXX=           -187.0572  YYY=             42.5474  ZZZ=            -21.6735  XYY=            -29.8813
  XXY=            180.7877  XXZ=            152.7380  XZZ=            -77.1813  YZZ=             69.9259
  YYZ=              0.5462  XYZ=            -59.6976
 Hexadecapole moment (field-independent basis, Debye-Ang**3):
 XXXX=         -13862.8248 YYYY=          -7440.7183 ZZZZ=          -5322.3023 XXXY=           -109.5915
 XXXZ=            920.0034 YYYX=             64.1187 YYYZ=           -299.7042 ZZZX=           1397.0347
 ZZZY=           -392.7226 XXYY=          -3365.9918 XXZZ=          -3209.7836 YYZZ=          -2044.7149
 XXYZ=             95.0051 YYXZ=            344.6942 ZZXY=             49.7192
 N-N= 5.680874274575D+03 E-N=-1.625782648629D+04  KE= 2.083097115544D+03
 Unable to Open any file for archive entry.
 1\1\GINC-NODE01\SP\RwB97XD\6-311++G(d,p)\C31H50B1Li1N1O6P1\WHUGHES2\08
 -Oct-2025\0\\# wb97xd/6-311++g** nosymm int=ultrafine scrf=(smd,solven
 t=tetrahydrofuran)\\aziridinium-phos-full-c7_tzpop-sp\\0,1\C,0,-3.7622
 ,1.597,1.2734\C,0,-3.8297,1.4749,2.7573\H,0,-3.7346,0.4594,3.1307\C,0,
 -3.5272,2.5429,3.773\H,0,-3.6241,3.5564,3.3747\H,0,-4.1966,2.4425,4.63
 45\H,0,-2.5017,2.4134,4.1319\C,0,-3.4174,2.9159,0.6266\H,0,-3.5483,3.7
 866,1.279\H,0,-2.372,2.8858,0.3043\H,0,-4.0323,3.0652,-0.2667\B,0,-3.6
 423,0.199,0.3721\C,0,-4.2709,0.4576,-1.1098\H,0,-4.2956,-0.4696,-1.699
 7\H,0,-5.3074,0.8316,-1.0619\H,0,-3.6839,1.1854,-1.6852\O,0,-2.2413,-0
 .3213,0.2949\O,0,-4.3615,-0.8335,1.1586\C,0,-3.6193,-2.0373,1.1719\C,0
 ,-2.1257,-1.5683,0.9867\C,0,-4.1137,-2.9356,0.0267\H,0,-5.1963,-3.0692
 ,0.1333\H,0,-3.9264,-2.487,-0.9525\H,0,-3.6433,-3.9253,0.0482\C,0,-3.8
 736,-2.7609,2.4931\H,0,-4.9261,-3.0629,2.5501\H,0,-3.2575,-3.6643,2.57
 57\H,0,-3.6597,-2.117,3.3515\C,0,-1.2887,-2.5317,0.1475\H,0,-0.2719,-2
 .1458,0.0596\H,0,-1.2423,-3.5213,0.6184\H,0,-1.6932,-2.6455,-0.8622\C,
 0,-1.3844,-1.3191,2.3047\H,0,-0.4044,-0.8804,2.0829\H,0,-1.9315,-0.632
 3,2.9572\H,0,-1.2086,-2.2504,2.8555\P,0,2.249,-0.7876,0.1141\O,0,1.014
 3,-0.1924,-0.5576\O,0,2.2802,-0.983,1.613\N,0,-5.0968,1.6062,1.9924\H,
 0,-5.6594,0.7614,1.8956\H,0,-5.617,2.4766,2.078\Li,0,-0.6306,0.6533,-0
 .2554\C,0,1.1566,2.9107,0.475\O,0,-0.1502,2.3634,0.736\C,0,-0.3519,2.2
 831,2.1494\C,0,1.0379,2.0668,2.7239\C,0,1.8805,2.9826,1.8269\H,0,1.648
 8,2.2374,-0.2307\H,0,1.0397,3.8977,0.0132\H,0,-0.799,3.2223,2.508\H,0,
 -1.0497,1.4637,2.3324\H,0,1.0997,2.3316,3.7839\H,0,1.3389,1.0214,2.591
 9\H,0,1.8741,4.0085,2.212\H,0,2.9202,2.6549,1.7449\C,0,-1.0664,0.3605,
 -2.9655\O,0,-1.1995,1.4228,-2.0183\C,0,-0.6003,2.5685,-2.6107\C,0,0.66
 53,2.0389,-3.2793\C,0,0.2631,0.6092,-3.7033\H,0,-1.0953,-0.5766,-2.404
 8\H,0,-1.9232,0.389,-3.6528\H,0,-1.2946,2.9996,-3.3485\H,0,-0.4265,3.2
 999,-1.8193\H,0,0.9792,2.6629,-4.1212\H,0,1.4794,2.0029,-2.5501\H,0,0.
 1269,0.5274,-4.7859\H,0,1.0211,-0.1148,-3.396\C,0,2.5777,-2.3839,-0.72
 82\C,0,1.8289,-2.7716,-1.8432\C,0,3.5886,-3.2333,-0.2637\C,0,2.0821,-3
 .9849,-2.4836\H,0,1.0362,-2.1187,-2.1991\C,0,3.8479,-4.4443,-0.9023\H,
 0,4.1747,-2.9461,0.6066\C,0,3.0937,-4.8222,-2.0147\H,0,1.4887,-4.2768,
 -3.3466\H,0,4.6354,-5.0956,-0.5316\H,0,3.2935,-5.7677,-2.5125\C,0,3.67
 94,0.2525,-0.3754\C,0,4.5993,0.6881,0.5813\C,0,3.8583,0.6348,-1.7103\C
 ,0,5.6726,1.5026,0.2163\H,0,4.4635,0.3891,1.6175\C,0,4.9285,1.4457,-2.
 0803\H,0,3.1527,0.2963,-2.4657\C,0,5.837,1.8843,-1.1143\H,0,6.3793,1.8
 392,0.9708\H,0,5.0552,1.7369,-3.12\H,0,6.6724,2.5181,-1.4008\\Version=
 AS64L-G16RevC.01\HF=-2091.4681261\RMSD=7.962e-09\Dipole=-3.4842485,3.9
 053589,0.8802274\Quadrupole=1.5232451,-1.1725025,-0.3507426,-12.321956
 9,-25.3061954,13.5338639\PG=C01 [X(C31H50B1Li1N1O6P1)]\\@
 The archive entry for this job was punched.


 THE LENGTH OF A MEETING IS PROPORTIONAL TO THE
 SQUARE OF THE PARTICIPANTS.
 Job cpu time:       0 days  8 hours 38 minutes 32.1 seconds.
 Elapsed time:       0 days  2 hours 10 minutes 50.0 seconds.
 File lengths (MBytes):  RWF=   1323 Int=      0 D2E=      0 Chk=     95 Scr=      1
 Normal termination of Gaussian 16 at Wed Oct  8 17:38:35 2025.
