Job Start Time: Wed Oct  8 15:27:45 MDT 2025
SLURM Job ID: 768180
SLURM Job Name: aziridinium-phos-full-c6_tzpop-sp
 Entering Gaussian System, Link 0=/opt/apps/Gaussian/G16C/g16/g16
 Initial command:
 /opt/apps/Gaussian/G16C/g16/l1.exe "/tmp/768180/Gau-3495092.inp" -scrdir="/tmp/768180/"
 Entering Link 1 = /opt/apps/Gaussian/G16C/g16/l1.exe PID=   3495096.
  
 Copyright (c) 1988-2019, Gaussian, Inc.  All Rights Reserved.
  
 This is part of the Gaussian(R) 16 program.  It is based on
 the Gaussian(R) 09 system (copyright 2009, Gaussian, Inc.),
 the Gaussian(R) 03 system (copyright 2003, Gaussian, Inc.),
 the Gaussian(R) 98 system (copyright 1998, Gaussian, Inc.),
 the Gaussian(R) 94 system (copyright 1995, Gaussian, Inc.),
 the Gaussian 92(TM) system (copyright 1992, Gaussian, Inc.),
 the Gaussian 90(TM) system (copyright 1990, Gaussian, Inc.),
 the Gaussian 88(TM) system (copyright 1988, Gaussian, Inc.),
 the Gaussian 86(TM) system (copyright 1986, Carnegie Mellon
 University), and the Gaussian 82(TM) system (copyright 1983,
 Carnegie Mellon University). Gaussian is a federally registered
 trademark of Gaussian, Inc.
  
 This software contains proprietary and confidential information,
 including trade secrets, belonging to Gaussian, Inc.
  
 This software is provided under written license and may be
 used, copied, transmitted, or stored only in accord with that
 written license.
  
 The following legend is applicable only to US Government
 contracts under FAR:
  
                    RESTRICTED RIGHTS LEGEND
  
 Use, reproduction and disclosure by the US Government is
 subject to restrictions as set forth in subparagraphs (a)
 and (c) of the Commercial Computer Software - Restricted
 Rights clause in FAR 52.227-19.
  
 Gaussian, Inc.
 340 Quinnipiac St., Bldg. 40, Wallingford CT 06492
  
  
 ---------------------------------------------------------------
 Warning -- This program may not be used in any manner that
 competes with the business of Gaussian, Inc. or will provide
 assistance to any competitor of Gaussian, Inc.  The licensee
 of this program is prohibited from giving any competitor of
 Gaussian, Inc. access to this program.  By using this program,
 the user acknowledges that Gaussian, Inc. is engaged in the
 business of creating and licensing software in the field of
 computational chemistry and represents and warrants to the
 licensee that it is not a competitor of Gaussian, Inc. and that
 it will not use this program in any manner prohibited above.
 ---------------------------------------------------------------
  

 Cite this work as:
 Gaussian 16, Revision C.01,
 M. J. Frisch, G. W. Trucks, H. B. Schlegel, G. E. Scuseria, 
 M. A. Robb, J. R. Cheeseman, G. Scalmani, V. Barone, 
 G. A. Petersson, H. Nakatsuji, X. Li, M. Caricato, A. V. Marenich, 
 J. Bloino, B. G. Janesko, R. Gomperts, B. Mennucci, H. P. Hratchian, 
 J. V. Ortiz, A. F. Izmaylov, J. L. Sonnenberg, D. Williams-Young, 
 F. Ding, F. Lipparini, F. Egidi, J. Goings, B. Peng, A. Petrone, 
 T. Henderson, D. Ranasinghe, V. G. Zakrzewski, J. Gao, N. Rega, 
 G. Zheng, W. Liang, M. Hada, M. Ehara, K. Toyota, R. Fukuda, 
 J. Hasegawa, M. Ishida, T. Nakajima, Y. Honda, O. Kitao, H. Nakai, 
 T. Vreven, K. Throssell, J. A. Montgomery, Jr., J. E. Peralta, 
 F. Ogliaro, M. J. Bearpark, J. J. Heyd, E. N. Brothers, K. N. Kudin, 
 V. N. Staroverov, T. A. Keith, R. Kobayashi, J. Normand, 
 K. Raghavachari, A. P. Rendell, J. C. Burant, S. S. Iyengar, 
 J. Tomasi, M. Cossi, J. M. Millam, M. Klene, C. Adamo, R. Cammi, 
 J. W. Ochterski, R. L. Martin, K. Morokuma, O. Farkas, 
 J. B. Foresman, and D. J. Fox, Gaussian, Inc., Wallingford CT, 2019.
 
 ******************************************
 Gaussian 16:  AS64L-G16RevC.01  3-Jul-2019
                 8-Oct-2025 
 ******************************************
 %chk=aziridinium-phos-full-c6_tzpop-sp.chk
 %nprocshared=4
 Will use up to    4 processors via shared memory.
 %mem=8GB
 ----------------------------------------------------------------------
 # wb97xd/6-311++g** nosymm int=ultrafine scrf=(smd,solvent=tetrahydrof
 uran)
 ----------------------------------------------------------------------
 1/38=1,172=1/1;
 2/12=2,15=1,17=6,18=5,40=1/2;
 3/5=4,6=6,7=1111,11=2,25=1,30=1,70=32201,72=20,74=-58,75=-5/1,2,3;
 4//1;
 5/5=2,38=5,53=20/2;
 6/7=2,8=2,9=2,10=2,28=1/1;
 99/5=1,9=1/99;
 ---------------------------------
 aziridinium-phos-full-c6_tzpop-sp
 ---------------------------------
 Symbolic Z-matrix:
 Charge =  0 Multiplicity = 1
 C                    -1.6238    0.8891    2.7268 
 C                    -1.7536   -0.0417    3.8749 
 H                    -2.6146   -0.7028    3.8116 
 C                    -0.6291   -0.5322    4.7438 
 H                     0.1475    0.2204    4.9023 
 H                    -1.0066   -0.8558    5.7196 
 H                    -0.163    -1.3936    4.2533 
 C                    -0.2814    1.4935    2.4005 
 H                     0.2127    0.8511    1.6637 
 H                    -0.4112    2.4765    1.9389 
 H                     0.387     1.5966    3.2632 
 B                    -2.7477    0.8321    1.4963 
 C                    -3.2652    2.3365    1.1471 
 H                    -3.9496    2.3224    0.2857 
 H                    -3.8264    2.7811    1.9851 
 H                    -2.4483    3.0287    0.9029 
 O                    -2.1351    0.1678    0.304 
 O                    -3.8442   -0.0837    1.8918 
 C                    -3.9939   -1.0962    0.9106 
 C                    -2.5694   -1.1927    0.2687 
 C                    -5.0547   -0.65     -0.1064 
 H                    -5.9741   -0.3923    0.4318 
 H                    -4.7248    0.2367   -0.6574 
 H                    -5.2914   -1.4404   -0.8288 
 C                    -4.4581   -2.3847    1.5839 
 H                    -4.4868   -3.2172    0.87 
 H                    -3.799    -2.6617    2.4121 
 H                    -5.4691   -2.2499    1.9869 
 C                    -2.5489   -1.6812   -1.175 
 H                    -3.1301   -1.0285   -1.8284 
 H                    -1.5158   -1.7055   -1.5384 
 H                    -2.9562   -2.6971   -1.2459 
 C                    -1.6058   -2.0671    1.0789 
 H                    -0.5962   -1.9319    0.6846 
 H                    -1.6017   -1.8097    2.1397 
 H                    -1.8582   -3.13      0.9857 
 P                     1.859    -1.1909   -0.5034 
 O                     1.0627    0.1109   -0.5719 
 O                     1.3021   -2.4619   -1.1003 
 N                    -2.2068    1.368     4.0462 
 H                    -3.2064    1.5509    4.0923 
 H                    -1.6476    1.9733    4.6439 
 Li                   -0.6577    0.8359   -0.7511 
 C                    -1.0061    3.7378   -1.4509 
 O                    -0.3537    2.8803   -0.5151 
 C                     1.0324    3.2085   -0.5787 
 C                     1.3096    3.3577   -2.0716 
 C                    -0.0145    3.9398   -2.6134 
 H                    -1.9439    3.2595   -1.7386 
 H                    -1.2371    4.6911   -0.9549 
 H                     1.2081    4.1516   -0.0379 
 H                     1.578     2.3954   -0.0984 
 H                     2.1737    3.9977   -2.2738 
 H                     1.4998    2.37     -2.5019 
 H                     0.0788    5.0016   -2.861 
 H                    -0.3401    3.411    -3.513 
 C                    -2.305     1.0954   -3.3878 
 O                    -1.0616    0.8823   -2.7254 
 C                    -0.1707    0.3206   -3.6851 
 C                    -1.029    -0.6734   -4.4628 
 C                    -2.4278   -0.0184   -4.447 
 H                    -3.0885    1.0793   -2.6263 
 H                    -2.2942    2.0883   -3.8607 
 H                     0.2091    1.12     -4.341 
 H                     0.6604   -0.1249   -3.1375 
 H                    -0.6493   -0.8386   -5.475 
 H                    -1.0447   -1.6352   -3.9418 
 H                    -2.6873    0.4067   -5.421 
 H                    -3.2029   -0.7422   -4.1812 
 C                     3.4989   -0.8372   -1.2462 
 C                     3.9089    0.4763   -1.4936 
 C                     4.3676   -1.8873   -1.5661 
 C                     5.161     0.7397   -2.0494 
 H                     3.2352    1.2944   -1.2559 
 C                     5.6205   -1.6293   -2.1192 
 H                     4.0565   -2.9135   -1.3857 
 C                     6.0196   -0.3138   -2.3619 
 H                     5.4648    1.766    -2.2404 
 H                     6.2848   -2.4539   -2.3651 
 H                     6.9957   -0.1119   -2.7956 
 C                     2.2497   -1.4826    1.2682 
 C                     2.7283   -0.4425    2.0738 
 C                     2.0718   -2.747     1.8354 
 C                     3.0264   -0.6611    3.4165 
 H                     2.8646    0.5492    1.6476 
 C                     2.364    -2.9704    3.1819 
 H                     1.6963   -3.5558    1.214 
 C                     2.8441   -1.9282    3.9735 
 H                     3.3975    0.1559    4.0304 
 H                     2.2177   -3.9583    3.6114 
 H                     3.0735   -2.1005    5.0221 
 
 Symmetry turned off by external request.
 Stoichiometry    C31H50BLiNO6P
 Framework group  C1[X(C31H50BLiNO6P)]
 Deg. of freedom   267
 Full point group                 C1      NOp   1
                          Input orientation:                          
 ---------------------------------------------------------------------
 Center     Atomic      Atomic             Coordinates (Angstroms)
 Number     Number       Type             X           Y           Z
 ---------------------------------------------------------------------
      1          6           0       -1.623800    0.889100    2.726800
      2          6           0       -1.753600   -0.041700    3.874900
      3          1           0       -2.614600   -0.702800    3.811600
      4          6           0       -0.629100   -0.532200    4.743800
      5          1           0        0.147500    0.220400    4.902300
      6          1           0       -1.006600   -0.855800    5.719600
      7          1           0       -0.163000   -1.393600    4.253300
      8          6           0       -0.281400    1.493500    2.400500
      9          1           0        0.212700    0.851100    1.663700
     10          1           0       -0.411200    2.476500    1.938900
     11          1           0        0.387000    1.596600    3.263200
     12          5           0       -2.747700    0.832100    1.496300
     13          6           0       -3.265200    2.336500    1.147100
     14          1           0       -3.949600    2.322400    0.285700
     15          1           0       -3.826400    2.781100    1.985100
     16          1           0       -2.448300    3.028700    0.902900
     17          8           0       -2.135100    0.167800    0.304000
     18          8           0       -3.844200   -0.083700    1.891800
     19          6           0       -3.993900   -1.096200    0.910600
     20          6           0       -2.569400   -1.192700    0.268700
     21          6           0       -5.054700   -0.650000   -0.106400
     22          1           0       -5.974100   -0.392300    0.431800
     23          1           0       -4.724800    0.236700   -0.657400
     24          1           0       -5.291400   -1.440400   -0.828800
     25          6           0       -4.458100   -2.384700    1.583900
     26          1           0       -4.486800   -3.217200    0.870000
     27          1           0       -3.799000   -2.661700    2.412100
     28          1           0       -5.469100   -2.249900    1.986900
     29          6           0       -2.548900   -1.681200   -1.175000
     30          1           0       -3.130100   -1.028500   -1.828400
     31          1           0       -1.515800   -1.705500   -1.538400
     32          1           0       -2.956200   -2.697100   -1.245900
     33          6           0       -1.605800   -2.067100    1.078900
     34          1           0       -0.596200   -1.931900    0.684600
     35          1           0       -1.601700   -1.809700    2.139700
     36          1           0       -1.858200   -3.130000    0.985700
     37         15           0        1.859000   -1.190900   -0.503400
     38          8           0        1.062700    0.110900   -0.571900
     39          8           0        1.302100   -2.461900   -1.100300
     40          7           0       -2.206800    1.368000    4.046200
     41          1           0       -3.206400    1.550900    4.092300
     42          1           0       -1.647600    1.973300    4.643900
     43          3           0       -0.657700    0.835900   -0.751100
     44          6           0       -1.006100    3.737800   -1.450900
     45          8           0       -0.353700    2.880300   -0.515100
     46          6           0        1.032400    3.208500   -0.578700
     47          6           0        1.309600    3.357700   -2.071600
     48          6           0       -0.014500    3.939800   -2.613400
     49          1           0       -1.943900    3.259500   -1.738600
     50          1           0       -1.237100    4.691100   -0.954900
     51          1           0        1.208100    4.151600   -0.037900
     52          1           0        1.578000    2.395400   -0.098400
     53          1           0        2.173700    3.997700   -2.273800
     54          1           0        1.499800    2.370000   -2.501900
     55          1           0        0.078800    5.001600   -2.861000
     56          1           0       -0.340100    3.411000   -3.513000
     57          6           0       -2.305000    1.095400   -3.387800
     58          8           0       -1.061600    0.882300   -2.725400
     59          6           0       -0.170700    0.320600   -3.685100
     60          6           0       -1.029000   -0.673400   -4.462800
     61          6           0       -2.427800   -0.018400   -4.447000
     62          1           0       -3.088500    1.079300   -2.626300
     63          1           0       -2.294200    2.088300   -3.860700
     64          1           0        0.209100    1.120000   -4.341000
     65          1           0        0.660400   -0.124900   -3.137500
     66          1           0       -0.649300   -0.838600   -5.475000
     67          1           0       -1.044700   -1.635200   -3.941800
     68          1           0       -2.687300    0.406700   -5.421000
     69          1           0       -3.202900   -0.742200   -4.181200
     70          6           0        3.498900   -0.837200   -1.246200
     71          6           0        3.908900    0.476300   -1.493600
     72          6           0        4.367600   -1.887300   -1.566100
     73          6           0        5.161000    0.739700   -2.049400
     74          1           0        3.235200    1.294400   -1.255900
     75          6           0        5.620500   -1.629300   -2.119200
     76          1           0        4.056500   -2.913500   -1.385700
     77          6           0        6.019600   -0.313800   -2.361900
     78          1           0        5.464800    1.766000   -2.240400
     79          1           0        6.284800   -2.453900   -2.365100
     80          1           0        6.995700   -0.111900   -2.795600
     81          6           0        2.249700   -1.482600    1.268200
     82          6           0        2.728300   -0.442500    2.073800
     83          6           0        2.071800   -2.747000    1.835400
     84          6           0        3.026400   -0.661100    3.416500
     85          1           0        2.864600    0.549200    1.647600
     86          6           0        2.364000   -2.970400    3.181900
     87          1           0        1.696300   -3.555800    1.214000
     88          6           0        2.844100   -1.928200    3.973500
     89          1           0        3.397500    0.155900    4.030400
     90          1           0        2.217700   -3.958300    3.611400
     91          1           0        3.073500   -2.100500    5.022100
 ---------------------------------------------------------------------
 Rotational constants (GHZ):           0.1006667           0.0787682           0.0612308
 Standard basis: 6-311++G(d,p) (5D, 7F)
  1260 basis functions,  1940 primitive gaussians,  1301 cartesian basis functions
   157 alpha electrons      157 beta electrons
       nuclear repulsion energy      5701.2224461203 Hartrees.
 NAtoms=   91 NActive=   91 NUniq=   91 SFac= 1.00D+00 NAtFMM=   60 NAOKFM=T Big=T
 Integral buffers will be    131072 words long.
 Raffenetti 2 integral format.
 Two-electron integral symmetry is turned off.
 Nuclear repulsion after empirical dispersion term =     5701.1053455529 Hartrees.
 ------------------------------------------------------------------------------
 Polarizable Continuum Model (PCM)
 =================================
 Model                : PCM.
 Atomic radii         : SMD-Coulomb.
 Polarization charges : Total charges.
 Charge compensation  : None.
 Solution method      : On-the-fly selection.
 Cavity type          : VdW (van der Waals Surface) (Alpha=1.000).
 Cavity algorithm     : GePol (No added spheres)
                        Default sphere list used, NSphG=   91.
                        Lebedev-Laikov grids with approx.  5.0 points / Ang**2.
                        Smoothing algorithm: York/Karplus (Gamma=1.0000).
                        Polarization charges: spherical gaussians, with
                                              point-specific exponents (IZeta= 3).
                        Self-potential: point-specific (ISelfS= 7).
                        Self-field    : sphere-specific E.n sum rule (ISelfD= 2).
 Solvent              : TetraHydroFuran, Eps=   7.425700 Eps(inf)=   1.974025
 ------------------------------------------------------------------------------
 ------------------------------------------------------------------------------
 Atomic radii for non-electrostatic terms: SMD-CDS.
 ------------------------------------------------------------------------------
 Nuclear repulsion after PCM non-electrostatic terms =     5701.0964882806 Hartrees.
 One-electron integrals computed using PRISM.
 NBasis=  1260 RedAO= T EigKep=  1.22D-06  NBF=  1260
 NBsUse=  1250 1.00D-06 EigRej=  9.02D-07 NBFU=  1250
 ExpMin= 7.40D-03 ExpMax= 7.75D+04 ExpMxC= 2.65D+03 IAcc=3 IRadAn=         5 AccDes= 0.00D+00
 Harris functional with IExCor= 4639 and IRadAn=       5 diagonalized for initial guess.
 HarFok:  IExCor= 4639 AccDes= 0.00D+00 IRadAn=         5 IDoV= 1 UseB2=F ITyADJ=14
 ICtDFT=  3500011 ScaDFX=  1.000000  1.000000  1.000000  1.000000
 FoFCou: FMM=F IPFlag=           0 FMFlag=      100000 FMFlg1=        2001
         NFxFlg=           0 DoJE=T BraDBF=F KetDBF=T FulRan=T
         wScrn=  0.000000 ICntrl=       500 IOpCl=  0 I1Cent=   200000004 NGrid=           0
         NMat0=    1 NMatS0=      1 NMatT0=    0 NMatD0=    1 NMtDS0=    0 NMtDT0=    0
 Symmetry not used in FoFCou.
 Requested convergence on RMS density matrix=1.00D-08 within 128 cycles.
 Requested convergence on MAX density matrix=1.00D-06.
 Requested convergence on             energy=1.00D-06.
 No special actions if energy rises.
 Inv3:  Mode=1 IEnd=    91477452.
 Iteration    1 A*A^-1 deviation from unit magnitude is 7.88D-15 for   5512.
 Iteration    1 A*A^-1 deviation from orthogonality  is 3.39D-15 for   3291   3037.
 Iteration    1 A^-1*A deviation from unit magnitude is 7.88D-15 for   5512.
 Iteration    1 A^-1*A deviation from orthogonality  is 1.89D-15 for   5517   5500.
 Error on total polarization charges =  0.07367
 SCF Done:  E(RwB97XD) =  -2091.46976752     A.U. after   16 cycles
            NFock= 16  Conv=0.24D-08     -V/T= 2.0040
 SMD-CDS (non-electrostatic) energy       (kcal/mol) =      -5.56
 (included in total energy above)

 **********************************************************************

            Population analysis using the SCF Density.

 **********************************************************************

 Alpha  occ. eigenvalues --  -77.25619 -19.25382 -19.25242 -19.20024 -19.18606
 Alpha  occ. eigenvalues --  -19.17183 -19.16045 -14.51527 -10.33336 -10.32204
 Alpha  occ. eigenvalues --  -10.31977 -10.31664 -10.31635 -10.31596 -10.31513
 Alpha  occ. eigenvalues --  -10.30565 -10.28648 -10.28621 -10.28587 -10.28481
 Alpha  occ. eigenvalues --  -10.28462 -10.28439 -10.28408 -10.28385 -10.28380
 Alpha  occ. eigenvalues --  -10.28298 -10.27924 -10.27919 -10.27917 -10.27432
 Alpha  occ. eigenvalues --  -10.27373 -10.27167 -10.27129 -10.26312 -10.25356
 Alpha  occ. eigenvalues --  -10.24981 -10.24919 -10.24439 -10.21486  -6.81735
 Alpha  occ. eigenvalues --   -6.69925  -4.84643  -4.84630  -4.84596  -1.97624
 Alpha  occ. eigenvalues --   -1.14826  -1.14514  -1.11328  -1.10408  -1.06121
 Alpha  occ. eigenvalues --   -1.04214  -1.00032  -0.95380  -0.95257  -0.87599
 Alpha  occ. eigenvalues --   -0.87323  -0.87198  -0.86455  -0.84791  -0.84195
 Alpha  occ. eigenvalues --   -0.84129  -0.83850  -0.83316  -0.83030  -0.82845
 Alpha  occ. eigenvalues --   -0.82144  -0.78019  -0.77256  -0.75372  -0.75292
 Alpha  occ. eigenvalues --   -0.71019  -0.69447  -0.69132  -0.68754  -0.68716
 Alpha  occ. eigenvalues --   -0.68599  -0.68529  -0.67949  -0.67881  -0.66642
 Alpha  occ. eigenvalues --   -0.64903  -0.63138  -0.60891  -0.60546  -0.60114
 Alpha  occ. eigenvalues --   -0.59771  -0.59006  -0.57920  -0.57621  -0.57192
 Alpha  occ. eigenvalues --   -0.56856  -0.54178  -0.53769  -0.53526  -0.53333
 Alpha  occ. eigenvalues --   -0.53326  -0.53187  -0.52839  -0.52645  -0.52361
 Alpha  occ. eigenvalues --   -0.51228  -0.51095  -0.50518  -0.50260  -0.50061
 Alpha  occ. eigenvalues --   -0.50003  -0.49942  -0.49325  -0.49003  -0.48815
 Alpha  occ. eigenvalues --   -0.48041  -0.47684  -0.47572  -0.47490  -0.46523
 Alpha  occ. eigenvalues --   -0.46170  -0.45979  -0.45811  -0.45438  -0.45160
 Alpha  occ. eigenvalues --   -0.44829  -0.44637  -0.44005  -0.43506  -0.43439
 Alpha  occ. eigenvalues --   -0.43088  -0.42971  -0.42794  -0.42553  -0.42527
 Alpha  occ. eigenvalues --   -0.42254  -0.42137  -0.41811  -0.41639  -0.41520
 Alpha  occ. eigenvalues --   -0.41182  -0.40787  -0.40737  -0.40265  -0.39875
 Alpha  occ. eigenvalues --   -0.39705  -0.38652  -0.37795  -0.37397  -0.36344
 Alpha  occ. eigenvalues --   -0.35147  -0.35116  -0.34796  -0.34272  -0.33460
 Alpha  occ. eigenvalues --   -0.33234  -0.32916  -0.32656  -0.32067  -0.31286
 Alpha  occ. eigenvalues --   -0.31099  -0.28806
 Alpha virt. eigenvalues --    0.02203   0.02479   0.02596   0.02820   0.03582
 Alpha virt. eigenvalues --    0.05113   0.05331   0.05583   0.05716   0.05830
 Alpha virt. eigenvalues --    0.05991   0.06150   0.06358   0.06863   0.06936
 Alpha virt. eigenvalues --    0.07106   0.07142   0.07403   0.07482   0.07586
 Alpha virt. eigenvalues --    0.07714   0.07945   0.08034   0.08176   0.08590
 Alpha virt. eigenvalues --    0.08899   0.08993   0.09311   0.09569   0.09689
 Alpha virt. eigenvalues --    0.09968   0.10343   0.10673   0.10857   0.10940
 Alpha virt. eigenvalues --    0.11306   0.11487   0.11961   0.11970   0.12384
 Alpha virt. eigenvalues --    0.12557   0.12908   0.13247   0.13348   0.13623
 Alpha virt. eigenvalues --    0.13678   0.13905   0.14032   0.14387   0.14490
 Alpha virt. eigenvalues --    0.14526   0.14685   0.15025   0.15181   0.15600
 Alpha virt. eigenvalues --    0.15705   0.15887   0.15957   0.16249   0.16291
 Alpha virt. eigenvalues --    0.16433   0.16596   0.16667   0.16751   0.17033
 Alpha virt. eigenvalues --    0.17183   0.17259   0.17468   0.17729   0.17914
 Alpha virt. eigenvalues --    0.17976   0.18097   0.18215   0.18375   0.18480
 Alpha virt. eigenvalues --    0.18564   0.18725   0.18842   0.18930   0.19082
 Alpha virt. eigenvalues --    0.19176   0.19322   0.19530   0.19563   0.19844
 Alpha virt. eigenvalues --    0.19945   0.20047   0.20231   0.20436   0.20508
 Alpha virt. eigenvalues --    0.20513   0.20648   0.20715   0.20832   0.20941
 Alpha virt. eigenvalues --    0.21042   0.21327   0.21407   0.21485   0.21724
 Alpha virt. eigenvalues --    0.21820   0.21984   0.22011   0.22265   0.22589
 Alpha virt. eigenvalues --    0.22659   0.22725   0.22864   0.22918   0.23074
 Alpha virt. eigenvalues --    0.23144   0.23435   0.23599   0.23706   0.23868
 Alpha virt. eigenvalues --    0.23938   0.24091   0.24130   0.24304   0.24401
 Alpha virt. eigenvalues --    0.24486   0.24598   0.24937   0.24980   0.25103
 Alpha virt. eigenvalues --    0.25183   0.25290   0.25439   0.25500   0.25658
 Alpha virt. eigenvalues --    0.25824   0.25994   0.26191   0.26263   0.26547
 Alpha virt. eigenvalues --    0.26590   0.26716   0.26842   0.26980   0.27139
 Alpha virt. eigenvalues --    0.27225   0.27268   0.27604   0.27802   0.27912
 Alpha virt. eigenvalues --    0.27987   0.28160   0.28268   0.28599   0.28616
 Alpha virt. eigenvalues --    0.28743   0.28849   0.29038   0.29151   0.29216
 Alpha virt. eigenvalues --    0.29414   0.29717   0.29802   0.30000   0.30134
 Alpha virt. eigenvalues --    0.30341   0.30547   0.30671   0.30796   0.31010
 Alpha virt. eigenvalues --    0.31076   0.31140   0.31414   0.31490   0.31696
 Alpha virt. eigenvalues --    0.31868   0.31932   0.32136   0.32152   0.32438
 Alpha virt. eigenvalues --    0.32638   0.32810   0.33085   0.33169   0.33246
 Alpha virt. eigenvalues --    0.33447   0.33625   0.33739   0.33892   0.34182
 Alpha virt. eigenvalues --    0.34393   0.34506   0.34679   0.34877   0.34931
 Alpha virt. eigenvalues --    0.35044   0.35386   0.35445   0.35520   0.35838
 Alpha virt. eigenvalues --    0.35917   0.36027   0.36280   0.36418   0.36491
 Alpha virt. eigenvalues --    0.36863   0.36959   0.37017   0.37398   0.37464
 Alpha virt. eigenvalues --    0.37512   0.37587   0.37945   0.38273   0.38337
 Alpha virt. eigenvalues --    0.38404   0.38507   0.38799   0.38839   0.38950
 Alpha virt. eigenvalues --    0.39165   0.39299   0.39558   0.39588   0.39769
 Alpha virt. eigenvalues --    0.39998   0.40217   0.40353   0.40520   0.40680
 Alpha virt. eigenvalues --    0.40779   0.40846   0.41062   0.41163   0.41205
 Alpha virt. eigenvalues --    0.41527   0.41709   0.41817   0.41952   0.42175
 Alpha virt. eigenvalues --    0.42748   0.42786   0.42939   0.43196   0.43286
 Alpha virt. eigenvalues --    0.43466   0.43526   0.43791   0.43850   0.44070
 Alpha virt. eigenvalues --    0.44237   0.44369   0.44703   0.44916   0.45089
 Alpha virt. eigenvalues --    0.45187   0.45256   0.45648   0.45876   0.45918
 Alpha virt. eigenvalues --    0.46257   0.46483   0.46815   0.46991   0.47134
 Alpha virt. eigenvalues --    0.47275   0.47379   0.47969   0.48030   0.48443
 Alpha virt. eigenvalues --    0.48585   0.48830   0.48916   0.49366   0.49514
 Alpha virt. eigenvalues --    0.49727   0.49840   0.50307   0.50868   0.51228
 Alpha virt. eigenvalues --    0.51571   0.51824   0.52229   0.52412   0.52928
 Alpha virt. eigenvalues --    0.53428   0.53714   0.53992   0.54569   0.54918
 Alpha virt. eigenvalues --    0.55320   0.55376   0.55589   0.55798   0.56276
 Alpha virt. eigenvalues --    0.56545   0.57050   0.57381   0.57575   0.57823
 Alpha virt. eigenvalues --    0.58475   0.58996   0.59434   0.59737   0.59925
 Alpha virt. eigenvalues --    0.60180   0.60413   0.60550   0.60890   0.61578
 Alpha virt. eigenvalues --    0.61699   0.61988   0.62263   0.62800   0.63183
 Alpha virt. eigenvalues --    0.63583   0.63957   0.64228   0.64558   0.64772
 Alpha virt. eigenvalues --    0.64917   0.65175   0.65455   0.65483   0.66185
 Alpha virt. eigenvalues --    0.66223   0.66539   0.67265   0.67384   0.67572
 Alpha virt. eigenvalues --    0.67825   0.68061   0.68452   0.68639   0.68757
 Alpha virt. eigenvalues --    0.69204   0.69348   0.69684   0.70040   0.70230
 Alpha virt. eigenvalues --    0.70673   0.70943   0.71180   0.71385   0.71818
 Alpha virt. eigenvalues --    0.72113   0.72481   0.72572   0.72820   0.73041
 Alpha virt. eigenvalues --    0.73316   0.73761   0.74039   0.74190   0.74342
 Alpha virt. eigenvalues --    0.74534   0.74916   0.75141   0.75586   0.75737
 Alpha virt. eigenvalues --    0.75989   0.76706   0.76778   0.76994   0.77190
 Alpha virt. eigenvalues --    0.77265   0.77831   0.78003   0.78535   0.78669
 Alpha virt. eigenvalues --    0.78860   0.79043   0.79335   0.79707   0.79898
 Alpha virt. eigenvalues --    0.80286   0.80497   0.80806   0.81043   0.81343
 Alpha virt. eigenvalues --    0.81474   0.81819   0.82036   0.82155   0.82493
 Alpha virt. eigenvalues --    0.82810   0.83165   0.83397   0.83446   0.83566
 Alpha virt. eigenvalues --    0.83967   0.84213   0.84259   0.84437   0.84873
 Alpha virt. eigenvalues --    0.84955   0.85260   0.85383   0.85465   0.85631
 Alpha virt. eigenvalues --    0.85975   0.86192   0.86530   0.86686   0.86827
 Alpha virt. eigenvalues --    0.86963   0.87010   0.87355   0.87630   0.87958
 Alpha virt. eigenvalues --    0.88356   0.88502   0.88610   0.88946   0.89275
 Alpha virt. eigenvalues --    0.89373   0.89430   0.89857   0.89967   0.90255
 Alpha virt. eigenvalues --    0.90316   0.90787   0.90897   0.91094   0.91425
 Alpha virt. eigenvalues --    0.91859   0.91987   0.92394   0.92606   0.92815
 Alpha virt. eigenvalues --    0.93332   0.93477   0.93695   0.94028   0.94375
 Alpha virt. eigenvalues --    0.94764   0.95079   0.95449   0.95702   0.95822
 Alpha virt. eigenvalues --    0.96304   0.96496   0.96842   0.96955   0.97159
 Alpha virt. eigenvalues --    0.97512   0.97859   0.97960   0.98240   0.98840
 Alpha virt. eigenvalues --    0.99068   0.99443   1.00027   1.00203   1.00655
 Alpha virt. eigenvalues --    1.01035   1.01468   1.02142   1.02221   1.02577
 Alpha virt. eigenvalues --    1.03138   1.03902   1.04217   1.04420   1.04660
 Alpha virt. eigenvalues --    1.04926   1.05696   1.06056   1.06685   1.07214
 Alpha virt. eigenvalues --    1.07298   1.07449   1.08512   1.09064   1.09358
 Alpha virt. eigenvalues --    1.10279   1.10638   1.11299   1.11609   1.11991
 Alpha virt. eigenvalues --    1.12299   1.12712   1.13210   1.13524   1.13914
 Alpha virt. eigenvalues --    1.14117   1.15039   1.15210   1.15584   1.16120
 Alpha virt. eigenvalues --    1.16723   1.16948   1.17974   1.18289   1.18568
 Alpha virt. eigenvalues --    1.19047   1.19418   1.19571   1.20179   1.20822
 Alpha virt. eigenvalues --    1.21318   1.21835   1.22103   1.22779   1.23070
 Alpha virt. eigenvalues --    1.23512   1.23896   1.25134   1.25618   1.25985
 Alpha virt. eigenvalues --    1.26825   1.26907   1.27350   1.28066   1.28633
 Alpha virt. eigenvalues --    1.29490   1.29872   1.30237   1.30728   1.31838
 Alpha virt. eigenvalues --    1.32075   1.32157   1.32563   1.33772   1.34047
 Alpha virt. eigenvalues --    1.34477   1.35037   1.35505   1.36719   1.37282
 Alpha virt. eigenvalues --    1.37441   1.38055   1.38642   1.39433   1.39874
 Alpha virt. eigenvalues --    1.40279   1.41150   1.41322   1.41635   1.42269
 Alpha virt. eigenvalues --    1.42578   1.43530   1.43657   1.44271   1.44807
 Alpha virt. eigenvalues --    1.45670   1.46448   1.46941   1.47748   1.48432
 Alpha virt. eigenvalues --    1.49249   1.49946   1.50426   1.50797   1.51605
 Alpha virt. eigenvalues --    1.52068   1.53024   1.53289   1.54156   1.54260
 Alpha virt. eigenvalues --    1.54936   1.55892   1.56102   1.56489   1.56900
 Alpha virt. eigenvalues --    1.57187   1.57539   1.58783   1.59161   1.60295
 Alpha virt. eigenvalues --    1.60530   1.60990   1.61232   1.61854   1.62146
 Alpha virt. eigenvalues --    1.62203   1.62705   1.63396   1.63468   1.63811
 Alpha virt. eigenvalues --    1.64053   1.64762   1.65119   1.65298   1.65544
 Alpha virt. eigenvalues --    1.65941   1.66420   1.66694   1.66789   1.67247
 Alpha virt. eigenvalues --    1.67299   1.67410   1.68118   1.68310   1.68604
 Alpha virt. eigenvalues --    1.68675   1.69483   1.70026   1.70202   1.70374
 Alpha virt. eigenvalues --    1.70715   1.70889   1.71406   1.71614   1.71918
 Alpha virt. eigenvalues --    1.72582   1.72648   1.73298   1.73663   1.73971
 Alpha virt. eigenvalues --    1.74301   1.74943   1.75037   1.75281   1.75568
 Alpha virt. eigenvalues --    1.75901   1.76059   1.76346   1.76897   1.76997
 Alpha virt. eigenvalues --    1.77359   1.77833   1.78098   1.78447   1.78810
 Alpha virt. eigenvalues --    1.79301   1.79362   1.79882   1.80224   1.80508
 Alpha virt. eigenvalues --    1.80620   1.81033   1.81554   1.81862   1.81994
 Alpha virt. eigenvalues --    1.82263   1.82345   1.83197   1.83606   1.84218
 Alpha virt. eigenvalues --    1.84453   1.84542   1.84717   1.84892   1.85442
 Alpha virt. eigenvalues --    1.85706   1.86285   1.86515   1.86893   1.87610
 Alpha virt. eigenvalues --    1.87916   1.88342   1.88511   1.88884   1.89171
 Alpha virt. eigenvalues --    1.89564   1.90128   1.90436   1.90848   1.90987
 Alpha virt. eigenvalues --    1.91279   1.92075   1.92345   1.92436   1.93029
 Alpha virt. eigenvalues --    1.93311   1.93767   1.94278   1.94601   1.94650
 Alpha virt. eigenvalues --    1.95145   1.95375   1.95904   1.96139   1.96394
 Alpha virt. eigenvalues --    1.96997   1.97584   1.97850   1.98433   1.98938
 Alpha virt. eigenvalues --    1.99246   1.99790   2.00230   2.00644   2.01177
 Alpha virt. eigenvalues --    2.01389   2.02050   2.02385   2.02678   2.02884
 Alpha virt. eigenvalues --    2.03092   2.03243   2.04055   2.04312   2.04388
 Alpha virt. eigenvalues --    2.04887   2.05563   2.05778   2.06190   2.06621
 Alpha virt. eigenvalues --    2.06839   2.06910   2.07160   2.07668   2.07868
 Alpha virt. eigenvalues --    2.08062   2.08480   2.08963   2.09863   2.10045
 Alpha virt. eigenvalues --    2.10842   2.11199   2.11462   2.11986   2.12511
 Alpha virt. eigenvalues --    2.13033   2.13302   2.13770   2.13875   2.14548
 Alpha virt. eigenvalues --    2.15136   2.15347   2.15931   2.16425   2.16677
 Alpha virt. eigenvalues --    2.16998   2.17506   2.18220   2.18415   2.19789
 Alpha virt. eigenvalues --    2.20089   2.20835   2.21646   2.21837   2.22055
 Alpha virt. eigenvalues --    2.22401   2.22794   2.24104   2.24401   2.24683
 Alpha virt. eigenvalues --    2.25120   2.25786   2.26480   2.26894   2.27422
 Alpha virt. eigenvalues --    2.28203   2.28659   2.28989   2.29273   2.29748
 Alpha virt. eigenvalues --    2.30150   2.31497   2.31893   2.32866   2.33189
 Alpha virt. eigenvalues --    2.33927   2.34649   2.35267   2.36747   2.37441
 Alpha virt. eigenvalues --    2.37849   2.38150   2.39187   2.40249   2.40393
 Alpha virt. eigenvalues --    2.41443   2.41772   2.42355   2.43016   2.43281
 Alpha virt. eigenvalues --    2.43490   2.43903   2.44342   2.44538   2.45057
 Alpha virt. eigenvalues --    2.45234   2.46397   2.46821   2.48489   2.49293
 Alpha virt. eigenvalues --    2.50193   2.50661   2.51296   2.51430   2.52641
 Alpha virt. eigenvalues --    2.53046   2.54017   2.54511   2.55537   2.55780
 Alpha virt. eigenvalues --    2.57944   2.58401   2.59145   2.59866   2.60347
 Alpha virt. eigenvalues --    2.60536   2.61030   2.61884   2.62241   2.62815
 Alpha virt. eigenvalues --    2.63132   2.63964   2.64097   2.64265   2.64597
 Alpha virt. eigenvalues --    2.65349   2.65534   2.66420   2.66620   2.66761
 Alpha virt. eigenvalues --    2.67280   2.68189   2.68555   2.68921   2.69145
 Alpha virt. eigenvalues --    2.69553   2.69733   2.70465   2.71212   2.71466
 Alpha virt. eigenvalues --    2.72198   2.73072   2.73313   2.73808   2.74785
 Alpha virt. eigenvalues --    2.75009   2.75278   2.75502   2.75613   2.76212
 Alpha virt. eigenvalues --    2.76624   2.76944   2.77581   2.78304   2.78404
 Alpha virt. eigenvalues --    2.78844   2.79885   2.80089   2.80245   2.80744
 Alpha virt. eigenvalues --    2.81571   2.82265   2.82587   2.83315   2.83688
 Alpha virt. eigenvalues --    2.84248   2.84813   2.85137   2.85946   2.86089
 Alpha virt. eigenvalues --    2.87129   2.87428   2.87772   2.88729   2.88946
 Alpha virt. eigenvalues --    2.89479   2.89720   2.90015   2.90348   2.91393
 Alpha virt. eigenvalues --    2.91939   2.92154   2.92794   2.92971   2.93142
 Alpha virt. eigenvalues --    2.93776   2.94220   2.94440   2.94894   2.95397
 Alpha virt. eigenvalues --    2.95545   2.96177   2.96771   2.96887   2.97364
 Alpha virt. eigenvalues --    2.97753   2.98124   2.98189   2.98723   2.99136
 Alpha virt. eigenvalues --    2.99637   2.99900   3.00180   3.00663   3.00870
 Alpha virt. eigenvalues --    3.01364   3.01732   3.01992   3.02594   3.02815
 Alpha virt. eigenvalues --    3.03679   3.03938   3.04457   3.05417   3.05803
 Alpha virt. eigenvalues --    3.06311   3.06565   3.07205   3.07483   3.07943
 Alpha virt. eigenvalues --    3.08348   3.08914   3.09401   3.09694   3.10506
 Alpha virt. eigenvalues --    3.11347   3.11831   3.12641   3.13023   3.13184
 Alpha virt. eigenvalues --    3.13530   3.14209   3.14560   3.15214   3.15411
 Alpha virt. eigenvalues --    3.17185   3.17792   3.18098   3.19822   3.20176
 Alpha virt. eigenvalues --    3.21002   3.21790   3.21873   3.22220   3.23403
 Alpha virt. eigenvalues --    3.24029   3.24716   3.25561   3.26076   3.26708
 Alpha virt. eigenvalues --    3.28048   3.28181   3.28297   3.29110   3.29941
 Alpha virt. eigenvalues --    3.30600   3.32245   3.32455   3.32985   3.34001
 Alpha virt. eigenvalues --    3.35311   3.35717   3.36186   3.36688   3.37316
 Alpha virt. eigenvalues --    3.38552   3.38856   3.40843   3.41469   3.42287
 Alpha virt. eigenvalues --    3.42911   3.44742   3.45262   3.46294   3.46676
 Alpha virt. eigenvalues --    3.48261   3.50307   3.51191   3.51961   3.52318
 Alpha virt. eigenvalues --    3.52658   3.52730   3.54050   3.54653   3.55839
 Alpha virt. eigenvalues --    3.57742   3.64068   3.64259   3.65224   3.66955
 Alpha virt. eigenvalues --    3.67261   3.68595   3.69692   3.74213   3.74533
 Alpha virt. eigenvalues --    3.75109   3.77166   3.79372   3.80146   3.83889
 Alpha virt. eigenvalues --    3.87452   3.88970   3.89488   3.91125   3.91392
 Alpha virt. eigenvalues --    3.93545   3.94021   3.94441   3.94770   3.95521
 Alpha virt. eigenvalues --    3.96219   3.96459   3.97027   3.97880   3.98920
 Alpha virt. eigenvalues --    4.00113   4.01016   4.02449   4.04651   4.05223
 Alpha virt. eigenvalues --    4.05563   4.06917   4.11369   4.12630   4.14095
 Alpha virt. eigenvalues --    4.14781   4.15260   4.15769   4.16030   4.17504
 Alpha virt. eigenvalues --    4.19006   4.20546   4.21672   4.23731   4.26173
 Alpha virt. eigenvalues --    4.27971   4.28334   4.29040   4.29373   4.30366
 Alpha virt. eigenvalues --    4.31020   4.34953   4.37864   4.41510   4.42266
 Alpha virt. eigenvalues --    4.44092   4.47145   4.49566   4.50311   4.53965
 Alpha virt. eigenvalues --    4.75875   4.79727   4.84109   4.95824   4.96144
 Alpha virt. eigenvalues --    5.08364   5.37789   5.39787   5.41761   5.42737
 Alpha virt. eigenvalues --    5.44595   5.48825   5.50675   5.52922   5.55223
 Alpha virt. eigenvalues --    5.59017   5.66440   5.69876   5.70658   5.75165
 Alpha virt. eigenvalues --    5.79864   5.80810   5.82534   5.89331   7.70175
 Alpha virt. eigenvalues --   14.35776  14.42018  14.52182  14.97313  23.77879
 Alpha virt. eigenvalues --   23.81905  23.95595  23.97618  24.02194  24.02551
 Alpha virt. eigenvalues --   24.03422  24.05017  24.06476  24.06869  24.10832
 Alpha virt. eigenvalues --   24.12127  24.12170  24.13035  24.13401  24.13940
 Alpha virt. eigenvalues --   24.14373  24.14592  24.15224  24.16043  24.16285
 Alpha virt. eigenvalues --   24.19148  24.20207  24.21993  24.22151  24.22411
 Alpha virt. eigenvalues --   24.23608  24.24098  24.24530  24.32972  24.33311
 Alpha virt. eigenvalues --   35.70927  50.14135  50.15787  50.19584  50.22618
 Alpha virt. eigenvalues --   50.24876  50.25841 163.95406
          Condensed to atoms (all electrons):
 Mulliken charges:
               1
     1  C   -0.865861
     2  C    0.466277
     3  H    0.330875
     4  C   -0.795328
     5  H    0.130718
     6  H    0.235894
     7  H    0.193726
     8  C   -0.788832
     9  H    0.219867
    10  H    0.209724
    11  H    0.138936
    12  B    1.073769
    13  C   -0.663568
    14  H    0.165902
    15  H    0.151141
    16  H    0.157863
    17  O    0.184858
    18  O   -0.165250
    19  C    0.075585
    20  C   -0.493002
    21  C   -0.256205
    22  H    0.204955
    23  H    0.093772
    24  H    0.206310
    25  C   -0.792252
    26  H    0.192704
    27  H    0.163028
    28  H    0.194696
    29  C   -0.925074
    30  H    0.028092
    31  H    0.284094
    32  H    0.241999
    33  C   -0.510639
    34  H    0.228287
    35  H    0.099341
    36  H    0.241833
    37  P   -0.488711
    38  O   -0.121304
    39  O   -0.131092
    40  N   -0.026431
    41  H    0.376114
    42  H    0.424875
    43  Li  -0.070207
    44  C   -0.164421
    45  O    0.097171
    46  C   -0.322105
    47  C   -0.194445
    48  C   -0.769701
    49  H    0.126497
    50  H    0.202523
    51  H    0.214641
    52  H   -0.007594
    53  H    0.253277
    54  H    0.103311
    55  H    0.242590
    56  H    0.136498
    57  C   -0.145851
    58  O    0.081263
    59  C   -0.165037
    60  C   -0.508935
    61  C   -0.424730
    62  H    0.239875
    63  H    0.208166
    64  H    0.209196
    65  H    0.048070
    66  H    0.239972
    67  H    0.231870
    68  H    0.224690
    69  H    0.216624
    70  C    0.273778
    71  C    0.209435
    72  C   -0.044946
    73  C   -0.232369
    74  H    0.087938
    75  C   -0.458464
    76  H    0.302480
    77  C   -0.569607
    78  H    0.281918
    79  H    0.272086
    80  H    0.248697
    81  C    0.174819
    82  C   -0.193178
    83  C   -0.089254
    84  C   -0.595411
    85  H    0.324215
    86  C   -0.532493
    87  H    0.300881
    88  C   -0.551243
    89  H    0.269611
    90  H    0.271395
    91  H    0.254819
 Sum of Mulliken charges =  -0.00000
 Mulliken charges with hydrogens summed into heavy atoms:
               1
     1  C   -0.865861
     2  C    0.797151
     4  C   -0.234990
     8  C   -0.220304
    12  B    1.073769
    13  C   -0.188661
    17  O    0.184858
    18  O   -0.165250
    19  C    0.075585
    20  C   -0.493002
    21  C    0.248831
    25  C   -0.241825
    29  C   -0.370888
    33  C    0.058821
    37  P   -0.488711
    38  O   -0.121304
    39  O   -0.131092
    40  N    0.774558
    43  Li  -0.070207
    44  C    0.164599
    45  O    0.097171
    46  C   -0.115058
    47  C    0.162143
    48  C   -0.390613
    57  C    0.302190
    58  O    0.081263
    59  C    0.092229
    60  C   -0.037094
    61  C    0.016584
    70  C    0.273778
    71  C    0.297373
    72  C    0.257534
    73  C    0.049549
    75  C   -0.186378
    77  C   -0.320911
    81  C    0.174819
    82  C    0.131037
    83  C    0.211627
    84  C   -0.325800
    86  C   -0.261097
    88  C   -0.296424
 Electronic spatial extent (au):  <R**2>=          20148.7970
 Charge=              0.0000 electrons
 Dipole moment (field-independent basis, Debye):
    X=             -2.3998    Y=              8.5811    Z=              6.4069  Tot=             10.9746
 Quadrupole moment (field-independent basis, Debye-Ang):
   XX=           -263.3995   YY=           -245.8098   ZZ=           -190.8281
   XY=              9.0875   XZ=             -2.0185   YZ=             -2.6956
 Traceless Quadrupole moment (field-independent basis, Debye-Ang):
   XX=            -30.0537   YY=            -12.4640   ZZ=             42.5177
   XY=              9.0875   XZ=             -2.0185   YZ=             -2.6956
 Octapole moment (field-independent basis, Debye-Ang**2):
  XXX=             65.3941  YYY=             85.3340  ZZZ=            185.6580  XYY=              2.0186
  XXY=             17.3395  XXZ=            -47.4982  XZZ=            -90.5918  YZZ=             90.4769
  YYZ=             24.9001  XYZ=            -26.6330
 Hexadecapole moment (field-independent basis, Debye-Ang**3):
 XXXX=         -12867.6274 YYYY=          -5300.5852 ZZZZ=          -7911.9891 XXXY=            619.9527
 XXXZ=            386.7700 YYYX=            587.4926 YYYZ=            619.1368 ZZZX=            564.6429
 ZZZY=            928.7600 XXYY=          -2979.9188 XXZZ=          -3410.3853 YYZZ=          -2268.9989
 XXYZ=            341.0964 YYXZ=            199.1935 ZZXY=             10.9012
 N-N= 5.701096488281D+03 E-N=-1.629834066305D+04  KE= 2.083095150449D+03
 Unable to Open any file for archive entry.
 1\1\GINC-NODE20\SP\RwB97XD\6-311++G(d,p)\C31H50B1Li1N1O6P1\WHUGHES2\08
 -Oct-2025\0\\# wb97xd/6-311++g** nosymm int=ultrafine scrf=(smd,solven
 t=tetrahydrofuran)\\aziridinium-phos-full-c6_tzpop-sp\\0,1\C,0,-1.6238
 ,0.8891,2.7268\C,0,-1.7536,-0.0417,3.8749\H,0,-2.6146,-0.7028,3.8116\C
 ,0,-0.6291,-0.5322,4.7438\H,0,0.1475,0.2204,4.9023\H,0,-1.0066,-0.8558
 ,5.7196\H,0,-0.163,-1.3936,4.2533\C,0,-0.2814,1.4935,2.4005\H,0,0.2127
 ,0.8511,1.6637\H,0,-0.4112,2.4765,1.9389\H,0,0.387,1.5966,3.2632\B,0,-
 2.7477,0.8321,1.4963\C,0,-3.2652,2.3365,1.1471\H,0,-3.9496,2.3224,0.28
 57\H,0,-3.8264,2.7811,1.9851\H,0,-2.4483,3.0287,0.9029\O,0,-2.1351,0.1
 678,0.304\O,0,-3.8442,-0.0837,1.8918\C,0,-3.9939,-1.0962,0.9106\C,0,-2
 .5694,-1.1927,0.2687\C,0,-5.0547,-0.65,-0.1064\H,0,-5.9741,-0.3923,0.4
 318\H,0,-4.7248,0.2367,-0.6574\H,0,-5.2914,-1.4404,-0.8288\C,0,-4.4581
 ,-2.3847,1.5839\H,0,-4.4868,-3.2172,0.87\H,0,-3.799,-2.6617,2.4121\H,0
 ,-5.4691,-2.2499,1.9869\C,0,-2.5489,-1.6812,-1.175\H,0,-3.1301,-1.0285
 ,-1.8284\H,0,-1.5158,-1.7055,-1.5384\H,0,-2.9562,-2.6971,-1.2459\C,0,-
 1.6058,-2.0671,1.0789\H,0,-0.5962,-1.9319,0.6846\H,0,-1.6017,-1.8097,2
 .1397\H,0,-1.8582,-3.13,0.9857\P,0,1.859,-1.1909,-0.5034\O,0,1.0627,0.
 1109,-0.5719\O,0,1.3021,-2.4619,-1.1003\N,0,-2.2068,1.368,4.0462\H,0,-
 3.2064,1.5509,4.0923\H,0,-1.6476,1.9733,4.6439\Li,0,-0.6577,0.8359,-0.
 7511\C,0,-1.0061,3.7378,-1.4509\O,0,-0.3537,2.8803,-0.5151\C,0,1.0324,
 3.2085,-0.5787\C,0,1.3096,3.3577,-2.0716\C,0,-0.0145,3.9398,-2.6134\H,
 0,-1.9439,3.2595,-1.7386\H,0,-1.2371,4.6911,-0.9549\H,0,1.2081,4.1516,
 -0.0379\H,0,1.578,2.3954,-0.0984\H,0,2.1737,3.9977,-2.2738\H,0,1.4998,
 2.37,-2.5019\H,0,0.0788,5.0016,-2.861\H,0,-0.3401,3.411,-3.513\C,0,-2.
 305,1.0954,-3.3878\O,0,-1.0616,0.8823,-2.7254\C,0,-0.1707,0.3206,-3.68
 51\C,0,-1.029,-0.6734,-4.4628\C,0,-2.4278,-0.0184,-4.447\H,0,-3.0885,1
 .0793,-2.6263\H,0,-2.2942,2.0883,-3.8607\H,0,0.2091,1.12,-4.341\H,0,0.
 6604,-0.1249,-3.1375\H,0,-0.6493,-0.8386,-5.475\H,0,-1.0447,-1.6352,-3
 .9418\H,0,-2.6873,0.4067,-5.421\H,0,-3.2029,-0.7422,-4.1812\C,0,3.4989
 ,-0.8372,-1.2462\C,0,3.9089,0.4763,-1.4936\C,0,4.3676,-1.8873,-1.5661\
 C,0,5.161,0.7397,-2.0494\H,0,3.2352,1.2944,-1.2559\C,0,5.6205,-1.6293,
 -2.1192\H,0,4.0565,-2.9135,-1.3857\C,0,6.0196,-0.3138,-2.3619\H,0,5.46
 48,1.766,-2.2404\H,0,6.2848,-2.4539,-2.3651\H,0,6.9957,-0.1119,-2.7956
 \C,0,2.2497,-1.4826,1.2682\C,0,2.7283,-0.4425,2.0738\C,0,2.0718,-2.747
 ,1.8354\C,0,3.0264,-0.6611,3.4165\H,0,2.8646,0.5492,1.6476\C,0,2.364,-
 2.9704,3.1819\H,0,1.6963,-3.5558,1.214\C,0,2.8441,-1.9282,3.9735\H,0,3
 .3975,0.1559,4.0304\H,0,2.2177,-3.9583,3.6114\H,0,3.0735,-2.1005,5.022
 1\\Version=AS64L-G16RevC.01\HF=-2091.4697675\RMSD=2.377e-09\Dipole=-0.
 9441501,3.3760451,2.520677\Quadrupole=-22.3441677,-9.2667056,31.610873
 3,6.7563217,-1.5006988,-2.0041101\PG=C01 [X(C31H50B1Li1N1O6P1)]\\@
 The archive entry for this job was punched.


 THE CAUTIOUS SELDOM ERR...CONFUCIUS                   
 Job cpu time:       0 days  7 hours 32 minutes 28.6 seconds.
 Elapsed time:       0 days  1 hours 54 minutes 16.7 seconds.
 File lengths (MBytes):  RWF=   1333 Int=      0 D2E=      0 Chk=     95 Scr=      1
 Normal termination of Gaussian 16 at Wed Oct  8 17:22:02 2025.
