Job Start Time: Wed Oct  8 15:27:45 MDT 2025
SLURM Job ID: 768178
SLURM Job Name: aziridinium-phos-full-c3_tzpop-sp
 Entering Gaussian System, Link 0=/opt/apps/Gaussian/G16C/g16/g16
 Initial command:
 /opt/apps/Gaussian/G16C/g16/l1.exe "/tmp/768178/Gau-2198601.inp" -scrdir="/tmp/768178/"
 Entering Link 1 = /opt/apps/Gaussian/G16C/g16/l1.exe PID=   2198605.
  
 Copyright (c) 1988-2019, Gaussian, Inc.  All Rights Reserved.
  
 This is part of the Gaussian(R) 16 program.  It is based on
 the Gaussian(R) 09 system (copyright 2009, Gaussian, Inc.),
 the Gaussian(R) 03 system (copyright 2003, Gaussian, Inc.),
 the Gaussian(R) 98 system (copyright 1998, Gaussian, Inc.),
 the Gaussian(R) 94 system (copyright 1995, Gaussian, Inc.),
 the Gaussian 92(TM) system (copyright 1992, Gaussian, Inc.),
 the Gaussian 90(TM) system (copyright 1990, Gaussian, Inc.),
 the Gaussian 88(TM) system (copyright 1988, Gaussian, Inc.),
 the Gaussian 86(TM) system (copyright 1986, Carnegie Mellon
 University), and the Gaussian 82(TM) system (copyright 1983,
 Carnegie Mellon University). Gaussian is a federally registered
 trademark of Gaussian, Inc.
  
 This software contains proprietary and confidential information,
 including trade secrets, belonging to Gaussian, Inc.
  
 This software is provided under written license and may be
 used, copied, transmitted, or stored only in accord with that
 written license.
  
 The following legend is applicable only to US Government
 contracts under FAR:
  
                    RESTRICTED RIGHTS LEGEND
  
 Use, reproduction and disclosure by the US Government is
 subject to restrictions as set forth in subparagraphs (a)
 and (c) of the Commercial Computer Software - Restricted
 Rights clause in FAR 52.227-19.
  
 Gaussian, Inc.
 340 Quinnipiac St., Bldg. 40, Wallingford CT 06492
  
  
 ---------------------------------------------------------------
 Warning -- This program may not be used in any manner that
 competes with the business of Gaussian, Inc. or will provide
 assistance to any competitor of Gaussian, Inc.  The licensee
 of this program is prohibited from giving any competitor of
 Gaussian, Inc. access to this program.  By using this program,
 the user acknowledges that Gaussian, Inc. is engaged in the
 business of creating and licensing software in the field of
 computational chemistry and represents and warrants to the
 licensee that it is not a competitor of Gaussian, Inc. and that
 it will not use this program in any manner prohibited above.
 ---------------------------------------------------------------
  

 Cite this work as:
 Gaussian 16, Revision C.01,
 M. J. Frisch, G. W. Trucks, H. B. Schlegel, G. E. Scuseria, 
 M. A. Robb, J. R. Cheeseman, G. Scalmani, V. Barone, 
 G. A. Petersson, H. Nakatsuji, X. Li, M. Caricato, A. V. Marenich, 
 J. Bloino, B. G. Janesko, R. Gomperts, B. Mennucci, H. P. Hratchian, 
 J. V. Ortiz, A. F. Izmaylov, J. L. Sonnenberg, D. Williams-Young, 
 F. Ding, F. Lipparini, F. Egidi, J. Goings, B. Peng, A. Petrone, 
 T. Henderson, D. Ranasinghe, V. G. Zakrzewski, J. Gao, N. Rega, 
 G. Zheng, W. Liang, M. Hada, M. Ehara, K. Toyota, R. Fukuda, 
 J. Hasegawa, M. Ishida, T. Nakajima, Y. Honda, O. Kitao, H. Nakai, 
 T. Vreven, K. Throssell, J. A. Montgomery, Jr., J. E. Peralta, 
 F. Ogliaro, M. J. Bearpark, J. J. Heyd, E. N. Brothers, K. N. Kudin, 
 V. N. Staroverov, T. A. Keith, R. Kobayashi, J. Normand, 
 K. Raghavachari, A. P. Rendell, J. C. Burant, S. S. Iyengar, 
 J. Tomasi, M. Cossi, J. M. Millam, M. Klene, C. Adamo, R. Cammi, 
 J. W. Ochterski, R. L. Martin, K. Morokuma, O. Farkas, 
 J. B. Foresman, and D. J. Fox, Gaussian, Inc., Wallingford CT, 2019.
 
 ******************************************
 Gaussian 16:  AS64L-G16RevC.01  3-Jul-2019
                 8-Oct-2025 
 ******************************************
 %chk=aziridinium-phos-full-c3_tzpop-sp.chk
 %nprocshared=4
 Will use up to    4 processors via shared memory.
 %mem=8GB
 ----------------------------------------------------------------------
 # wb97xd/6-311++g** nosymm int=ultrafine scrf=(smd,solvent=tetrahydrof
 uran)
 ----------------------------------------------------------------------
 1/38=1,172=1/1;
 2/12=2,15=1,17=6,18=5,40=1/2;
 3/5=4,6=6,7=1111,11=2,25=1,30=1,70=32201,72=20,74=-58,75=-5/1,2,3;
 4//1;
 5/5=2,38=5,53=20/2;
 6/7=2,8=2,9=2,10=2,28=1/1;
 99/5=1,9=1/99;
 ---------------------------------
 aziridinium-phos-full-c3_tzpop-sp
 ---------------------------------
 Symbolic Z-matrix:
 Charge =  0 Multiplicity = 1
 C                    -1.8759   -0.5362    2.2913 
 C                    -1.7029   -0.722     3.7613 
 H                    -2.0585    0.0918    4.3887 
 C                    -1.6345   -2.0573    4.4537 
 H                    -2.6505   -2.3854    4.6987 
 H                    -1.1685   -2.8257    3.831 
 H                    -1.0678   -1.9786    5.3877 
 C                    -1.9087   -1.7932    1.4418 
 H                    -1.0166   -2.4165    1.5595 
 H                    -2.7806   -2.3987    1.7124 
 H                    -1.9985   -1.53      0.3857 
 B                    -2.6262    0.8426    1.7384 
 C                    -1.9674    2.1888    2.4079 
 H                    -2.5434    3.0749    2.1108 
 H                    -1.9663    2.1855    3.5105 
 H                    -0.9308    2.3783    2.0845 
 O                    -2.5334    0.8601    0.2384 
 O                    -4.0832    0.778     1.9917 
 C                    -4.8047    0.639     0.7836 
 C                    -3.8098    1.1685   -0.3128 
 C                    -6.099     1.4479    0.8845 
 H                    -5.9029    2.4828    1.1786 
 H                    -6.6443    1.4507   -0.0677 
 H                    -6.7513    1.0013    1.6444 
 C                    -5.1813   -0.8354    0.5736 
 H                    -5.6818   -1.2014    1.4775 
 H                    -5.8667   -0.9658   -0.2728 
 H                    -4.3019   -1.4583    0.3987 
 C                    -3.9175    2.6833   -0.5299 
 H                    -4.8613    2.9531   -1.018 
 H                    -3.8456    3.2379    0.4094 
 H                    -3.0989    3.0035   -1.1817 
 C                    -3.9452    0.4828   -1.6695 
 H                    -3.7273   -0.5858   -1.6058 
 H                    -4.9565    0.6145   -2.0731 
 H                    -3.2378    0.9279   -2.3781 
 P                     1.8936   -0.7132    0.7078 
 O                     0.7274    0.0696    0.1214 
 O                     1.604    -1.646     1.8801 
 N                    -0.5387   -0.3145    2.9517 
 H                    -0.2251    0.6487    3.0296 
 H                     0.234    -0.9744    2.7245 
 Li                   -0.9237    0.3877   -0.7348 
 C                     0.7101    1.6922   -2.6856 
 O                    -0.4651    1.9916   -1.9113 
 C                    -0.2046    3.0982   -1.0306 
 C                     1.0804    3.7407   -1.5365 
 C                     1.8362    2.5344   -2.0975 
 H                     0.8968    0.6175   -2.6128 
 H                     0.5081    1.9551   -3.7321 
 H                    -1.0671    3.7682   -1.0562 
 H                    -0.0916    2.7107   -0.0116 
 H                     0.8608    4.4642   -2.3303 
 H                     1.6246    4.2559   -0.7395 
 H                     2.5879    2.802    -2.8456 
 H                     2.3261    1.9918   -1.2836 
 C                    -0.6779   -2.4363   -1.8533 
 O                    -1.0957   -1.0906   -2.0858 
 C                    -1.3532   -0.9757   -3.4809 
 C                    -0.2168   -1.7531   -4.1405 
 C                     0.0808   -2.8732   -3.1194 
 H                    -0.0669   -2.4358   -0.9499 
 H                    -1.5671   -3.0592   -1.6821 
 H                    -2.3329   -1.4206   -3.7116 
 H                    -1.3799    0.0869   -3.7302 
 H                    -0.5      -2.1371   -5.1246 
 H                     0.6564   -1.1044   -4.2649 
 H                    -0.2786   -3.8458   -3.468 
 H                     1.1528   -2.9603   -2.9274 
 C                     2.716    -1.6893   -0.6021 
 C                     2.8871   -3.0676   -0.4486 
 C                     3.1909   -1.0719   -1.765 
 C                     3.5164   -3.8188   -1.442 
 H                     2.527    -3.5482    0.457 
 C                     3.8238   -1.8175   -2.7566 
 H                     3.0785    0.0012   -1.8938 
 C                     3.9868   -3.1945   -2.5962 
 H                     3.6427   -4.8904   -1.3117 
 H                     4.1909   -1.3253   -3.6534 
 H                     4.4805   -3.7776   -3.3692 
 C                     3.1476    0.5166    1.2248 
 C                     4.4682    0.1379    1.4921 
 C                     2.7739    1.8503    1.4153 
 C                     5.3982    1.0764    1.9346 
 H                     4.7768   -0.8957    1.3492 
 C                     3.7       2.791     1.8652 
 H                     1.7527    2.1518    1.1978 
 C                     5.0147    2.4052    2.1231 
 H                     6.4225    0.7718    2.1331 
 H                     3.3962    3.8249    2.0084 
 H                     5.7399    3.1371    2.469 
 
 Symmetry turned off by external request.
 Stoichiometry    C31H50BLiNO6P
 Framework group  C1[X(C31H50BLiNO6P)]
 Deg. of freedom   267
 Full point group                 C1      NOp   1
                          Input orientation:                          
 ---------------------------------------------------------------------
 Center     Atomic      Atomic             Coordinates (Angstroms)
 Number     Number       Type             X           Y           Z
 ---------------------------------------------------------------------
      1          6           0       -1.875900   -0.536200    2.291300
      2          6           0       -1.702900   -0.722000    3.761300
      3          1           0       -2.058500    0.091800    4.388700
      4          6           0       -1.634500   -2.057300    4.453700
      5          1           0       -2.650500   -2.385400    4.698700
      6          1           0       -1.168500   -2.825700    3.831000
      7          1           0       -1.067800   -1.978600    5.387700
      8          6           0       -1.908700   -1.793200    1.441800
      9          1           0       -1.016600   -2.416500    1.559500
     10          1           0       -2.780600   -2.398700    1.712400
     11          1           0       -1.998500   -1.530000    0.385700
     12          5           0       -2.626200    0.842600    1.738400
     13          6           0       -1.967400    2.188800    2.407900
     14          1           0       -2.543400    3.074900    2.110800
     15          1           0       -1.966300    2.185500    3.510500
     16          1           0       -0.930800    2.378300    2.084500
     17          8           0       -2.533400    0.860100    0.238400
     18          8           0       -4.083200    0.778000    1.991700
     19          6           0       -4.804700    0.639000    0.783600
     20          6           0       -3.809800    1.168500   -0.312800
     21          6           0       -6.099000    1.447900    0.884500
     22          1           0       -5.902900    2.482800    1.178600
     23          1           0       -6.644300    1.450700   -0.067700
     24          1           0       -6.751300    1.001300    1.644400
     25          6           0       -5.181300   -0.835400    0.573600
     26          1           0       -5.681800   -1.201400    1.477500
     27          1           0       -5.866700   -0.965800   -0.272800
     28          1           0       -4.301900   -1.458300    0.398700
     29          6           0       -3.917500    2.683300   -0.529900
     30          1           0       -4.861300    2.953100   -1.018000
     31          1           0       -3.845600    3.237900    0.409400
     32          1           0       -3.098900    3.003500   -1.181700
     33          6           0       -3.945200    0.482800   -1.669500
     34          1           0       -3.727300   -0.585800   -1.605800
     35          1           0       -4.956500    0.614500   -2.073100
     36          1           0       -3.237800    0.927900   -2.378100
     37         15           0        1.893600   -0.713200    0.707800
     38          8           0        0.727400    0.069600    0.121400
     39          8           0        1.604000   -1.646000    1.880100
     40          7           0       -0.538700   -0.314500    2.951700
     41          1           0       -0.225100    0.648700    3.029600
     42          1           0        0.234000   -0.974400    2.724500
     43          3           0       -0.923700    0.387700   -0.734800
     44          6           0        0.710100    1.692200   -2.685600
     45          8           0       -0.465100    1.991600   -1.911300
     46          6           0       -0.204600    3.098200   -1.030600
     47          6           0        1.080400    3.740700   -1.536500
     48          6           0        1.836200    2.534400   -2.097500
     49          1           0        0.896800    0.617500   -2.612800
     50          1           0        0.508100    1.955100   -3.732100
     51          1           0       -1.067100    3.768200   -1.056200
     52          1           0       -0.091600    2.710700   -0.011600
     53          1           0        0.860800    4.464200   -2.330300
     54          1           0        1.624600    4.255900   -0.739500
     55          1           0        2.587900    2.802000   -2.845600
     56          1           0        2.326100    1.991800   -1.283600
     57          6           0       -0.677900   -2.436300   -1.853300
     58          8           0       -1.095700   -1.090600   -2.085800
     59          6           0       -1.353200   -0.975700   -3.480900
     60          6           0       -0.216800   -1.753100   -4.140500
     61          6           0        0.080800   -2.873200   -3.119400
     62          1           0       -0.066900   -2.435800   -0.949900
     63          1           0       -1.567100   -3.059200   -1.682100
     64          1           0       -2.332900   -1.420600   -3.711600
     65          1           0       -1.379900    0.086900   -3.730200
     66          1           0       -0.500000   -2.137100   -5.124600
     67          1           0        0.656400   -1.104400   -4.264900
     68          1           0       -0.278600   -3.845800   -3.468000
     69          1           0        1.152800   -2.960300   -2.927400
     70          6           0        2.716000   -1.689300   -0.602100
     71          6           0        2.887100   -3.067600   -0.448600
     72          6           0        3.190900   -1.071900   -1.765000
     73          6           0        3.516400   -3.818800   -1.442000
     74          1           0        2.527000   -3.548200    0.457000
     75          6           0        3.823800   -1.817500   -2.756600
     76          1           0        3.078500    0.001200   -1.893800
     77          6           0        3.986800   -3.194500   -2.596200
     78          1           0        3.642700   -4.890400   -1.311700
     79          1           0        4.190900   -1.325300   -3.653400
     80          1           0        4.480500   -3.777600   -3.369200
     81          6           0        3.147600    0.516600    1.224800
     82          6           0        4.468200    0.137900    1.492100
     83          6           0        2.773900    1.850300    1.415300
     84          6           0        5.398200    1.076400    1.934600
     85          1           0        4.776800   -0.895700    1.349200
     86          6           0        3.700000    2.791000    1.865200
     87          1           0        1.752700    2.151800    1.197800
     88          6           0        5.014700    2.405200    2.123100
     89          1           0        6.422500    0.771800    2.133100
     90          1           0        3.396200    3.824900    2.008400
     91          1           0        5.739900    3.137100    2.469000
 ---------------------------------------------------------------------
 Rotational constants (GHZ):           0.1123479           0.0703247           0.0638565
 Standard basis: 6-311++G(d,p) (5D, 7F)
  1260 basis functions,  1940 primitive gaussians,  1301 cartesian basis functions
   157 alpha electrons      157 beta electrons
       nuclear repulsion energy      5729.9049914372 Hartrees.
 NAtoms=   91 NActive=   91 NUniq=   91 SFac= 1.00D+00 NAtFMM=   60 NAOKFM=T Big=T
 Integral buffers will be    131072 words long.
 Raffenetti 2 integral format.
 Two-electron integral symmetry is turned off.
 Nuclear repulsion after empirical dispersion term =     5729.7864945913 Hartrees.
 ------------------------------------------------------------------------------
 Polarizable Continuum Model (PCM)
 =================================
 Model                : PCM.
 Atomic radii         : SMD-Coulomb.
 Polarization charges : Total charges.
 Charge compensation  : None.
 Solution method      : On-the-fly selection.
 Cavity type          : VdW (van der Waals Surface) (Alpha=1.000).
 Cavity algorithm     : GePol (No added spheres)
                        Default sphere list used, NSphG=   91.
                        Lebedev-Laikov grids with approx.  5.0 points / Ang**2.
                        Smoothing algorithm: York/Karplus (Gamma=1.0000).
                        Polarization charges: spherical gaussians, with
                                              point-specific exponents (IZeta= 3).
                        Self-potential: point-specific (ISelfS= 7).
                        Self-field    : sphere-specific E.n sum rule (ISelfD= 2).
 Solvent              : TetraHydroFuran, Eps=   7.425700 Eps(inf)=   1.974025
 ------------------------------------------------------------------------------
 ------------------------------------------------------------------------------
 Atomic radii for non-electrostatic terms: SMD-CDS.
 ------------------------------------------------------------------------------
 Nuclear repulsion after PCM non-electrostatic terms =     5729.7766069057 Hartrees.
 One-electron integrals computed using PRISM.
 NBasis=  1260 RedAO= T EigKep=  1.03D-06  NBF=  1260
 NBsUse=  1252 1.00D-06 EigRej=  8.56D-07 NBFU=  1252
 ExpMin= 7.40D-03 ExpMax= 7.75D+04 ExpMxC= 2.65D+03 IAcc=3 IRadAn=         5 AccDes= 0.00D+00
 Harris functional with IExCor= 4639 and IRadAn=       5 diagonalized for initial guess.
 HarFok:  IExCor= 4639 AccDes= 0.00D+00 IRadAn=         5 IDoV= 1 UseB2=F ITyADJ=14
 ICtDFT=  3500011 ScaDFX=  1.000000  1.000000  1.000000  1.000000
 FoFCou: FMM=F IPFlag=           0 FMFlag=      100000 FMFlg1=        2001
         NFxFlg=           0 DoJE=T BraDBF=F KetDBF=T FulRan=T
         wScrn=  0.000000 ICntrl=       500 IOpCl=  0 I1Cent=   200000004 NGrid=           0
         NMat0=    1 NMatS0=      1 NMatT0=    0 NMatD0=    1 NMtDS0=    0 NMtDT0=    0
 Symmetry not used in FoFCou.
 Requested convergence on RMS density matrix=1.00D-08 within 128 cycles.
 Requested convergence on MAX density matrix=1.00D-06.
 Requested convergence on             energy=1.00D-06.
 No special actions if energy rises.
 Inv3:  Mode=1 IEnd=    90816012.
 Iteration    1 A*A^-1 deviation from unit magnitude is 7.44D-15 for   5498.
 Iteration    1 A*A^-1 deviation from orthogonality  is 2.36D-15 for   4736   1746.
 Iteration    1 A^-1*A deviation from unit magnitude is 7.44D-15 for   5498.
 Iteration    1 A^-1*A deviation from orthogonality  is 1.48D-13 for   5015   4981.
 Error on total polarization charges =  0.07747
 SCF Done:  E(RwB97XD) =  -2091.48047540     A.U. after   15 cycles
            NFock= 15  Conv=0.68D-08     -V/T= 2.0040
 SMD-CDS (non-electrostatic) energy       (kcal/mol) =      -6.20
 (included in total energy above)

 **********************************************************************

            Population analysis using the SCF Density.

 **********************************************************************

 Alpha  occ. eigenvalues --  -77.27058 -19.25732 -19.25059 -19.19830 -19.18168
 Alpha  occ. eigenvalues --  -19.18139 -19.17946 -14.48973 -10.32679 -10.32352
 Alpha  occ. eigenvalues --  -10.32047 -10.31898 -10.31887 -10.31838 -10.31399
 Alpha  occ. eigenvalues --  -10.29739 -10.29199 -10.29123 -10.29036 -10.28990
 Alpha  occ. eigenvalues --  -10.28969 -10.28959 -10.28938 -10.28880 -10.28830
 Alpha  occ. eigenvalues --  -10.28820 -10.28791 -10.28673 -10.27618 -10.27595
 Alpha  occ. eigenvalues --  -10.27458 -10.27363 -10.27360 -10.26071 -10.25346
 Alpha  occ. eigenvalues --  -10.25115 -10.25001 -10.24820 -10.21803  -6.81718
 Alpha  occ. eigenvalues --   -6.71368  -4.86078  -4.86065  -4.86051  -1.98084
 Alpha  occ. eigenvalues --   -1.15050  -1.13798  -1.10743  -1.09586  -1.07486
 Alpha  occ. eigenvalues --   -1.03972  -1.01447  -0.96011  -0.95786  -0.88024
 Alpha  occ. eigenvalues --   -0.87597  -0.87540  -0.85585  -0.85238  -0.84748
 Alpha  occ. eigenvalues --   -0.84653  -0.84379  -0.83608  -0.83189  -0.82371
 Alpha  occ. eigenvalues --   -0.81918  -0.78158  -0.76479  -0.75473  -0.75183
 Alpha  occ. eigenvalues --   -0.71859  -0.70011  -0.69787  -0.69108  -0.69029
 Alpha  occ. eigenvalues --   -0.68564  -0.68409  -0.68192  -0.67974  -0.65565
 Alpha  occ. eigenvalues --   -0.64185  -0.63755  -0.61114  -0.60798  -0.60064
 Alpha  occ. eigenvalues --   -0.59870  -0.59181  -0.58179  -0.58057  -0.57602
 Alpha  occ. eigenvalues --   -0.56697  -0.54537  -0.54002  -0.53761  -0.53706
 Alpha  occ. eigenvalues --   -0.53667  -0.52880  -0.52845  -0.52121  -0.51686
 Alpha  occ. eigenvalues --   -0.51550  -0.51185  -0.50745  -0.50553  -0.50417
 Alpha  occ. eigenvalues --   -0.50242  -0.50035  -0.49569  -0.49279  -0.48930
 Alpha  occ. eigenvalues --   -0.48471  -0.48200  -0.47634  -0.47347  -0.46786
 Alpha  occ. eigenvalues --   -0.46653  -0.46443  -0.46171  -0.45735  -0.45513
 Alpha  occ. eigenvalues --   -0.45432  -0.44658  -0.43969  -0.43794  -0.43665
 Alpha  occ. eigenvalues --   -0.43419  -0.43298  -0.43185  -0.43077  -0.42661
 Alpha  occ. eigenvalues --   -0.42514  -0.42327  -0.42195  -0.42179  -0.41801
 Alpha  occ. eigenvalues --   -0.41473  -0.40841  -0.40539  -0.40436  -0.39947
 Alpha  occ. eigenvalues --   -0.39259  -0.38921  -0.37707  -0.37015  -0.36851
 Alpha  occ. eigenvalues --   -0.36334  -0.35124  -0.34984  -0.34774  -0.34142
 Alpha  occ. eigenvalues --   -0.33640  -0.33546  -0.33315  -0.33112  -0.31818
 Alpha  occ. eigenvalues --   -0.31121  -0.28422
 Alpha virt. eigenvalues --    0.02270   0.02522   0.02617   0.02731   0.03606
 Alpha virt. eigenvalues --    0.04511   0.04865   0.05398   0.05536   0.05733
 Alpha virt. eigenvalues --    0.05778   0.05963   0.06182   0.06903   0.07011
 Alpha virt. eigenvalues --    0.07189   0.07231   0.07333   0.07423   0.07621
 Alpha virt. eigenvalues --    0.07715   0.07760   0.07966   0.08209   0.08794
 Alpha virt. eigenvalues --    0.08976   0.09111   0.09249   0.09503   0.09667
 Alpha virt. eigenvalues --    0.09884   0.10207   0.10537   0.11013   0.11153
 Alpha virt. eigenvalues --    0.11429   0.11663   0.11773   0.12184   0.12240
 Alpha virt. eigenvalues --    0.12434   0.12683   0.13061   0.13295   0.13551
 Alpha virt. eigenvalues --    0.13618   0.13865   0.13919   0.14242   0.14452
 Alpha virt. eigenvalues --    0.14489   0.14797   0.15081   0.15324   0.15490
 Alpha virt. eigenvalues --    0.15670   0.15919   0.15975   0.16017   0.16353
 Alpha virt. eigenvalues --    0.16419   0.16795   0.16879   0.17009   0.17057
 Alpha virt. eigenvalues --    0.17237   0.17334   0.17358   0.17479   0.17615
 Alpha virt. eigenvalues --    0.17800   0.17975   0.18225   0.18308   0.18404
 Alpha virt. eigenvalues --    0.18530   0.18540   0.18769   0.19001   0.19089
 Alpha virt. eigenvalues --    0.19343   0.19478   0.19497   0.19605   0.19796
 Alpha virt. eigenvalues --    0.19954   0.20037   0.20082   0.20312   0.20325
 Alpha virt. eigenvalues --    0.20421   0.20756   0.20828   0.20895   0.21033
 Alpha virt. eigenvalues --    0.21170   0.21281   0.21337   0.21636   0.21759
 Alpha virt. eigenvalues --    0.21813   0.22018   0.22040   0.22183   0.22312
 Alpha virt. eigenvalues --    0.22452   0.22633   0.22714   0.22793   0.22936
 Alpha virt. eigenvalues --    0.23037   0.23159   0.23275   0.23398   0.23540
 Alpha virt. eigenvalues --    0.23733   0.23816   0.23905   0.23980   0.24209
 Alpha virt. eigenvalues --    0.24329   0.24527   0.24698   0.24969   0.25015
 Alpha virt. eigenvalues --    0.25146   0.25280   0.25412   0.25597   0.25672
 Alpha virt. eigenvalues --    0.25778   0.25838   0.25942   0.26209   0.26274
 Alpha virt. eigenvalues --    0.26408   0.26546   0.26653   0.26786   0.26957
 Alpha virt. eigenvalues --    0.27006   0.27232   0.27334   0.27525   0.27706
 Alpha virt. eigenvalues --    0.27835   0.28003   0.28131   0.28301   0.28424
 Alpha virt. eigenvalues --    0.28541   0.28693   0.28756   0.28969   0.29120
 Alpha virt. eigenvalues --    0.29214   0.29374   0.29523   0.29849   0.29932
 Alpha virt. eigenvalues --    0.30200   0.30417   0.30537   0.30566   0.30743
 Alpha virt. eigenvalues --    0.30896   0.30957   0.31335   0.31427   0.31498
 Alpha virt. eigenvalues --    0.31736   0.31923   0.32029   0.32222   0.32390
 Alpha virt. eigenvalues --    0.32593   0.32668   0.32794   0.32872   0.33183
 Alpha virt. eigenvalues --    0.33350   0.33751   0.33781   0.33917   0.34043
 Alpha virt. eigenvalues --    0.34187   0.34408   0.34480   0.34543   0.34723
 Alpha virt. eigenvalues --    0.34888   0.35156   0.35323   0.35512   0.35623
 Alpha virt. eigenvalues --    0.35691   0.35944   0.36122   0.36199   0.36410
 Alpha virt. eigenvalues --    0.36669   0.36815   0.36979   0.37047   0.37146
 Alpha virt. eigenvalues --    0.37363   0.37689   0.37841   0.37947   0.38146
 Alpha virt. eigenvalues --    0.38296   0.38459   0.38594   0.38717   0.38860
 Alpha virt. eigenvalues --    0.39125   0.39245   0.39277   0.39412   0.39662
 Alpha virt. eigenvalues --    0.39768   0.40008   0.40290   0.40394   0.40584
 Alpha virt. eigenvalues --    0.40728   0.40835   0.41089   0.41336   0.41381
 Alpha virt. eigenvalues --    0.41542   0.41917   0.42038   0.42273   0.42588
 Alpha virt. eigenvalues --    0.42597   0.42711   0.43137   0.43166   0.43281
 Alpha virt. eigenvalues --    0.43549   0.43655   0.43790   0.43988   0.44217
 Alpha virt. eigenvalues --    0.44376   0.44472   0.44759   0.45113   0.45174
 Alpha virt. eigenvalues --    0.45336   0.45562   0.45747   0.45864   0.46238
 Alpha virt. eigenvalues --    0.46355   0.46460   0.46623   0.46756   0.47136
 Alpha virt. eigenvalues --    0.47324   0.47621   0.47653   0.47953   0.48135
 Alpha virt. eigenvalues --    0.48348   0.48592   0.48623   0.48926   0.49049
 Alpha virt. eigenvalues --    0.49346   0.49627   0.50133   0.50489   0.51036
 Alpha virt. eigenvalues --    0.51087   0.51421   0.51633   0.52044   0.52349
 Alpha virt. eigenvalues --    0.52599   0.53027   0.53224   0.53492   0.53719
 Alpha virt. eigenvalues --    0.54365   0.54633   0.54947   0.55456   0.55622
 Alpha virt. eigenvalues --    0.56177   0.56315   0.56820   0.57044   0.57565
 Alpha virt. eigenvalues --    0.57712   0.57873   0.58586   0.58998   0.59032
 Alpha virt. eigenvalues --    0.59626   0.59864   0.60173   0.60755   0.61078
 Alpha virt. eigenvalues --    0.61240   0.62005   0.62494   0.62543   0.62637
 Alpha virt. eigenvalues --    0.63163   0.63465   0.63801   0.64214   0.64425
 Alpha virt. eigenvalues --    0.64848   0.65069   0.65479   0.65646   0.65805
 Alpha virt. eigenvalues --    0.66086   0.66602   0.66824   0.66924   0.67239
 Alpha virt. eigenvalues --    0.67340   0.67693   0.67746   0.68304   0.68570
 Alpha virt. eigenvalues --    0.68792   0.69018   0.69207   0.69592   0.69716
 Alpha virt. eigenvalues --    0.70009   0.70270   0.70551   0.71267   0.71504
 Alpha virt. eigenvalues --    0.71744   0.71812   0.71895   0.72500   0.72658
 Alpha virt. eigenvalues --    0.72821   0.73196   0.73376   0.73546   0.73682
 Alpha virt. eigenvalues --    0.73817   0.74004   0.74258   0.74596   0.75299
 Alpha virt. eigenvalues --    0.75630   0.75868   0.76029   0.76328   0.76600
 Alpha virt. eigenvalues --    0.76794   0.77238   0.77532   0.77716   0.78055
 Alpha virt. eigenvalues --    0.78077   0.78288   0.78792   0.78873   0.78999
 Alpha virt. eigenvalues --    0.79435   0.79690   0.79863   0.80154   0.80584
 Alpha virt. eigenvalues --    0.80838   0.81301   0.81330   0.81538   0.81817
 Alpha virt. eigenvalues --    0.81998   0.82107   0.82613   0.82788   0.83037
 Alpha virt. eigenvalues --    0.83206   0.83547   0.83782   0.84173   0.84418
 Alpha virt. eigenvalues --    0.84591   0.84766   0.85014   0.85206   0.85554
 Alpha virt. eigenvalues --    0.85615   0.86120   0.86183   0.86609   0.86618
 Alpha virt. eigenvalues --    0.86902   0.86984   0.87363   0.87527   0.87908
 Alpha virt. eigenvalues --    0.87984   0.88127   0.88330   0.88562   0.88770
 Alpha virt. eigenvalues --    0.89000   0.89242   0.89308   0.89428   0.89856
 Alpha virt. eigenvalues --    0.89913   0.90383   0.90602   0.90816   0.90956
 Alpha virt. eigenvalues --    0.91186   0.91437   0.91777   0.91892   0.92397
 Alpha virt. eigenvalues --    0.92496   0.92774   0.93156   0.93437   0.93646
 Alpha virt. eigenvalues --    0.94124   0.94616   0.95015   0.95349   0.95362
 Alpha virt. eigenvalues --    0.95610   0.96177   0.96246   0.96599   0.96900
 Alpha virt. eigenvalues --    0.97074   0.97520   0.97875   0.97968   0.98370
 Alpha virt. eigenvalues --    0.98712   0.98906   0.99196   0.99498   1.00013
 Alpha virt. eigenvalues --    1.00191   1.00471   1.01027   1.01189   1.01814
 Alpha virt. eigenvalues --    1.02037   1.02488   1.02990   1.03262   1.03473
 Alpha virt. eigenvalues --    1.04151   1.04238   1.04704   1.05585   1.06078
 Alpha virt. eigenvalues --    1.06849   1.07432   1.08011   1.08694   1.08978
 Alpha virt. eigenvalues --    1.09345   1.10116   1.10581   1.11273   1.11487
 Alpha virt. eigenvalues --    1.11768   1.12037   1.12524   1.13184   1.13446
 Alpha virt. eigenvalues --    1.13937   1.14551   1.14631   1.15221   1.15838
 Alpha virt. eigenvalues --    1.16762   1.16852   1.17370   1.17807   1.18359
 Alpha virt. eigenvalues --    1.18972   1.19537   1.19978   1.20371   1.20951
 Alpha virt. eigenvalues --    1.21082   1.21402   1.21943   1.22582   1.22707
 Alpha virt. eigenvalues --    1.23067   1.23849   1.24205   1.24520   1.24650
 Alpha virt. eigenvalues --    1.26328   1.26374   1.26895   1.27246   1.27457
 Alpha virt. eigenvalues --    1.28342   1.29119   1.29725   1.30204   1.30857
 Alpha virt. eigenvalues --    1.31572   1.31775   1.31955   1.32629   1.33126
 Alpha virt. eigenvalues --    1.34076   1.34521   1.34781   1.35425   1.35831
 Alpha virt. eigenvalues --    1.36200   1.36794   1.37238   1.37570   1.38719
 Alpha virt. eigenvalues --    1.39041   1.39491   1.39818   1.40679   1.40882
 Alpha virt. eigenvalues --    1.41986   1.42452   1.42834   1.43201   1.44370
 Alpha virt. eigenvalues --    1.44778   1.45102   1.45499   1.46139   1.46962
 Alpha virt. eigenvalues --    1.47632   1.48543   1.49358   1.50449   1.50794
 Alpha virt. eigenvalues --    1.51275   1.51935   1.52245   1.53370   1.53917
 Alpha virt. eigenvalues --    1.54557   1.54736   1.55246   1.55918   1.56515
 Alpha virt. eigenvalues --    1.57167   1.58310   1.58362   1.58661   1.59003
 Alpha virt. eigenvalues --    1.59864   1.59924   1.60945   1.61019   1.61365
 Alpha virt. eigenvalues --    1.62240   1.62309   1.62637   1.62916   1.63113
 Alpha virt. eigenvalues --    1.63660   1.64081   1.64248   1.64799   1.65047
 Alpha virt. eigenvalues --    1.65190   1.65630   1.65835   1.66169   1.66452
 Alpha virt. eigenvalues --    1.66790   1.67183   1.67474   1.67684   1.68312
 Alpha virt. eigenvalues --    1.68587   1.68860   1.69230   1.69276   1.69527
 Alpha virt. eigenvalues --    1.69813   1.70298   1.70657   1.71242   1.71609
 Alpha virt. eigenvalues --    1.71741   1.72150   1.72171   1.72808   1.72923
 Alpha virt. eigenvalues --    1.73078   1.73294   1.73712   1.74068   1.74409
 Alpha virt. eigenvalues --    1.75166   1.75400   1.75493   1.75620   1.76226
 Alpha virt. eigenvalues --    1.76380   1.76796   1.77005   1.77220   1.77709
 Alpha virt. eigenvalues --    1.77754   1.78018   1.78246   1.78721   1.79230
 Alpha virt. eigenvalues --    1.79415   1.79876   1.80241   1.80774   1.80907
 Alpha virt. eigenvalues --    1.81132   1.81455   1.82001   1.82065   1.82909
 Alpha virt. eigenvalues --    1.83630   1.83900   1.84082   1.84415   1.84644
 Alpha virt. eigenvalues --    1.84747   1.85275   1.85484   1.86047   1.86127
 Alpha virt. eigenvalues --    1.86495   1.87129   1.87637   1.88066   1.88289
 Alpha virt. eigenvalues --    1.89066   1.89373   1.89568   1.90169   1.90647
 Alpha virt. eigenvalues --    1.90823   1.91035   1.91212   1.91700   1.91884
 Alpha virt. eigenvalues --    1.92172   1.92460   1.93002   1.93438   1.93765
 Alpha virt. eigenvalues --    1.94265   1.94849   1.95213   1.95327   1.95428
 Alpha virt. eigenvalues --    1.95929   1.96201   1.96863   1.97047   1.97449
 Alpha virt. eigenvalues --    1.98304   1.98513   1.98903   1.99144   1.99526
 Alpha virt. eigenvalues --    1.99667   2.00358   2.00809   2.01253   2.01294
 Alpha virt. eigenvalues --    2.01890   2.02079   2.02776   2.03187   2.03395
 Alpha virt. eigenvalues --    2.03981   2.04242   2.04578   2.05099   2.05951
 Alpha virt. eigenvalues --    2.06144   2.06606   2.06878   2.06982   2.07341
 Alpha virt. eigenvalues --    2.08142   2.08341   2.08599   2.08780   2.09261
 Alpha virt. eigenvalues --    2.09448   2.09983   2.10351   2.10777   2.10998
 Alpha virt. eigenvalues --    2.11948   2.12563   2.12660   2.13100   2.14025
 Alpha virt. eigenvalues --    2.14152   2.14494   2.14800   2.15312   2.15657
 Alpha virt. eigenvalues --    2.16153   2.16309   2.16905   2.17907   2.18744
 Alpha virt. eigenvalues --    2.18853   2.19101   2.19460   2.19886   2.20537
 Alpha virt. eigenvalues --    2.21424   2.21744   2.22062   2.22921   2.23539
 Alpha virt. eigenvalues --    2.24535   2.25328   2.25811   2.26430   2.27507
 Alpha virt. eigenvalues --    2.28127   2.28392   2.29045   2.29531   2.30342
 Alpha virt. eigenvalues --    2.30836   2.31822   2.32239   2.32786   2.33171
 Alpha virt. eigenvalues --    2.33938   2.34302   2.34910   2.35274   2.36199
 Alpha virt. eigenvalues --    2.36608   2.37942   2.38127   2.38807   2.39791
 Alpha virt. eigenvalues --    2.40183   2.40499   2.41555   2.41956   2.42616
 Alpha virt. eigenvalues --    2.42930   2.43060   2.43336   2.43572   2.43853
 Alpha virt. eigenvalues --    2.44532   2.44848   2.45707   2.46499   2.47266
 Alpha virt. eigenvalues --    2.47549   2.48463   2.49258   2.49543   2.50054
 Alpha virt. eigenvalues --    2.50896   2.51375   2.53086   2.54241   2.54529
 Alpha virt. eigenvalues --    2.55260   2.55673   2.56506   2.58376   2.59352
 Alpha virt. eigenvalues --    2.59467   2.59654   2.60522   2.60768   2.61360
 Alpha virt. eigenvalues --    2.61892   2.62592   2.63162   2.63629   2.63699
 Alpha virt. eigenvalues --    2.64493   2.64841   2.65410   2.65511   2.66207
 Alpha virt. eigenvalues --    2.66418   2.66653   2.67351   2.67728   2.68293
 Alpha virt. eigenvalues --    2.68835   2.69325   2.69891   2.70402   2.71201
 Alpha virt. eigenvalues --    2.71287   2.71797   2.72394   2.72502   2.72937
 Alpha virt. eigenvalues --    2.73372   2.73659   2.74316   2.74558   2.75090
 Alpha virt. eigenvalues --    2.76278   2.76554   2.76966   2.77338   2.77739
 Alpha virt. eigenvalues --    2.77895   2.78323   2.78774   2.79777   2.80530
 Alpha virt. eigenvalues --    2.80939   2.81594   2.81890   2.82711   2.83395
 Alpha virt. eigenvalues --    2.83761   2.83968   2.84852   2.85405   2.85714
 Alpha virt. eigenvalues --    2.86277   2.86654   2.86842   2.87407   2.87671
 Alpha virt. eigenvalues --    2.88036   2.88675   2.89095   2.89233   2.89595
 Alpha virt. eigenvalues --    2.89816   2.90630   2.91305   2.92047   2.92261
 Alpha virt. eigenvalues --    2.92974   2.93477   2.93618   2.94167   2.94710
 Alpha virt. eigenvalues --    2.94834   2.95129   2.95367   2.95934   2.96662
 Alpha virt. eigenvalues --    2.96975   2.97472   2.97790   2.98310   2.98641
 Alpha virt. eigenvalues --    2.98915   2.99183   2.99514   3.00072   3.00512
 Alpha virt. eigenvalues --    3.00726   3.01165   3.01422   3.01818   3.02750
 Alpha virt. eigenvalues --    3.03117   3.03524   3.03830   3.04091   3.05099
 Alpha virt. eigenvalues --    3.05487   3.05819   3.06437   3.06841   3.06937
 Alpha virt. eigenvalues --    3.07574   3.08320   3.08716   3.09098   3.09740
 Alpha virt. eigenvalues --    3.10243   3.10658   3.11028   3.11280   3.11601
 Alpha virt. eigenvalues --    3.12242   3.13635   3.13716   3.14281   3.14922
 Alpha virt. eigenvalues --    3.15524   3.15767   3.17453   3.18194   3.18314
 Alpha virt. eigenvalues --    3.18727   3.20179   3.20547   3.21471   3.22120
 Alpha virt. eigenvalues --    3.22729   3.23214   3.23660   3.24777   3.25368
 Alpha virt. eigenvalues --    3.26094   3.27122   3.27514   3.27957   3.28223
 Alpha virt. eigenvalues --    3.28823   3.29341   3.30492   3.31262   3.32323
 Alpha virt. eigenvalues --    3.33848   3.34913   3.35742   3.36099   3.36541
 Alpha virt. eigenvalues --    3.37472   3.38686   3.38795   3.40670   3.41668
 Alpha virt. eigenvalues --    3.42283   3.42603   3.43239   3.45143   3.45665
 Alpha virt. eigenvalues --    3.45863   3.46630   3.46923   3.48935   3.49812
 Alpha virt. eigenvalues --    3.50828   3.52206   3.52766   3.53791   3.54025
 Alpha virt. eigenvalues --    3.55515   3.57892   3.60742   3.64310   3.65754
 Alpha virt. eigenvalues --    3.66249   3.66358   3.68241   3.68568   3.68936
 Alpha virt. eigenvalues --    3.73993   3.74069   3.75770   3.77908   3.79220
 Alpha virt. eigenvalues --    3.81777   3.82534   3.88185   3.89278   3.90972
 Alpha virt. eigenvalues --    3.91202   3.92011   3.92805   3.93192   3.93704
 Alpha virt. eigenvalues --    3.94453   3.94964   3.95382   3.96187   3.96385
 Alpha virt. eigenvalues --    3.97519   3.98102   3.99537   3.99730   4.00705
 Alpha virt. eigenvalues --    4.01609   4.04325   4.04654   4.07531   4.10247
 Alpha virt. eigenvalues --    4.12152   4.12269   4.15249   4.15357   4.15633
 Alpha virt. eigenvalues --    4.16028   4.18845   4.20335   4.21972   4.22393
 Alpha virt. eigenvalues --    4.26266   4.26936   4.28015   4.29523   4.30316
 Alpha virt. eigenvalues --    4.30787   4.32063   4.32799   4.33189   4.36873
 Alpha virt. eigenvalues --    4.41146   4.42887   4.43901   4.45606   4.47981
 Alpha virt. eigenvalues --    4.50106   4.53853   4.71217   4.83235   4.88446
 Alpha virt. eigenvalues --    4.95572   4.95932   5.12544   5.36814   5.38014
 Alpha virt. eigenvalues --    5.39993   5.43005   5.46679   5.47155   5.51388
 Alpha virt. eigenvalues --    5.52437   5.57022   5.58518   5.65081   5.67244
 Alpha virt. eigenvalues --    5.67458   5.76898   5.77816   5.80663   5.82429
 Alpha virt. eigenvalues --    5.92886   7.70501  14.35911  14.39350  14.48982
 Alpha virt. eigenvalues --   14.94112  23.78326  23.83214  23.95915  24.00480
 Alpha virt. eigenvalues --   24.01069  24.02533  24.03209  24.03944  24.04857
 Alpha virt. eigenvalues --   24.06894  24.10532  24.11236  24.12741  24.12927
 Alpha virt. eigenvalues --   24.13418  24.13653  24.13863  24.14549  24.15392
 Alpha virt. eigenvalues --   24.15903  24.17874  24.18134  24.20127  24.20640
 Alpha virt. eigenvalues --   24.21378  24.21949  24.23261  24.23573  24.23773
 Alpha virt. eigenvalues --   24.32674  24.32945  35.74757  50.14851  50.17184
 Alpha virt. eigenvalues --   50.19910  50.24265  50.24958  50.27086 163.95927
          Condensed to atoms (all electrons):
 Mulliken charges:
               1
     1  C   -0.391387
     2  C    0.152790
     3  H    0.304776
     4  C   -0.834361
     5  H    0.215911
     6  H    0.192969
     7  H    0.203940
     8  C   -0.949311
     9  H    0.222938
    10  H    0.239693
    11  H    0.025997
    12  B    1.186610
    13  C   -0.912792
    14  H    0.143864
    15  H    0.120924
    16  H    0.242736
    17  O   -0.044702
    18  O   -0.104020
    19  C   -0.453207
    20  C   -0.148808
    21  C   -0.738814
    22  H    0.183110
    23  H    0.192515
    24  H    0.186340
    25  C   -0.406317
    26  H    0.204605
    27  H    0.194675
    28  H    0.065609
    29  C   -0.437744
    30  H    0.193752
    31  H    0.160601
    32  H    0.154610
    33  C   -0.664550
    34  H    0.200204
    35  H    0.244454
    36  H    0.136242
    37  P   -0.358969
    38  O    0.006455
    39  O   -0.029446
    40  N    0.149989
    41  H    0.477472
    42  H    0.317175
    43  Li  -0.732493
    44  C   -0.100902
    45  O    0.085063
    46  C    0.318763
    47  C   -1.095594
    48  C   -0.161468
    49  H    0.177619
    50  H    0.206566
    51  H    0.118068
    52  H   -0.152681
    53  H    0.228038
    54  H    0.228173
    55  H    0.270984
    56  H   -0.083968
    57  C    0.131688
    58  O    0.001593
    59  C   -0.249670
    60  C   -0.571247
    61  C   -0.573953
    62  H    0.192704
    63  H    0.280245
    64  H    0.226844
    65  H    0.193762
    66  H    0.249176
    67  H    0.178177
    68  H    0.244261
    69  H    0.111136
    70  C    0.395102
    71  C   -0.089638
    72  C   -0.099543
    73  C   -0.567562
    74  H    0.285212
    75  C   -0.345935
    76  H    0.291973
    77  C   -0.530402
    78  H    0.283962
    79  H    0.284826
    80  H    0.257958
    81  C   -0.138534
    82  C    0.033830
    83  C    0.304240
    84  C   -0.624765
    85  H    0.293501
    86  C   -0.300078
    87  H    0.224155
    88  C   -0.348966
    89  H    0.272517
    90  H    0.286540
    91  H    0.264196
 Sum of Mulliken charges =  -0.00000
 Mulliken charges with hydrogens summed into heavy atoms:
               1
     1  C   -0.391387
     2  C    0.457565
     4  C   -0.221541
     8  C   -0.460683
    12  B    1.186610
    13  C   -0.405268
    17  O   -0.044702
    18  O   -0.104020
    19  C   -0.453207
    20  C   -0.148808
    21  C   -0.176849
    25  C    0.058572
    29  C    0.071220
    33  C   -0.083650
    37  P   -0.358969
    38  O    0.006455
    39  O   -0.029446
    40  N    0.944636
    43  Li  -0.732493
    44  C    0.283284
    45  O    0.085063
    46  C    0.284149
    47  C   -0.639383
    48  C    0.025548
    57  C    0.604636
    58  O    0.001593
    59  C    0.170936
    60  C   -0.143893
    61  C   -0.218556
    70  C    0.395102
    71  C    0.195574
    72  C    0.192430
    73  C   -0.283601
    75  C   -0.061109
    77  C   -0.272444
    81  C   -0.138534
    82  C    0.327331
    83  C    0.528395
    84  C   -0.352249
    86  C   -0.013538
    88  C   -0.084769
 Electronic spatial extent (au):  <R**2>=          20116.4628
 Charge=              0.0000 electrons
 Dipole moment (field-independent basis, Debye):
    X=              3.3811    Y=             -0.7697    Z=             -5.8372  Tot=              6.7895
 Quadrupole moment (field-independent basis, Debye-Ang):
   XX=           -265.0344   YY=           -237.9990   ZZ=           -232.2638
   XY=             14.9844   XZ=              2.9201   YZ=              1.9702
 Traceless Quadrupole moment (field-independent basis, Debye-Ang):
   XX=            -19.9353   YY=              7.1000   ZZ=             12.8353
   XY=             14.9844   XZ=              2.9201   YZ=              1.9702
 Octapole moment (field-independent basis, Debye-Ang**2):
  XXX=            148.5247  YYY=            -25.5281  ZZZ=            -35.6374  XYY=             52.7247
  XXY=            -22.7660  XXZ=            -69.8209  XZZ=             22.0529  YZZ=            -37.7499
  YYZ=            -36.0338  XYZ=             51.1503
 Hexadecapole moment (field-independent basis, Debye-Ang**3):
 XXXX=         -14400.1533 YYYY=          -5810.1022 ZZZZ=          -6663.7564 XXXY=            793.4398
 XXXZ=            906.9001 YYYX=            639.0266 YYYZ=           -428.9042 ZZZX=            319.4342
 ZZZY=           -529.1382 XXYY=          -3304.9863 XXZZ=          -3575.8484 YYZZ=          -2132.2450
 XXYZ=           -101.1492 YYXZ=            154.8830 ZZXY=            327.2206
 N-N= 5.729776606906D+03 E-N=-1.635342123691D+04  KE= 2.083097607702D+03
 Unable to Open any file for archive entry.
 1\1\GINC-NODE19\SP\RwB97XD\6-311++G(d,p)\C31H50B1Li1N1O6P1\WHUGHES2\08
 -Oct-2025\0\\# wb97xd/6-311++g** nosymm int=ultrafine scrf=(smd,solven
 t=tetrahydrofuran)\\aziridinium-phos-full-c3_tzpop-sp\\0,1\C,0,-1.8759
 ,-0.5362,2.2913\C,0,-1.7029,-0.722,3.7613\H,0,-2.0585,0.0918,4.3887\C,
 0,-1.6345,-2.0573,4.4537\H,0,-2.6505,-2.3854,4.6987\H,0,-1.1685,-2.825
 7,3.831\H,0,-1.0678,-1.9786,5.3877\C,0,-1.9087,-1.7932,1.4418\H,0,-1.0
 166,-2.4165,1.5595\H,0,-2.7806,-2.3987,1.7124\H,0,-1.9985,-1.53,0.3857
 \B,0,-2.6262,0.8426,1.7384\C,0,-1.9674,2.1888,2.4079\H,0,-2.5434,3.074
 9,2.1108\H,0,-1.9663,2.1855,3.5105\H,0,-0.9308,2.3783,2.0845\O,0,-2.53
 34,0.8601,0.2384\O,0,-4.0832,0.778,1.9917\C,0,-4.8047,0.639,0.7836\C,0
 ,-3.8098,1.1685,-0.3128\C,0,-6.099,1.4479,0.8845\H,0,-5.9029,2.4828,1.
 1786\H,0,-6.6443,1.4507,-0.0677\H,0,-6.7513,1.0013,1.6444\C,0,-5.1813,
 -0.8354,0.5736\H,0,-5.6818,-1.2014,1.4775\H,0,-5.8667,-0.9658,-0.2728\
 H,0,-4.3019,-1.4583,0.3987\C,0,-3.9175,2.6833,-0.5299\H,0,-4.8613,2.95
 31,-1.018\H,0,-3.8456,3.2379,0.4094\H,0,-3.0989,3.0035,-1.1817\C,0,-3.
 9452,0.4828,-1.6695\H,0,-3.7273,-0.5858,-1.6058\H,0,-4.9565,0.6145,-2.
 0731\H,0,-3.2378,0.9279,-2.3781\P,0,1.8936,-0.7132,0.7078\O,0,0.7274,0
 .0696,0.1214\O,0,1.604,-1.646,1.8801\N,0,-0.5387,-0.3145,2.9517\H,0,-0
 .2251,0.6487,3.0296\H,0,0.234,-0.9744,2.7245\Li,0,-0.9237,0.3877,-0.73
 48\C,0,0.7101,1.6922,-2.6856\O,0,-0.4651,1.9916,-1.9113\C,0,-0.2046,3.
 0982,-1.0306\C,0,1.0804,3.7407,-1.5365\C,0,1.8362,2.5344,-2.0975\H,0,0
 .8968,0.6175,-2.6128\H,0,0.5081,1.9551,-3.7321\H,0,-1.0671,3.7682,-1.0
 562\H,0,-0.0916,2.7107,-0.0116\H,0,0.8608,4.4642,-2.3303\H,0,1.6246,4.
 2559,-0.7395\H,0,2.5879,2.802,-2.8456\H,0,2.3261,1.9918,-1.2836\C,0,-0
 .6779,-2.4363,-1.8533\O,0,-1.0957,-1.0906,-2.0858\C,0,-1.3532,-0.9757,
 -3.4809\C,0,-0.2168,-1.7531,-4.1405\C,0,0.0808,-2.8732,-3.1194\H,0,-0.
 0669,-2.4358,-0.9499\H,0,-1.5671,-3.0592,-1.6821\H,0,-2.3329,-1.4206,-
 3.7116\H,0,-1.3799,0.0869,-3.7302\H,0,-0.5,-2.1371,-5.1246\H,0,0.6564,
 -1.1044,-4.2649\H,0,-0.2786,-3.8458,-3.468\H,0,1.1528,-2.9603,-2.9274\
 C,0,2.716,-1.6893,-0.6021\C,0,2.8871,-3.0676,-0.4486\C,0,3.1909,-1.071
 9,-1.765\C,0,3.5164,-3.8188,-1.442\H,0,2.527,-3.5482,0.457\C,0,3.8238,
 -1.8175,-2.7566\H,0,3.0785,0.0012,-1.8938\C,0,3.9868,-3.1945,-2.5962\H
 ,0,3.6427,-4.8904,-1.3117\H,0,4.1909,-1.3253,-3.6534\H,0,4.4805,-3.777
 6,-3.3692\C,0,3.1476,0.5166,1.2248\C,0,4.4682,0.1379,1.4921\C,0,2.7739
 ,1.8503,1.4153\C,0,5.3982,1.0764,1.9346\H,0,4.7768,-0.8957,1.3492\C,0,
 3.7,2.791,1.8652\H,0,1.7527,2.1518,1.1978\C,0,5.0147,2.4052,2.1231\H,0
 ,6.4225,0.7718,2.1331\H,0,3.3962,3.8249,2.0084\H,0,5.7399,3.1371,2.469
 \\Version=AS64L-G16RevC.01\HF=-2091.4804754\RMSD=6.823e-09\Dipole=1.33
 02092,-0.3028246,-2.2965508\Quadrupole=-14.8214045,5.278701,9.5427035,
 11.1405329,2.171013,1.4647818\PG=C01 [X(C31H50B1Li1N1O6P1)]\\@
 The archive entry for this job was punched.


 IT IS BETTER TO THINK YOU ARE HALF DRY THAN TO KNOW YOU
 ARE ALL WET.  -- SNOOPY
 Job cpu time:       0 days  7 hours 18 minutes 47.8 seconds.
 Elapsed time:       0 days  1 hours 50 minutes 36.2 seconds.
 File lengths (MBytes):  RWF=   1330 Int=      0 D2E=      0 Chk=     95 Scr=      1
 Normal termination of Gaussian 16 at Wed Oct  8 17:18:21 2025.
