Job Start Time: Wed Oct  8 15:27:45 MDT 2025
SLURM Job ID: 768182
SLURM Job Name: aziridinium-phos-full-c8_tzpop-sp
 Entering Gaussian System, Link 0=/opt/apps/Gaussian/G16C/g16/g16
 Initial command:
 /opt/apps/Gaussian/G16C/g16/l1.exe "/tmp/768182/Gau-407024.inp" -scrdir="/tmp/768182/"
 Entering Link 1 = /opt/apps/Gaussian/G16C/g16/l1.exe PID=    407025.
  
 Copyright (c) 1988-2019, Gaussian, Inc.  All Rights Reserved.
  
 This is part of the Gaussian(R) 16 program.  It is based on
 the Gaussian(R) 09 system (copyright 2009, Gaussian, Inc.),
 the Gaussian(R) 03 system (copyright 2003, Gaussian, Inc.),
 the Gaussian(R) 98 system (copyright 1998, Gaussian, Inc.),
 the Gaussian(R) 94 system (copyright 1995, Gaussian, Inc.),
 the Gaussian 92(TM) system (copyright 1992, Gaussian, Inc.),
 the Gaussian 90(TM) system (copyright 1990, Gaussian, Inc.),
 the Gaussian 88(TM) system (copyright 1988, Gaussian, Inc.),
 the Gaussian 86(TM) system (copyright 1986, Carnegie Mellon
 University), and the Gaussian 82(TM) system (copyright 1983,
 Carnegie Mellon University). Gaussian is a federally registered
 trademark of Gaussian, Inc.
  
 This software contains proprietary and confidential information,
 including trade secrets, belonging to Gaussian, Inc.
  
 This software is provided under written license and may be
 used, copied, transmitted, or stored only in accord with that
 written license.
  
 The following legend is applicable only to US Government
 contracts under FAR:
  
                    RESTRICTED RIGHTS LEGEND
  
 Use, reproduction and disclosure by the US Government is
 subject to restrictions as set forth in subparagraphs (a)
 and (c) of the Commercial Computer Software - Restricted
 Rights clause in FAR 52.227-19.
  
 Gaussian, Inc.
 340 Quinnipiac St., Bldg. 40, Wallingford CT 06492
  
  
 ---------------------------------------------------------------
 Warning -- This program may not be used in any manner that
 competes with the business of Gaussian, Inc. or will provide
 assistance to any competitor of Gaussian, Inc.  The licensee
 of this program is prohibited from giving any competitor of
 Gaussian, Inc. access to this program.  By using this program,
 the user acknowledges that Gaussian, Inc. is engaged in the
 business of creating and licensing software in the field of
 computational chemistry and represents and warrants to the
 licensee that it is not a competitor of Gaussian, Inc. and that
 it will not use this program in any manner prohibited above.
 ---------------------------------------------------------------
  

 Cite this work as:
 Gaussian 16, Revision C.01,
 M. J. Frisch, G. W. Trucks, H. B. Schlegel, G. E. Scuseria, 
 M. A. Robb, J. R. Cheeseman, G. Scalmani, V. Barone, 
 G. A. Petersson, H. Nakatsuji, X. Li, M. Caricato, A. V. Marenich, 
 J. Bloino, B. G. Janesko, R. Gomperts, B. Mennucci, H. P. Hratchian, 
 J. V. Ortiz, A. F. Izmaylov, J. L. Sonnenberg, D. Williams-Young, 
 F. Ding, F. Lipparini, F. Egidi, J. Goings, B. Peng, A. Petrone, 
 T. Henderson, D. Ranasinghe, V. G. Zakrzewski, J. Gao, N. Rega, 
 G. Zheng, W. Liang, M. Hada, M. Ehara, K. Toyota, R. Fukuda, 
 J. Hasegawa, M. Ishida, T. Nakajima, Y. Honda, O. Kitao, H. Nakai, 
 T. Vreven, K. Throssell, J. A. Montgomery, Jr., J. E. Peralta, 
 F. Ogliaro, M. J. Bearpark, J. J. Heyd, E. N. Brothers, K. N. Kudin, 
 V. N. Staroverov, T. A. Keith, R. Kobayashi, J. Normand, 
 K. Raghavachari, A. P. Rendell, J. C. Burant, S. S. Iyengar, 
 J. Tomasi, M. Cossi, J. M. Millam, M. Klene, C. Adamo, R. Cammi, 
 J. W. Ochterski, R. L. Martin, K. Morokuma, O. Farkas, 
 J. B. Foresman, and D. J. Fox, Gaussian, Inc., Wallingford CT, 2019.
 
 ******************************************
 Gaussian 16:  AS64L-G16RevC.01  3-Jul-2019
                 8-Oct-2025 
 ******************************************
 %chk=aziridinium-phos-full-c8_tzpop-sp.chk
 %nprocshared=4
 Will use up to    4 processors via shared memory.
 %mem=8GB
 ----------------------------------------------------------------------
 # wb97xd/6-311++g** nosymm int=ultrafine scrf=(smd,solvent=tetrahydrof
 uran)
 ----------------------------------------------------------------------
 1/38=1,172=1/1;
 2/12=2,15=1,17=6,18=5,40=1/2;
 3/5=4,6=6,7=1111,11=2,25=1,30=1,70=32201,72=20,74=-58,75=-5/1,2,3;
 4//1;
 5/5=2,38=5,53=20/2;
 6/7=2,8=2,9=2,10=2,28=1/1;
 99/5=1,9=1/99;
 ---------------------------------
 aziridinium-phos-full-c8_tzpop-sp
 ---------------------------------
 Symbolic Z-matrix:
 Charge =  0 Multiplicity = 1
 C                    -3.5654    1.8178    0.8459 
 C                    -3.7113    1.0192    2.0848 
 H                    -3.6027   -0.0522    1.9459 
 C                    -3.4506    1.501     3.4859 
 H                    -3.9642    0.8625    4.2124 
 H                    -2.3751    1.4511    3.6774 
 H                    -3.7775    2.5324    3.6446 
 C                    -3.1193    3.2561    0.9267 
 H                    -3.5929    3.8531    0.1408 
 H                    -3.3216    3.7356    1.8908 
 H                    -2.0385    3.2831    0.7511 
 B                    -3.3757    0.954    -0.575 
 C                    -3.2033    1.9704   -1.8367 
 H                    -4.1088    2.589    -1.9485 
 H                    -2.3556    2.661    -1.7337 
 H                    -3.0797    1.4337   -2.7877 
 O                    -2.2889   -0.0451   -0.3673 
 O                    -4.581     0.0921   -0.7579 
 C                    -4.2383   -1.2765   -0.9153 
 C                    -2.6525   -1.2973   -0.9383 
 C                    -4.872    -1.8007   -2.2068 
 H                    -5.964    -1.7515   -2.123 
 H                    -4.5763   -1.1996   -3.0711 
 H                    -4.5944   -2.845    -2.395 
 C                    -4.8495   -2.0562    0.2573 
 H                    -4.4467   -1.7354    1.2226 
 H                    -5.9311   -1.8766    0.2703 
 H                    -4.6877   -3.1361    0.1649 
 C                    -2.0448   -1.3802   -2.346 
 H                    -2.2305   -2.353    -2.8157 
 H                    -2.427    -0.5988   -3.0077 
 H                    -0.9611   -1.2459   -2.2547 
 C                    -2.0355   -2.4122   -0.0948 
 H                    -2.3505   -2.3498    0.9504 
 H                    -2.3178   -3.3985   -0.4825 
 H                    -0.9441   -2.3265   -0.124 
 P                     2.3215   -1.2679    0.3603 
 O                     0.9087   -0.8892   -0.0775 
 O                     2.5607   -1.7927    1.7578 
 N                    -4.9363    1.532     1.4147 
 H                    -5.4627    0.8713    0.8327 
 H                    -5.4662    2.2655    1.8795 
 Li                   -0.5103    0.2788    0.3132 
 C                     0.2931    1.7205   -1.9102 
 O                    -0.0268    2.0304   -0.5467 
 C                     0.8773    3.0476   -0.1268 
 C                     0.9737    3.9809   -1.3282 
 C                     0.8668    3.0115   -2.5235 
 H                     1.0203    0.9024   -1.9191 
 H                    -0.6284    1.3765   -2.3815 
 H                     0.4618    3.5128    0.7708 
 H                     1.8536    2.6056    0.1152 
 H                     0.1326    4.6822   -1.3225 
 H                     1.9035    4.557    -1.3289 
 H                     0.2161    3.4102   -3.3069 
 H                     1.8484    2.8192   -2.967 
 C                     0.548     1.2024    2.8709 
 O                    -0.5569    0.4839    2.2958 
 C                    -0.7203   -0.774     2.9691 
 C                    -0.0858   -0.574     4.3367 
 C                     1.1082    0.3194    3.9865 
 H                     1.2838    1.4019    2.0863 
 H                     0.1629    2.1589    3.2462 
 H                    -1.7909   -0.9947    3.003 
 H                    -0.2019   -1.5536    2.3989 
 H                    -0.7807   -0.0595    5.0117 
 H                     0.2109   -1.5213    4.7955 
 H                     1.473     0.9083    4.833 
 H                     1.9211   -0.2992    3.5936 
 C                     2.9355   -2.4698   -0.8801 
 C                     2.1583   -2.8042   -1.9927 
 C                     4.1938   -3.0644   -0.7287 
 C                     2.6262   -3.7181   -2.9379 
 H                     1.18     -2.3452   -2.1099 
 C                     4.667    -3.9734   -1.6726 
 H                     4.8073   -2.8146    0.1341 
 C                     3.8822   -4.3022   -2.7798 
 H                     2.0108   -3.9728   -3.7972 
 H                     5.6459   -4.4284   -1.5447 
 H                     4.25     -5.0127   -3.5157 
 C                     3.3859    0.2088    0.0999 
 C                     3.8936    0.9019    1.2025 
 C                     3.6505    0.7018   -1.1833 
 C                     4.6236    2.0789    1.0315 
 H                     3.7128    0.5123    2.2011 
 C                     4.3856    1.872    -1.3606 
 H                     3.2817    0.1671   -2.0562 
 C                     4.8672    2.5685   -0.2511 
 H                     5.0068    2.6097    1.8995 
 H                     4.5833    2.2413   -2.3638 
 H                     5.4375    3.4838   -0.3875 
 
 Symmetry turned off by external request.
 Stoichiometry    C31H50BLiNO6P
 Framework group  C1[X(C31H50BLiNO6P)]
 Deg. of freedom   267
 Full point group                 C1      NOp   1
                          Input orientation:                          
 ---------------------------------------------------------------------
 Center     Atomic      Atomic             Coordinates (Angstroms)
 Number     Number       Type             X           Y           Z
 ---------------------------------------------------------------------
      1          6           0       -3.565400    1.817800    0.845900
      2          6           0       -3.711300    1.019200    2.084800
      3          1           0       -3.602700   -0.052200    1.945900
      4          6           0       -3.450600    1.501000    3.485900
      5          1           0       -3.964200    0.862500    4.212400
      6          1           0       -2.375100    1.451100    3.677400
      7          1           0       -3.777500    2.532400    3.644600
      8          6           0       -3.119300    3.256100    0.926700
      9          1           0       -3.592900    3.853100    0.140800
     10          1           0       -3.321600    3.735600    1.890800
     11          1           0       -2.038500    3.283100    0.751100
     12          5           0       -3.375700    0.954000   -0.575000
     13          6           0       -3.203300    1.970400   -1.836700
     14          1           0       -4.108800    2.589000   -1.948500
     15          1           0       -2.355600    2.661000   -1.733700
     16          1           0       -3.079700    1.433700   -2.787700
     17          8           0       -2.288900   -0.045100   -0.367300
     18          8           0       -4.581000    0.092100   -0.757900
     19          6           0       -4.238300   -1.276500   -0.915300
     20          6           0       -2.652500   -1.297300   -0.938300
     21          6           0       -4.872000   -1.800700   -2.206800
     22          1           0       -5.964000   -1.751500   -2.123000
     23          1           0       -4.576300   -1.199600   -3.071100
     24          1           0       -4.594400   -2.845000   -2.395000
     25          6           0       -4.849500   -2.056200    0.257300
     26          1           0       -4.446700   -1.735400    1.222600
     27          1           0       -5.931100   -1.876600    0.270300
     28          1           0       -4.687700   -3.136100    0.164900
     29          6           0       -2.044800   -1.380200   -2.346000
     30          1           0       -2.230500   -2.353000   -2.815700
     31          1           0       -2.427000   -0.598800   -3.007700
     32          1           0       -0.961100   -1.245900   -2.254700
     33          6           0       -2.035500   -2.412200   -0.094800
     34          1           0       -2.350500   -2.349800    0.950400
     35          1           0       -2.317800   -3.398500   -0.482500
     36          1           0       -0.944100   -2.326500   -0.124000
     37         15           0        2.321500   -1.267900    0.360300
     38          8           0        0.908700   -0.889200   -0.077500
     39          8           0        2.560700   -1.792700    1.757800
     40          7           0       -4.936300    1.532000    1.414700
     41          1           0       -5.462700    0.871300    0.832700
     42          1           0       -5.466200    2.265500    1.879500
     43          3           0       -0.510300    0.278800    0.313200
     44          6           0        0.293100    1.720500   -1.910200
     45          8           0       -0.026800    2.030400   -0.546700
     46          6           0        0.877300    3.047600   -0.126800
     47          6           0        0.973700    3.980900   -1.328200
     48          6           0        0.866800    3.011500   -2.523500
     49          1           0        1.020300    0.902400   -1.919100
     50          1           0       -0.628400    1.376500   -2.381500
     51          1           0        0.461800    3.512800    0.770800
     52          1           0        1.853600    2.605600    0.115200
     53          1           0        0.132600    4.682200   -1.322500
     54          1           0        1.903500    4.557000   -1.328900
     55          1           0        0.216100    3.410200   -3.306900
     56          1           0        1.848400    2.819200   -2.967000
     57          6           0        0.548000    1.202400    2.870900
     58          8           0       -0.556900    0.483900    2.295800
     59          6           0       -0.720300   -0.774000    2.969100
     60          6           0       -0.085800   -0.574000    4.336700
     61          6           0        1.108200    0.319400    3.986500
     62          1           0        1.283800    1.401900    2.086300
     63          1           0        0.162900    2.158900    3.246200
     64          1           0       -1.790900   -0.994700    3.003000
     65          1           0       -0.201900   -1.553600    2.398900
     66          1           0       -0.780700   -0.059500    5.011700
     67          1           0        0.210900   -1.521300    4.795500
     68          1           0        1.473000    0.908300    4.833000
     69          1           0        1.921100   -0.299200    3.593600
     70          6           0        2.935500   -2.469800   -0.880100
     71          6           0        2.158300   -2.804200   -1.992700
     72          6           0        4.193800   -3.064400   -0.728700
     73          6           0        2.626200   -3.718100   -2.937900
     74          1           0        1.180000   -2.345200   -2.109900
     75          6           0        4.667000   -3.973400   -1.672600
     76          1           0        4.807300   -2.814600    0.134100
     77          6           0        3.882200   -4.302200   -2.779800
     78          1           0        2.010800   -3.972800   -3.797200
     79          1           0        5.645900   -4.428400   -1.544700
     80          1           0        4.250000   -5.012700   -3.515700
     81          6           0        3.385900    0.208800    0.099900
     82          6           0        3.893600    0.901900    1.202500
     83          6           0        3.650500    0.701800   -1.183300
     84          6           0        4.623600    2.078900    1.031500
     85          1           0        3.712800    0.512300    2.201100
     86          6           0        4.385600    1.872000   -1.360600
     87          1           0        3.281700    0.167100   -2.056200
     88          6           0        4.867200    2.568500   -0.251100
     89          1           0        5.006800    2.609700    1.899500
     90          1           0        4.583300    2.241300   -2.363800
     91          1           0        5.437500    3.483800   -0.387500
 ---------------------------------------------------------------------
 Rotational constants (GHZ):           0.1144519           0.0673143           0.0598321
 Standard basis: 6-311++G(d,p) (5D, 7F)
  1260 basis functions,  1940 primitive gaussians,  1301 cartesian basis functions
   157 alpha electrons      157 beta electrons
       nuclear repulsion energy      5687.0183342383 Hartrees.
 NAtoms=   91 NActive=   91 NUniq=   91 SFac= 1.00D+00 NAtFMM=   60 NAOKFM=T Big=T
 Integral buffers will be    131072 words long.
 Raffenetti 2 integral format.
 Two-electron integral symmetry is turned off.
 Nuclear repulsion after empirical dispersion term =     5686.9004072098 Hartrees.
 ------------------------------------------------------------------------------
 Polarizable Continuum Model (PCM)
 =================================
 Model                : PCM.
 Atomic radii         : SMD-Coulomb.
 Polarization charges : Total charges.
 Charge compensation  : None.
 Solution method      : On-the-fly selection.
 Cavity type          : VdW (van der Waals Surface) (Alpha=1.000).
 Cavity algorithm     : GePol (No added spheres)
                        Default sphere list used, NSphG=   91.
                        Lebedev-Laikov grids with approx.  5.0 points / Ang**2.
                        Smoothing algorithm: York/Karplus (Gamma=1.0000).
                        Polarization charges: spherical gaussians, with
                                              point-specific exponents (IZeta= 3).
                        Self-potential: point-specific (ISelfS= 7).
                        Self-field    : sphere-specific E.n sum rule (ISelfD= 2).
 Solvent              : TetraHydroFuran, Eps=   7.425700 Eps(inf)=   1.974025
 ------------------------------------------------------------------------------
 ------------------------------------------------------------------------------
 Atomic radii for non-electrostatic terms: SMD-CDS.
 ------------------------------------------------------------------------------
 Nuclear repulsion after PCM non-electrostatic terms =     5686.8916415614 Hartrees.
 One-electron integrals computed using PRISM.
 NBasis=  1260 RedAO= T EigKep=  1.02D-06  NBF=  1260
 NBsUse=  1252 1.00D-06 EigRej=  7.62D-07 NBFU=  1252
 ExpMin= 7.40D-03 ExpMax= 7.75D+04 ExpMxC= 2.65D+03 IAcc=3 IRadAn=         5 AccDes= 0.00D+00
 Harris functional with IExCor= 4639 and IRadAn=       5 diagonalized for initial guess.
 HarFok:  IExCor= 4639 AccDes= 0.00D+00 IRadAn=         5 IDoV= 1 UseB2=F ITyADJ=14
 ICtDFT=  3500011 ScaDFX=  1.000000  1.000000  1.000000  1.000000
 FoFCou: FMM=F IPFlag=           0 FMFlag=      100000 FMFlg1=        2001
         NFxFlg=           0 DoJE=T BraDBF=F KetDBF=T FulRan=T
         wScrn=  0.000000 ICntrl=       500 IOpCl=  0 I1Cent=   200000004 NGrid=           0
         NMat0=    1 NMatS0=      1 NMatT0=    0 NMatD0=    1 NMtDS0=    0 NMtDT0=    0
 Symmetry not used in FoFCou.
 Requested convergence on RMS density matrix=1.00D-08 within 128 cycles.
 Requested convergence on MAX density matrix=1.00D-06.
 Requested convergence on             energy=1.00D-06.
 No special actions if energy rises.
 Inv3:  Mode=1 IEnd=    90420300.
 Iteration    1 A*A^-1 deviation from unit magnitude is 5.33D-15 for   5486.
 Iteration    1 A*A^-1 deviation from orthogonality  is 2.99D-15 for   4057   1469.
 Iteration    1 A^-1*A deviation from unit magnitude is 5.55D-15 for   5486.
 Iteration    1 A^-1*A deviation from orthogonality  is 4.06D-15 for   3575   2916.
 Error on total polarization charges =  0.07510
 SCF Done:  E(RwB97XD) =  -2091.46838868     A.U. after   16 cycles
            NFock= 16  Conv=0.34D-08     -V/T= 2.0040
 SMD-CDS (non-electrostatic) energy       (kcal/mol) =      -5.50
 (included in total energy above)

 **********************************************************************

            Population analysis using the SCF Density.

 **********************************************************************

 Alpha  occ. eigenvalues --  -77.25596 -19.25169 -19.25065 -19.20202 -19.19611
 Alpha  occ. eigenvalues --  -19.17024 -19.16047 -14.50949 -10.33559 -10.32298
 Alpha  occ. eigenvalues --  -10.32263 -10.31930 -10.31913 -10.31619 -10.31195
 Alpha  occ. eigenvalues --  -10.30728 -10.28734 -10.28664 -10.28582 -10.28572
 Alpha  occ. eigenvalues --  -10.28547 -10.28449 -10.28429 -10.28347 -10.28337
 Alpha  occ. eigenvalues --  -10.28259 -10.28075 -10.28072 -10.27855 -10.27403
 Alpha  occ. eigenvalues --  -10.27324 -10.27291 -10.27190 -10.26831 -10.25714
 Alpha  occ. eigenvalues --  -10.25410 -10.25091 -10.24853 -10.21397  -6.82277
 Alpha  occ. eigenvalues --   -6.69894  -4.84614  -4.84605  -4.84558  -1.97294
 Alpha  occ. eigenvalues --   -1.14323  -1.13922  -1.11915  -1.10284  -1.06027
 Alpha  occ. eigenvalues --   -1.04890  -0.99916  -0.95489  -0.95214  -0.87928
 Alpha  occ. eigenvalues --   -0.87656  -0.87348  -0.86302  -0.84879  -0.84316
 Alpha  occ. eigenvalues --   -0.84063  -0.83821  -0.83469  -0.83177  -0.82901
 Alpha  occ. eigenvalues --   -0.82389  -0.78516  -0.77343  -0.75526  -0.75097
 Alpha  occ. eigenvalues --   -0.71064  -0.69531  -0.69287  -0.69145  -0.68643
 Alpha  occ. eigenvalues --   -0.68568  -0.68225  -0.67884  -0.67639  -0.66438
 Alpha  occ. eigenvalues --   -0.65399  -0.63147  -0.61524  -0.60592  -0.60477
 Alpha  occ. eigenvalues --   -0.59092  -0.58797  -0.58446  -0.57676  -0.57606
 Alpha  occ. eigenvalues --   -0.57240  -0.54220  -0.53935  -0.53386  -0.53243
 Alpha  occ. eigenvalues --   -0.53203  -0.53122  -0.52769  -0.52356  -0.51932
 Alpha  occ. eigenvalues --   -0.51632  -0.50983  -0.50322  -0.50119  -0.49971
 Alpha  occ. eigenvalues --   -0.49866  -0.49768  -0.49533  -0.49002  -0.48855
 Alpha  occ. eigenvalues --   -0.48521  -0.48143  -0.47915  -0.47820  -0.46979
 Alpha  occ. eigenvalues --   -0.46764  -0.46374  -0.46047  -0.45952  -0.45492
 Alpha  occ. eigenvalues --   -0.44605  -0.44440  -0.44157  -0.43932  -0.43637
 Alpha  occ. eigenvalues --   -0.43437  -0.43136  -0.42993  -0.42777  -0.42629
 Alpha  occ. eigenvalues --   -0.42420  -0.42335  -0.41958  -0.41759  -0.41506
 Alpha  occ. eigenvalues --   -0.41145  -0.40903  -0.40530  -0.40421  -0.40259
 Alpha  occ. eigenvalues --   -0.39719  -0.38907  -0.37870  -0.37537  -0.35915
 Alpha  occ. eigenvalues --   -0.35743  -0.35144  -0.34481  -0.34105  -0.33442
 Alpha  occ. eigenvalues --   -0.32978  -0.32834  -0.32661  -0.31890  -0.31771
 Alpha  occ. eigenvalues --   -0.31051  -0.29480
 Alpha virt. eigenvalues --    0.02185   0.02528   0.02590   0.02793   0.04114
 Alpha virt. eigenvalues --    0.05172   0.05397   0.05497   0.05633   0.05834
 Alpha virt. eigenvalues --    0.05989   0.06172   0.06324   0.06628   0.07003
 Alpha virt. eigenvalues --    0.07029   0.07113   0.07266   0.07457   0.07658
 Alpha virt. eigenvalues --    0.07796   0.08028   0.08085   0.08206   0.08600
 Alpha virt. eigenvalues --    0.08714   0.08930   0.09193   0.09705   0.09850
 Alpha virt. eigenvalues --    0.09981   0.10384   0.10511   0.10632   0.11079
 Alpha virt. eigenvalues --    0.11215   0.11523   0.11710   0.12450   0.12504
 Alpha virt. eigenvalues --    0.12840   0.12989   0.13017   0.13104   0.13466
 Alpha virt. eigenvalues --    0.13698   0.13722   0.13820   0.14041   0.14442
 Alpha virt. eigenvalues --    0.14819   0.14955   0.15166   0.15294   0.15527
 Alpha virt. eigenvalues --    0.15676   0.15779   0.16010   0.16140   0.16227
 Alpha virt. eigenvalues --    0.16473   0.16574   0.16637   0.16845   0.16937
 Alpha virt. eigenvalues --    0.17078   0.17197   0.17324   0.17447   0.17552
 Alpha virt. eigenvalues --    0.17670   0.17830   0.18017   0.18196   0.18448
 Alpha virt. eigenvalues --    0.18474   0.18630   0.18883   0.19053   0.19102
 Alpha virt. eigenvalues --    0.19144   0.19309   0.19482   0.19682   0.19761
 Alpha virt. eigenvalues --    0.19877   0.19916   0.19993   0.20328   0.20486
 Alpha virt. eigenvalues --    0.20529   0.20600   0.20722   0.20868   0.21123
 Alpha virt. eigenvalues --    0.21306   0.21406   0.21517   0.21585   0.21757
 Alpha virt. eigenvalues --    0.21896   0.21998   0.22076   0.22170   0.22339
 Alpha virt. eigenvalues --    0.22442   0.22697   0.22770   0.22931   0.23010
 Alpha virt. eigenvalues --    0.23067   0.23232   0.23380   0.23441   0.23648
 Alpha virt. eigenvalues --    0.23727   0.23819   0.24003   0.24205   0.24270
 Alpha virt. eigenvalues --    0.24366   0.24421   0.24544   0.24783   0.24894
 Alpha virt. eigenvalues --    0.25051   0.25071   0.25409   0.25516   0.25761
 Alpha virt. eigenvalues --    0.25796   0.25942   0.26104   0.26200   0.26274
 Alpha virt. eigenvalues --    0.26397   0.26581   0.26669   0.26754   0.26966
 Alpha virt. eigenvalues --    0.26997   0.27042   0.27290   0.27498   0.27638
 Alpha virt. eigenvalues --    0.27763   0.28015   0.28095   0.28275   0.28437
 Alpha virt. eigenvalues --    0.28560   0.28713   0.28843   0.28886   0.29198
 Alpha virt. eigenvalues --    0.29299   0.29454   0.29511   0.29626   0.29921
 Alpha virt. eigenvalues --    0.30015   0.30273   0.30353   0.30534   0.30747
 Alpha virt. eigenvalues --    0.30814   0.30924   0.31205   0.31322   0.31459
 Alpha virt. eigenvalues --    0.31537   0.31613   0.31811   0.31946   0.32120
 Alpha virt. eigenvalues --    0.32276   0.32591   0.32796   0.32925   0.33013
 Alpha virt. eigenvalues --    0.33119   0.33209   0.33359   0.33536   0.33906
 Alpha virt. eigenvalues --    0.34117   0.34166   0.34325   0.34370   0.34759
 Alpha virt. eigenvalues --    0.34883   0.35223   0.35561   0.35657   0.35786
 Alpha virt. eigenvalues --    0.35811   0.35982   0.36025   0.36243   0.36414
 Alpha virt. eigenvalues --    0.36480   0.36678   0.36936   0.37165   0.37324
 Alpha virt. eigenvalues --    0.37616   0.37870   0.37968   0.37985   0.38107
 Alpha virt. eigenvalues --    0.38256   0.38511   0.38634   0.38818   0.38988
 Alpha virt. eigenvalues --    0.39135   0.39240   0.39430   0.39458   0.39546
 Alpha virt. eigenvalues --    0.39924   0.40034   0.40333   0.40519   0.40733
 Alpha virt. eigenvalues --    0.40881   0.40990   0.41234   0.41258   0.41552
 Alpha virt. eigenvalues --    0.41807   0.42084   0.42170   0.42279   0.42466
 Alpha virt. eigenvalues --    0.42586   0.42619   0.42902   0.43063   0.43164
 Alpha virt. eigenvalues --    0.43415   0.43673   0.43839   0.43926   0.44063
 Alpha virt. eigenvalues --    0.44225   0.44533   0.44699   0.45069   0.45191
 Alpha virt. eigenvalues --    0.45336   0.45498   0.45767   0.45865   0.46209
 Alpha virt. eigenvalues --    0.46335   0.46616   0.46750   0.47098   0.47146
 Alpha virt. eigenvalues --    0.47427   0.47455   0.47659   0.47980   0.48096
 Alpha virt. eigenvalues --    0.48413   0.48621   0.48926   0.49403   0.49548
 Alpha virt. eigenvalues --    0.49701   0.50051   0.50094   0.50285   0.50597
 Alpha virt. eigenvalues --    0.50685   0.51210   0.51566   0.51685   0.52269
 Alpha virt. eigenvalues --    0.52531   0.52662   0.52976   0.53347   0.54076
 Alpha virt. eigenvalues --    0.54310   0.54629   0.55113   0.55147   0.55567
 Alpha virt. eigenvalues --    0.55846   0.56308   0.56609   0.56927   0.57497
 Alpha virt. eigenvalues --    0.57748   0.58034   0.58646   0.58947   0.59395
 Alpha virt. eigenvalues --    0.59459   0.60027   0.60276   0.61104   0.61357
 Alpha virt. eigenvalues --    0.61534   0.61810   0.62262   0.62529   0.62988
 Alpha virt. eigenvalues --    0.63354   0.63579   0.63772   0.64197   0.64491
 Alpha virt. eigenvalues --    0.64867   0.65072   0.65748   0.65957   0.66220
 Alpha virt. eigenvalues --    0.66292   0.66651   0.66723   0.66998   0.67353
 Alpha virt. eigenvalues --    0.67478   0.67724   0.67752   0.68321   0.68694
 Alpha virt. eigenvalues --    0.69024   0.69144   0.69385   0.69812   0.69878
 Alpha virt. eigenvalues --    0.70370   0.70582   0.70980   0.71252   0.71518
 Alpha virt. eigenvalues --    0.71907   0.72129   0.72333   0.72412   0.72918
 Alpha virt. eigenvalues --    0.73111   0.73291   0.73626   0.73733   0.73893
 Alpha virt. eigenvalues --    0.74418   0.74645   0.74883   0.75009   0.75323
 Alpha virt. eigenvalues --    0.75443   0.75859   0.76040   0.76189   0.76587
 Alpha virt. eigenvalues --    0.76664   0.76857   0.77164   0.77544   0.77844
 Alpha virt. eigenvalues --    0.78093   0.78366   0.78681   0.78767   0.78961
 Alpha virt. eigenvalues --    0.79602   0.79803   0.80023   0.80476   0.80604
 Alpha virt. eigenvalues --    0.80744   0.80978   0.81072   0.81458   0.81521
 Alpha virt. eigenvalues --    0.82250   0.82322   0.82563   0.82921   0.83070
 Alpha virt. eigenvalues --    0.83373   0.83437   0.83634   0.83806   0.84219
 Alpha virt. eigenvalues --    0.84425   0.84725   0.84870   0.84979   0.85257
 Alpha virt. eigenvalues --    0.85496   0.85709   0.85935   0.86294   0.86504
 Alpha virt. eigenvalues --    0.86813   0.86924   0.87156   0.87537   0.87808
 Alpha virt. eigenvalues --    0.87956   0.88050   0.88274   0.88657   0.88849
 Alpha virt. eigenvalues --    0.89102   0.89323   0.89494   0.89786   0.89944
 Alpha virt. eigenvalues --    0.90245   0.90355   0.90618   0.90710   0.90929
 Alpha virt. eigenvalues --    0.91397   0.91614   0.91933   0.92182   0.92386
 Alpha virt. eigenvalues --    0.92666   0.93030   0.93210   0.93470   0.93607
 Alpha virt. eigenvalues --    0.93997   0.94248   0.94675   0.94852   0.95150
 Alpha virt. eigenvalues --    0.95461   0.95789   0.96098   0.96366   0.96617
 Alpha virt. eigenvalues --    0.97052   0.97172   0.97660   0.98041   0.98221
 Alpha virt. eigenvalues --    0.98635   0.99076   0.99207   0.99596   1.00177
 Alpha virt. eigenvalues --    1.00305   1.00685   1.01552   1.01609   1.02075
 Alpha virt. eigenvalues --    1.02414   1.02753   1.03463   1.03646   1.03927
 Alpha virt. eigenvalues --    1.04108   1.04414   1.04742   1.05379   1.06150
 Alpha virt. eigenvalues --    1.06230   1.07335   1.07672   1.08035   1.09069
 Alpha virt. eigenvalues --    1.09482   1.09802   1.10147   1.10533   1.10908
 Alpha virt. eigenvalues --    1.11450   1.12115   1.12475   1.13385   1.13444
 Alpha virt. eigenvalues --    1.13690   1.14754   1.14821   1.15028   1.15802
 Alpha virt. eigenvalues --    1.16599   1.16863   1.17233   1.17785   1.18154
 Alpha virt. eigenvalues --    1.18361   1.18937   1.19661   1.20124   1.20594
 Alpha virt. eigenvalues --    1.21285   1.21455   1.22204   1.22671   1.23087
 Alpha virt. eigenvalues --    1.23589   1.23634   1.24068   1.24856   1.25274
 Alpha virt. eigenvalues --    1.26609   1.27153   1.27623   1.27773   1.28515
 Alpha virt. eigenvalues --    1.29327   1.29501   1.29611   1.30725   1.31027
 Alpha virt. eigenvalues --    1.31626   1.32308   1.32978   1.33332   1.33728
 Alpha virt. eigenvalues --    1.34196   1.34785   1.35566   1.35943   1.36076
 Alpha virt. eigenvalues --    1.36675   1.37056   1.37604   1.37708   1.38829
 Alpha virt. eigenvalues --    1.38863   1.39543   1.40882   1.41290   1.42399
 Alpha virt. eigenvalues --    1.42662   1.42897   1.43590   1.44078   1.44250
 Alpha virt. eigenvalues --    1.44733   1.45193   1.45736   1.46935   1.47531
 Alpha virt. eigenvalues --    1.48531   1.48863   1.49619   1.50496   1.51166
 Alpha virt. eigenvalues --    1.51303   1.51566   1.51868   1.52820   1.53106
 Alpha virt. eigenvalues --    1.53917   1.54456   1.55128   1.55665   1.55849
 Alpha virt. eigenvalues --    1.56704   1.56810   1.58066   1.58335   1.58670
 Alpha virt. eigenvalues --    1.59352   1.59812   1.60335   1.61027   1.61430
 Alpha virt. eigenvalues --    1.61595   1.62429   1.62837   1.63025   1.63298
 Alpha virt. eigenvalues --    1.63583   1.63943   1.64344   1.64750   1.64887
 Alpha virt. eigenvalues --    1.65207   1.65377   1.65716   1.66280   1.66350
 Alpha virt. eigenvalues --    1.66851   1.66872   1.67246   1.67393   1.67792
 Alpha virt. eigenvalues --    1.68034   1.68378   1.68505   1.69418   1.69911
 Alpha virt. eigenvalues --    1.69987   1.70129   1.70515   1.70977   1.71011
 Alpha virt. eigenvalues --    1.71653   1.72159   1.72499   1.72789   1.72986
 Alpha virt. eigenvalues --    1.73263   1.73576   1.74002   1.74803   1.74822
 Alpha virt. eigenvalues --    1.75170   1.75477   1.75953   1.76030   1.76310
 Alpha virt. eigenvalues --    1.76660   1.77006   1.77291   1.77445   1.78066
 Alpha virt. eigenvalues --    1.78263   1.78601   1.78944   1.79037   1.79290
 Alpha virt. eigenvalues --    1.79466   1.79887   1.80358   1.80633   1.80963
 Alpha virt. eigenvalues --    1.81384   1.81802   1.82130   1.82639   1.83056
 Alpha virt. eigenvalues --    1.83176   1.83691   1.84106   1.84351   1.84850
 Alpha virt. eigenvalues --    1.85234   1.85456   1.85804   1.86172   1.86439
 Alpha virt. eigenvalues --    1.86667   1.86931   1.87542   1.88033   1.88103
 Alpha virt. eigenvalues --    1.88713   1.89373   1.89405   1.89680   1.90057
 Alpha virt. eigenvalues --    1.90141   1.90719   1.91021   1.91543   1.91628
 Alpha virt. eigenvalues --    1.92413   1.92509   1.92658   1.93387   1.93439
 Alpha virt. eigenvalues --    1.93624   1.94348   1.94625   1.95419   1.95550
 Alpha virt. eigenvalues --    1.95851   1.96416   1.97175   1.97244   1.97627
 Alpha virt. eigenvalues --    1.98000   1.98306   1.98655   1.99153   1.99624
 Alpha virt. eigenvalues --    2.00043   2.00476   2.01001   2.01834   2.02339
 Alpha virt. eigenvalues --    2.02569   2.02827   2.02936   2.03150   2.03531
 Alpha virt. eigenvalues --    2.04025   2.04196   2.04811   2.04950   2.05511
 Alpha virt. eigenvalues --    2.05817   2.06355   2.06514   2.06743   2.07428
 Alpha virt. eigenvalues --    2.07518   2.07697   2.08515   2.08715   2.08986
 Alpha virt. eigenvalues --    2.09336   2.10352   2.10709   2.11391   2.11476
 Alpha virt. eigenvalues --    2.11967   2.12589   2.13002   2.13411   2.13568
 Alpha virt. eigenvalues --    2.14028   2.14667   2.15253   2.15931   2.15964
 Alpha virt. eigenvalues --    2.16758   2.16774   2.17510   2.18133   2.18457
 Alpha virt. eigenvalues --    2.19012   2.19524   2.19681   2.20536   2.21001
 Alpha virt. eigenvalues --    2.21661   2.22227   2.22585   2.23099   2.23914
 Alpha virt. eigenvalues --    2.24125   2.24333   2.25275   2.25458   2.25955
 Alpha virt. eigenvalues --    2.26390   2.27626   2.28118   2.29329   2.29568
 Alpha virt. eigenvalues --    2.30999   2.31238   2.31569   2.31899   2.33005
 Alpha virt. eigenvalues --    2.33148   2.33655   2.34209   2.35559   2.36022
 Alpha virt. eigenvalues --    2.36543   2.37426   2.39138   2.39227   2.39570
 Alpha virt. eigenvalues --    2.40211   2.40574   2.40782   2.41163   2.42012
 Alpha virt. eigenvalues --    2.42786   2.43227   2.43322   2.43652   2.43844
 Alpha virt. eigenvalues --    2.44184   2.44404   2.44791   2.46651   2.46841
 Alpha virt. eigenvalues --    2.47298   2.48871   2.49012   2.49704   2.50587
 Alpha virt. eigenvalues --    2.51592   2.52217   2.53024   2.53241   2.54097
 Alpha virt. eigenvalues --    2.54759   2.55905   2.56250   2.57787   2.58414
 Alpha virt. eigenvalues --    2.58763   2.58977   2.59233   2.61190   2.61776
 Alpha virt. eigenvalues --    2.62218   2.62930   2.62945   2.63575   2.63882
 Alpha virt. eigenvalues --    2.64367   2.64548   2.64869   2.65248   2.65921
 Alpha virt. eigenvalues --    2.66210   2.66593   2.68303   2.68406   2.68537
 Alpha virt. eigenvalues --    2.69808   2.69873   2.70621   2.70952   2.71375
 Alpha virt. eigenvalues --    2.72095   2.72451   2.72618   2.73020   2.73334
 Alpha virt. eigenvalues --    2.74041   2.74349   2.74983   2.75345   2.75733
 Alpha virt. eigenvalues --    2.76266   2.76415   2.76705   2.77519   2.77560
 Alpha virt. eigenvalues --    2.77883   2.78819   2.78871   2.79283   2.80286
 Alpha virt. eigenvalues --    2.80743   2.81158   2.81843   2.82569   2.83334
 Alpha virt. eigenvalues --    2.83979   2.84706   2.85143   2.85292   2.86026
 Alpha virt. eigenvalues --    2.86465   2.86763   2.86890   2.88153   2.88396
 Alpha virt. eigenvalues --    2.88815   2.89076   2.89608   2.89712   2.89872
 Alpha virt. eigenvalues --    2.90652   2.90963   2.91154   2.91514   2.91998
 Alpha virt. eigenvalues --    2.92181   2.92595   2.93190   2.93672   2.93949
 Alpha virt. eigenvalues --    2.94156   2.94759   2.95197   2.95581   2.96187
 Alpha virt. eigenvalues --    2.96361   2.96622   2.97041   2.97404   2.98244
 Alpha virt. eigenvalues --    2.98684   2.98903   2.99139   2.99994   3.00285
 Alpha virt. eigenvalues --    3.00623   3.01044   3.01235   3.02002   3.02269
 Alpha virt. eigenvalues --    3.02626   3.03544   3.04143   3.04480   3.04825
 Alpha virt. eigenvalues --    3.05410   3.05544   3.05965   3.06241   3.06956
 Alpha virt. eigenvalues --    3.07124   3.07711   3.08149   3.08487   3.08812
 Alpha virt. eigenvalues --    3.09176   3.09998   3.10539   3.11503   3.11784
 Alpha virt. eigenvalues --    3.12172   3.13304   3.14296   3.15105   3.15520
 Alpha virt. eigenvalues --    3.16057   3.16704   3.17759   3.18383   3.19180
 Alpha virt. eigenvalues --    3.19780   3.20158   3.20916   3.21407   3.21677
 Alpha virt. eigenvalues --    3.22301   3.22776   3.23258   3.24405   3.25171
 Alpha virt. eigenvalues --    3.26042   3.27256   3.27712   3.28220   3.28742
 Alpha virt. eigenvalues --    3.29058   3.30466   3.31462   3.31683   3.32586
 Alpha virt. eigenvalues --    3.32869   3.33409   3.33908   3.35180   3.35780
 Alpha virt. eigenvalues --    3.37011   3.37737   3.38738   3.39579   3.40368
 Alpha virt. eigenvalues --    3.41693   3.42733   3.43776   3.44816   3.45708
 Alpha virt. eigenvalues --    3.46134   3.47505   3.48014   3.49299   3.49680
 Alpha virt. eigenvalues --    3.50332   3.51035   3.51973   3.53020   3.54272
 Alpha virt. eigenvalues --    3.55677   3.56004   3.58307   3.63237   3.64511
 Alpha virt. eigenvalues --    3.65803   3.67227   3.68726   3.69745   3.69893
 Alpha virt. eigenvalues --    3.73982   3.74498   3.76709   3.78396   3.79146
 Alpha virt. eigenvalues --    3.80524   3.81194   3.89246   3.89592   3.90022
 Alpha virt. eigenvalues --    3.90957   3.91593   3.93045   3.93607   3.94493
 Alpha virt. eigenvalues --    3.94837   3.95499   3.95707   3.95930   3.96433
 Alpha virt. eigenvalues --    3.96739   3.97728   3.98054   4.00303   4.01342
 Alpha virt. eigenvalues --    4.02289   4.04452   4.06356   4.08919   4.10977
 Alpha virt. eigenvalues --    4.12078   4.12198   4.13356   4.15731   4.15832
 Alpha virt. eigenvalues --    4.16724   4.19280   4.19781   4.20691   4.24292
 Alpha virt. eigenvalues --    4.26768   4.27271   4.28444   4.29145   4.29481
 Alpha virt. eigenvalues --    4.30318   4.30781   4.31299   4.31663   4.35162
 Alpha virt. eigenvalues --    4.40960   4.41756   4.44574   4.45598   4.48879
 Alpha virt. eigenvalues --    4.49517   4.53756   4.77853   4.79945   4.86291
 Alpha virt. eigenvalues --    4.95717   4.96251   5.08949   5.34566   5.39159
 Alpha virt. eigenvalues --    5.42513   5.44410   5.47088   5.49646   5.51013
 Alpha virt. eigenvalues --    5.53793   5.55725   5.57859   5.65914   5.69003
 Alpha virt. eigenvalues --    5.70480   5.74492   5.77947   5.80339   5.82075
 Alpha virt. eigenvalues --    5.93833   7.66862  14.33564  14.40154  14.49769
 Alpha virt. eigenvalues --   14.94797  23.79160  23.84183  23.94375  24.00749
 Alpha virt. eigenvalues --   24.02264  24.03359  24.03694  24.05114  24.06428
 Alpha virt. eigenvalues --   24.07571  24.11443  24.11831  24.12458  24.12754
 Alpha virt. eigenvalues --   24.13398  24.14303  24.14524  24.15381  24.15845
 Alpha virt. eigenvalues --   24.16836  24.17809  24.19074  24.19543  24.20568
 Alpha virt. eigenvalues --   24.21990  24.22067  24.23430  24.23662  24.23907
 Alpha virt. eigenvalues --   24.33056  24.33226  35.71669  50.15326  50.18692
 Alpha virt. eigenvalues --   50.20250  50.22519  50.24712  50.26280 163.91118
          Condensed to atoms (all electrons):
 Mulliken charges:
               1
     1  C   -0.614958
     2  C    0.287585
     3  H    0.079684
     4  C   -0.845593
     5  H    0.235252
     6  H    0.200180
     7  H    0.165344
     8  C   -0.554022
     9  H    0.214986
    10  H    0.151366
    11  H    0.244704
    12  B    1.044533
    13  C   -0.965256
    14  H    0.122945
    15  H    0.179585
    16  H    0.144286
    17  O    0.160210
    18  O   -0.271704
    19  C   -0.031433
    20  C   -0.516679
    21  C   -0.595314
    22  H    0.190179
    23  H    0.182646
    24  H    0.196293
    25  C   -0.456404
    26  H    0.146235
    27  H    0.210331
    28  H    0.200026
    29  C   -0.297379
    30  H    0.233001
    31  H    0.168233
    32  H    0.026949
    33  C   -0.591031
    34  H    0.191504
    35  H    0.266944
    36  H    0.127886
    37  P   -0.460591
    38  O    0.020754
    39  O   -0.158603
    40  N   -0.051456
    41  H    0.379143
    42  H    0.454594
    43  Li  -0.469571
    44  C    0.071446
    45  O    0.226357
    46  C    0.049409
    47  C   -0.710776
    48  C   -0.501593
    49  H    0.047035
    50  H    0.110756
    51  H    0.229567
    52  H    0.041578
    53  H    0.196228
    54  H    0.218814
    55  H    0.235704
    56  H    0.222244
    57  C    0.035995
    58  O    0.232361
    59  C   -0.053178
    60  C   -0.816271
    61  C   -0.579916
    62  H    0.039810
    63  H    0.209114
    64  H    0.197072
    65  H    0.190630
    66  H    0.172193
    67  H    0.253934
    68  H    0.255476
    69  H    0.154442
    70  C    0.111678
    71  C    0.206297
    72  C   -0.049932
    73  C   -0.299402
    74  H    0.177199
    75  C   -0.420273
    76  H    0.319363
    77  C   -0.452242
    78  H    0.280215
    79  H    0.270726
    80  H    0.248819
    81  C   -0.037708
    82  C   -0.083031
    83  C   -0.176274
    84  C   -0.415345
    85  H    0.257446
    86  C   -0.465233
    87  H    0.282308
    88  C   -0.640552
    89  H    0.283906
    90  H    0.275161
    91  H    0.253059
 Sum of Mulliken charges =  -0.00000
 Mulliken charges with hydrogens summed into heavy atoms:
               1
     1  C   -0.614958
     2  C    0.367269
     4  C   -0.244816
     8  C    0.057033
    12  B    1.044533
    13  C   -0.518440
    17  O    0.160210
    18  O   -0.271704
    19  C   -0.031433
    20  C   -0.516679
    21  C   -0.026196
    25  C    0.100187
    29  C    0.130804
    33  C   -0.004697
    37  P   -0.460591
    38  O    0.020754
    39  O   -0.158603
    40  N    0.782281
    43  Li  -0.469571
    44  C    0.229236
    45  O    0.226357
    46  C    0.320553
    47  C   -0.295734
    48  C   -0.043644
    57  C    0.284918
    58  O    0.232361
    59  C    0.334524
    60  C   -0.390144
    61  C   -0.169998
    70  C    0.111678
    71  C    0.383496
    72  C    0.269431
    73  C   -0.019186
    75  C   -0.149547
    77  C   -0.203423
    81  C   -0.037708
    82  C    0.174415
    83  C    0.106034
    84  C   -0.131439
    86  C   -0.190072
    88  C   -0.387493
 Electronic spatial extent (au):  <R**2>=          20783.8679
 Charge=             -0.0000 electrons
 Dipole moment (field-independent basis, Debye):
    X=             -8.9278    Y=              8.7701    Z=              4.2869  Tot=             13.2287
 Quadrupole moment (field-independent basis, Debye-Ang):
   XX=           -229.7801   YY=           -242.8667   ZZ=           -235.2547
   XY=              4.5488   XZ=            -39.3400   YZ=             21.8747
 Traceless Quadrupole moment (field-independent basis, Debye-Ang):
   XX=              6.1870   YY=             -6.8995   ZZ=              0.7125
   XY=              4.5488   XZ=            -39.3400   YZ=             21.8747
 Octapole moment (field-independent basis, Debye-Ang**2):
  XXX=           -188.2859  YYY=             65.7003  ZZZ=             40.6897  XYY=            -14.6050
  XXY=            104.4668  XXZ=            119.4695  XZZ=            -29.8101  YZZ=             20.1688
  YYZ=            -18.7305  XYZ=            -21.7046
 Hexadecapole moment (field-independent basis, Debye-Ang**3):
 XXXX=         -14278.2475 YYYY=          -7276.4110 ZZZZ=          -5724.5960 XXXY=            241.6500
 XXXZ=           -214.8471 YYYX=            644.6472 YYYZ=           -452.9897 ZZZX=            356.4518
 ZZZY=           -505.8393 XXYY=          -3284.0364 XXZZ=          -3395.9024 YYZZ=          -2070.6286
 XXYZ=            143.0472 YYXZ=            -73.4570 ZZXY=            205.4296
 N-N= 5.686891641561D+03 E-N=-1.626876429121D+04  KE= 2.083091432745D+03
 Unable to Open any file for archive entry.
 1\1\GINC-NODE01\SP\RwB97XD\6-311++G(d,p)\C31H50B1Li1N1O6P1\WHUGHES2\08
 -Oct-2025\0\\# wb97xd/6-311++g** nosymm int=ultrafine scrf=(smd,solven
 t=tetrahydrofuran)\\aziridinium-phos-full-c8_tzpop-sp\\0,1\C,0,-3.5654
 ,1.8178,0.8459\C,0,-3.7113,1.0192,2.0848\H,0,-3.6027,-0.0522,1.9459\C,
 0,-3.4506,1.501,3.4859\H,0,-3.9642,0.8625,4.2124\H,0,-2.3751,1.4511,3.
 6774\H,0,-3.7775,2.5324,3.6446\C,0,-3.1193,3.2561,0.9267\H,0,-3.5929,3
 .8531,0.1408\H,0,-3.3216,3.7356,1.8908\H,0,-2.0385,3.2831,0.7511\B,0,-
 3.3757,0.954,-0.575\C,0,-3.2033,1.9704,-1.8367\H,0,-4.1088,2.589,-1.94
 85\H,0,-2.3556,2.661,-1.7337\H,0,-3.0797,1.4337,-2.7877\O,0,-2.2889,-0
 .0451,-0.3673\O,0,-4.581,0.0921,-0.7579\C,0,-4.2383,-1.2765,-0.9153\C,
 0,-2.6525,-1.2973,-0.9383\C,0,-4.872,-1.8007,-2.2068\H,0,-5.964,-1.751
 5,-2.123\H,0,-4.5763,-1.1996,-3.0711\H,0,-4.5944,-2.845,-2.395\C,0,-4.
 8495,-2.0562,0.2573\H,0,-4.4467,-1.7354,1.2226\H,0,-5.9311,-1.8766,0.2
 703\H,0,-4.6877,-3.1361,0.1649\C,0,-2.0448,-1.3802,-2.346\H,0,-2.2305,
 -2.353,-2.8157\H,0,-2.427,-0.5988,-3.0077\H,0,-0.9611,-1.2459,-2.2547\
 C,0,-2.0355,-2.4122,-0.0948\H,0,-2.3505,-2.3498,0.9504\H,0,-2.3178,-3.
 3985,-0.4825\H,0,-0.9441,-2.3265,-0.124\P,0,2.3215,-1.2679,0.3603\O,0,
 0.9087,-0.8892,-0.0775\O,0,2.5607,-1.7927,1.7578\N,0,-4.9363,1.532,1.4
 147\H,0,-5.4627,0.8713,0.8327\H,0,-5.4662,2.2655,1.8795\Li,0,-0.5103,0
 .2788,0.3132\C,0,0.2931,1.7205,-1.9102\O,0,-0.0268,2.0304,-0.5467\C,0,
 0.8773,3.0476,-0.1268\C,0,0.9737,3.9809,-1.3282\C,0,0.8668,3.0115,-2.5
 235\H,0,1.0203,0.9024,-1.9191\H,0,-0.6284,1.3765,-2.3815\H,0,0.4618,3.
 5128,0.7708\H,0,1.8536,2.6056,0.1152\H,0,0.1326,4.6822,-1.3225\H,0,1.9
 035,4.557,-1.3289\H,0,0.2161,3.4102,-3.3069\H,0,1.8484,2.8192,-2.967\C
 ,0,0.548,1.2024,2.8709\O,0,-0.5569,0.4839,2.2958\C,0,-0.7203,-0.774,2.
 9691\C,0,-0.0858,-0.574,4.3367\C,0,1.1082,0.3194,3.9865\H,0,1.2838,1.4
 019,2.0863\H,0,0.1629,2.1589,3.2462\H,0,-1.7909,-0.9947,3.003\H,0,-0.2
 019,-1.5536,2.3989\H,0,-0.7807,-0.0595,5.0117\H,0,0.2109,-1.5213,4.795
 5\H,0,1.473,0.9083,4.833\H,0,1.9211,-0.2992,3.5936\C,0,2.9355,-2.4698,
 -0.8801\C,0,2.1583,-2.8042,-1.9927\C,0,4.1938,-3.0644,-0.7287\C,0,2.62
 62,-3.7181,-2.9379\H,0,1.18,-2.3452,-2.1099\C,0,4.667,-3.9734,-1.6726\
 H,0,4.8073,-2.8146,0.1341\C,0,3.8822,-4.3022,-2.7798\H,0,2.0108,-3.972
 8,-3.7972\H,0,5.6459,-4.4284,-1.5447\H,0,4.25,-5.0127,-3.5157\C,0,3.38
 59,0.2088,0.0999\C,0,3.8936,0.9019,1.2025\C,0,3.6505,0.7018,-1.1833\C,
 0,4.6236,2.0789,1.0315\H,0,3.7128,0.5123,2.2011\C,0,4.3856,1.872,-1.36
 06\H,0,3.2817,0.1671,-2.0562\C,0,4.8672,2.5685,-0.2511\H,0,5.0068,2.60
 97,1.8995\H,0,4.5833,2.2413,-2.3638\H,0,5.4375,3.4838,-0.3875\\Version
 =AS64L-G16RevC.01\HF=-2091.4683887\RMSD=3.358e-09\Dipole=-3.5124852,3.
 4504252,1.6865905\Quadrupole=4.599903,-5.1296353,0.5297323,3.3819577,-
 29.248357,16.2632672\PG=C01 [X(C31H50B1Li1N1O6P1)]\\@
 The archive entry for this job was punched.


 THE 2ND LAW OF THERMODYNAMICS HAS THE SAME
 DEGREE OF TRUTH AS THE STATEMENT THAT IF YOU THROW
 A TUMBLERFULL OF WATER INTO THE SEA, YOU CANNOT GET
 THE SAME TUMBLERFULL OF WATER OUT AGAIN.
          - J.C. MAXWELL, LETTER TO LORD RAYLEIGH, DECEMBER 6,1870
 Job cpu time:       0 days  9 hours  8 minutes 48.7 seconds.
 Elapsed time:       0 days  2 hours 18 minutes 28.3 seconds.
 File lengths (MBytes):  RWF=   1328 Int=      0 D2E=      0 Chk=     95 Scr=      1
 Normal termination of Gaussian 16 at Wed Oct  8 17:46:14 2025.
