Job Start Time: Fri Sep 19 16:05:56 MDT 2025
SLURM Job ID: 766565
SLURM Job Name: aziridinium-phos-full-tzpop
 Entering Gaussian System, Link 0=/opt/apps/Gaussian/G16C/g16/g16
 Initial command:
 /opt/apps/Gaussian/G16C/g16/l1.exe "/tmp/766565/Gau-636848.inp" -scrdir="/tmp/766565/"
 Entering Link 1 = /opt/apps/Gaussian/G16C/g16/l1.exe PID=    636849.
  
 Copyright (c) 1988-2019, Gaussian, Inc.  All Rights Reserved.
  
 This is part of the Gaussian(R) 16 program.  It is based on
 the Gaussian(R) 09 system (copyright 2009, Gaussian, Inc.),
 the Gaussian(R) 03 system (copyright 2003, Gaussian, Inc.),
 the Gaussian(R) 98 system (copyright 1998, Gaussian, Inc.),
 the Gaussian(R) 94 system (copyright 1995, Gaussian, Inc.),
 the Gaussian 92(TM) system (copyright 1992, Gaussian, Inc.),
 the Gaussian 90(TM) system (copyright 1990, Gaussian, Inc.),
 the Gaussian 88(TM) system (copyright 1988, Gaussian, Inc.),
 the Gaussian 86(TM) system (copyright 1986, Carnegie Mellon
 University), and the Gaussian 82(TM) system (copyright 1983,
 Carnegie Mellon University). Gaussian is a federally registered
 trademark of Gaussian, Inc.
  
 This software contains proprietary and confidential information,
 including trade secrets, belonging to Gaussian, Inc.
  
 This software is provided under written license and may be
 used, copied, transmitted, or stored only in accord with that
 written license.
  
 The following legend is applicable only to US Government
 contracts under FAR:
  
                    RESTRICTED RIGHTS LEGEND
  
 Use, reproduction and disclosure by the US Government is
 subject to restrictions as set forth in subparagraphs (a)
 and (c) of the Commercial Computer Software - Restricted
 Rights clause in FAR 52.227-19.
  
 Gaussian, Inc.
 340 Quinnipiac St., Bldg. 40, Wallingford CT 06492
  
  
 ---------------------------------------------------------------
 Warning -- This program may not be used in any manner that
 competes with the business of Gaussian, Inc. or will provide
 assistance to any competitor of Gaussian, Inc.  The licensee
 of this program is prohibited from giving any competitor of
 Gaussian, Inc. access to this program.  By using this program,
 the user acknowledges that Gaussian, Inc. is engaged in the
 business of creating and licensing software in the field of
 computational chemistry and represents and warrants to the
 licensee that it is not a competitor of Gaussian, Inc. and that
 it will not use this program in any manner prohibited above.
 ---------------------------------------------------------------
  

 Cite this work as:
 Gaussian 16, Revision C.01,
 M. J. Frisch, G. W. Trucks, H. B. Schlegel, G. E. Scuseria, 
 M. A. Robb, J. R. Cheeseman, G. Scalmani, V. Barone, 
 G. A. Petersson, H. Nakatsuji, X. Li, M. Caricato, A. V. Marenich, 
 J. Bloino, B. G. Janesko, R. Gomperts, B. Mennucci, H. P. Hratchian, 
 J. V. Ortiz, A. F. Izmaylov, J. L. Sonnenberg, D. Williams-Young, 
 F. Ding, F. Lipparini, F. Egidi, J. Goings, B. Peng, A. Petrone, 
 T. Henderson, D. Ranasinghe, V. G. Zakrzewski, J. Gao, N. Rega, 
 G. Zheng, W. Liang, M. Hada, M. Ehara, K. Toyota, R. Fukuda, 
 J. Hasegawa, M. Ishida, T. Nakajima, Y. Honda, O. Kitao, H. Nakai, 
 T. Vreven, K. Throssell, J. A. Montgomery, Jr., J. E. Peralta, 
 F. Ogliaro, M. J. Bearpark, J. J. Heyd, E. N. Brothers, K. N. Kudin, 
 V. N. Staroverov, T. A. Keith, R. Kobayashi, J. Normand, 
 K. Raghavachari, A. P. Rendell, J. C. Burant, S. S. Iyengar, 
 J. Tomasi, M. Cossi, J. M. Millam, M. Klene, C. Adamo, R. Cammi, 
 J. W. Ochterski, R. L. Martin, K. Morokuma, O. Farkas, 
 J. B. Foresman, and D. J. Fox, Gaussian, Inc., Wallingford CT, 2019.
 
 ******************************************
 Gaussian 16:  AS64L-G16RevC.01  3-Jul-2019
                19-Sep-2025 
 ******************************************
 %nproc=16
 Will use up to   16 processors via shared memory.
 %mem=32gb
 %chk=aziridinium-phos-full-tzpop.chk
 ----------------------------------------------------------------------
 #p wb97xd/6-311++g** nosymm int=ultrafine scrf=(smd,solvent=tetrahydro
 furan)
 ----------------------------------------------------------------------
 1/38=1,172=1/1;
 2/12=2,15=1,17=6,18=5,40=1/2;
 3/5=4,6=6,7=1111,11=2,25=1,30=1,70=32201,72=20,74=-58,75=-5/1,2,3;
 4//1;
 5/5=2,38=5,53=20/2;
 6/7=2,8=2,9=2,10=2,28=1/1;
 99/5=1,9=1/99;
 Leave Link    1 at Fri Sep 19 16:05:56 2025, MaxMem=  4294967296 cpu:               0.1 elap:               0.0
 (Enter /opt/apps/Gaussian/G16C/g16/l101.exe)
 ---------------------------
 aziridinium-phos-full-tzpop
 ---------------------------
 Symbolic Z-matrix:
 Charge =  0 Multiplicity = 1
 6                    -2.46811   1.03899  -1.07749 
 6                    -2.4498    1.03075   0.41105 
 1                    -1.47259   0.85503   0.85576 
 6                    -3.41775   1.73392   1.3249 
 1                    -3.04908   2.74486   1.53 
 1                    -4.41951   1.8216    0.89474 
 1                    -3.49798   1.20143   2.27899 
 6                    -3.60579   1.73187  -1.79374 
 1                    -4.57276   1.64858  -1.28333 
 1                    -3.37214   2.7978   -1.89279 
 1                    -3.70931   1.31944  -2.80205 
 5                    -1.03964   0.96693  -1.91697 
 6                    -0.35527   2.44797  -1.85329 
 1                    -0.27025   2.84317  -0.8308 
 1                     0.6563    2.43886  -2.28418 
 1                    -0.93664   3.18503  -2.42912 
 8                    -0.17427  -0.12473  -1.34219 
 8                    -1.24881   0.54537  -3.31862 
 6                    -0.82447  -0.79074  -3.49191 
 6                     0.30209  -0.9461   -2.41637 
 6                    -0.33659  -0.9727   -4.9288 
 1                    -1.18504  -0.89019  -5.6186 
 1                     0.39346  -0.20585  -5.20257 
 1                     0.11988  -1.95998  -5.07253 
 6                    -1.99994  -1.75317  -3.25886 
 1                    -1.73977  -2.78542  -3.52224 
 1                    -2.33605  -1.74985  -2.21964 
 1                    -2.83908  -1.44089  -3.89134 
 6                     1.64774  -0.3968   -2.90553 
 1                     2.3456   -0.3739   -2.064 
 1                     2.08085  -1.03639  -3.68346 
 1                     1.54839   0.61633  -3.30613 
 6                     0.50404  -2.37073  -1.91365 
 1                    -0.39873  -2.75841  -1.43771 
 1                     0.78188  -3.03412  -2.74208 
 1                     1.31231  -2.3978   -1.17395 
 15                   -0.8408   -2.77576   1.46603 
 8                     0.28087  -1.74619   1.43993 
 8                    -2.04287  -2.59803   0.55068 
 7                    -2.91221  -0.17826  -0.30723 
 1                    -2.34305  -1.04119  -0.19781 
 1                    -3.91154  -0.36577  -0.25926 
 3                     0.7131   -0.27146   0.3723 
 6                     0.18152   0.82686   3.13836 
 8                     0.49576   1.24584   1.80718 
 6                     0.48949   2.67609   1.80974 
 6                     0.86456   3.1138    3.24127 
 6                     0.96775   1.78721   4.01793 
 1                    -0.9029    0.92315   3.30687 
 1                     0.45729  -0.22315   3.22144 
 1                     1.19732   3.01172   1.04905 
 1                    -0.51251   3.03083   1.53381 
 1                     1.80371   3.67356   3.26086 
 1                     0.08431   3.75657   3.65954 
 1                     2.00951   1.45484   4.08606 
 1                     0.56103   1.85338   5.03086 
 6                     3.32035  -0.70026   1.53186 
 8                     2.7235   -0.21488   0.3163 
 6                     3.24763   1.08215  -0.00851 
 6                     3.93543   1.5791    1.25566 
 6                     4.45128   0.26993   1.85964 
 1                     2.55046  -0.71393   2.31072 
 1                     3.66126  -1.72491   1.35857 
 1                     3.96277   0.97766  -0.83519 
 1                     2.41722   1.70945  -0.34637 
 1                     4.72925   2.29915   1.0386 
 1                     3.21051   2.0487    1.92829 
 1                     5.37895  -0.03814   1.36387 
 1                     4.63969   0.33357   2.93503 
 6                    -0.08844  -4.40922   1.14316 
 6                     1.30102  -4.5602    1.15853 
 6                    -0.89224  -5.52305   0.8765 
 6                     1.88081  -5.80423   0.91074 
 1                     1.92532  -3.69226   1.35401 
 6                    -0.31621  -6.76785   0.63099 
 1                    -1.97384  -5.41354   0.853 
 6                     1.07233  -6.90962   0.64781 
 1                     2.96265  -5.91007   0.9192 
 1                    -0.94885  -7.62652   0.42159 
 1                     1.52253  -7.87971   0.4536 
 6                    -1.44413  -2.87413   3.19118 
 6                    -0.54327  -2.79681   4.26025 
 6                    -2.80742  -3.0204    3.46187 
 6                    -0.99703  -2.86239   5.57558 
 1                     0.51958  -2.68052   4.0608 
 6                    -3.26586  -3.08461   4.77838 
 1                    -3.50963  -3.07781   2.63421 
 6                    -2.36127  -3.00554   5.83626 
 1                    -0.28884  -2.80056   6.39793 
 1                    -4.32864  -3.19617   4.97764 
 1                    -2.71664  -3.05617   6.86218 
 
 ITRead=  0  0  0  0  0  0  0  0  0  0  0  0  0  0  0  0  0  0  0  0
 ITRead=  0  0  0  0  0  0  0  0  0  0  0  0  0  0  0  0  0  0  0  0
 ITRead=  0  0  0  0  0  0  0  0  0  0  0  0  0  0  0  0  0  0  0  0
 ITRead=  0  0  0  0  0  0  0  0  0  0  0  0  0  0  0  0  0  0  0  0
 ITRead=  0  0  0  0  0  0  0  0  0  0  0
 MicOpt= -1 -1 -1 -1 -1 -1 -1 -1 -1 -1 -1 -1 -1 -1 -1 -1 -1 -1 -1 -1
 MicOpt= -1 -1 -1 -1 -1 -1 -1 -1 -1 -1 -1 -1 -1 -1 -1 -1 -1 -1 -1 -1
 MicOpt= -1 -1 -1 -1 -1 -1 -1 -1 -1 -1 -1 -1 -1 -1 -1 -1 -1 -1 -1 -1
 MicOpt= -1 -1 -1 -1 -1 -1 -1 -1 -1 -1 -1 -1 -1 -1 -1 -1 -1 -1 -1 -1
 MicOpt= -1 -1 -1 -1 -1 -1 -1 -1 -1 -1 -1
 NAtoms=     91 NQM=       91 NQMF=       0 NMMI=      0 NMMIF=      0
                NMic=       0 NMicF=      0.
                    Isotopes and Nuclear Properties:
 (Nuclear quadrupole moments (NQMom) in fm**2, nuclear magnetic moments (NMagM)
  in nuclear magnetons)

  Atom         1           2           3           4           5           6           7           8           9          10
 IAtWgt=          12          12           1          12           1           1           1          12           1           1
 AtmWgt=  12.0000000  12.0000000   1.0078250  12.0000000   1.0078250   1.0078250   1.0078250  12.0000000   1.0078250   1.0078250
 NucSpn=           0           0           1           0           1           1           1           0           1           1
 AtZEff=  -0.0000000  -0.0000000  -0.0000000  -0.0000000  -0.0000000  -0.0000000  -0.0000000  -0.0000000  -0.0000000  -0.0000000
 NQMom=    0.0000000   0.0000000   0.0000000   0.0000000   0.0000000   0.0000000   0.0000000   0.0000000   0.0000000   0.0000000
 NMagM=    0.0000000   0.0000000   2.7928460   0.0000000   2.7928460   2.7928460   2.7928460   0.0000000   2.7928460   2.7928460
 AtZNuc=   6.0000000   6.0000000   1.0000000   6.0000000   1.0000000   1.0000000   1.0000000   6.0000000   1.0000000   1.0000000

  Atom        11          12          13          14          15          16          17          18          19          20
 IAtWgt=           1          11          12           1           1           1          16          16          12          12
 AtmWgt=   1.0078250  11.0093053  12.0000000   1.0078250   1.0078250   1.0078250  15.9949146  15.9949146  12.0000000  12.0000000
 NucSpn=           1           3           0           1           1           1           0           0           0           0
 AtZEff=  -0.0000000  -0.0000000  -0.0000000  -0.0000000  -0.0000000  -0.0000000  -0.0000000  -0.0000000  -0.0000000  -0.0000000
 NQMom=    0.0000000   4.0590000   0.0000000   0.0000000   0.0000000   0.0000000   0.0000000   0.0000000   0.0000000   0.0000000
 NMagM=    2.7928460   2.6886370   0.0000000   2.7928460   2.7928460   2.7928460   0.0000000   0.0000000   0.0000000   0.0000000
 AtZNuc=   1.0000000   5.0000000   6.0000000   1.0000000   1.0000000   1.0000000   8.0000000   8.0000000   6.0000000   6.0000000

  Atom        21          22          23          24          25          26          27          28          29          30
 IAtWgt=          12           1           1           1          12           1           1           1          12           1
 AtmWgt=  12.0000000   1.0078250   1.0078250   1.0078250  12.0000000   1.0078250   1.0078250   1.0078250  12.0000000   1.0078250
 NucSpn=           0           1           1           1           0           1           1           1           0           1
 AtZEff=  -0.0000000  -0.0000000  -0.0000000  -0.0000000  -0.0000000  -0.0000000  -0.0000000  -0.0000000  -0.0000000  -0.0000000
 NQMom=    0.0000000   0.0000000   0.0000000   0.0000000   0.0000000   0.0000000   0.0000000   0.0000000   0.0000000   0.0000000
 NMagM=    0.0000000   2.7928460   2.7928460   2.7928460   0.0000000   2.7928460   2.7928460   2.7928460   0.0000000   2.7928460
 AtZNuc=   6.0000000   1.0000000   1.0000000   1.0000000   6.0000000   1.0000000   1.0000000   1.0000000   6.0000000   1.0000000

  Atom        31          32          33          34          35          36          37          38          39          40
 IAtWgt=           1           1          12           1           1           1          31          16          16          14
 AtmWgt=   1.0078250   1.0078250  12.0000000   1.0078250   1.0078250   1.0078250  30.9737634  15.9949146  15.9949146  14.0030740
 NucSpn=           1           1           0           1           1           1           1           0           0           2
 AtZEff=  -0.0000000  -0.0000000  -0.0000000  -0.0000000  -0.0000000  -0.0000000  -0.0000000  -0.0000000  -0.0000000  -0.0000000
 NQMom=    0.0000000   0.0000000   0.0000000   0.0000000   0.0000000   0.0000000   0.0000000   0.0000000   0.0000000   2.0440000
 NMagM=    2.7928460   2.7928460   0.0000000   2.7928460   2.7928460   2.7928460   1.1316000   0.0000000   0.0000000   0.4037610
 AtZNuc=   1.0000000   1.0000000   6.0000000   1.0000000   1.0000000   1.0000000  15.0000000   8.0000000   8.0000000   7.0000000

  Atom        41          42          43          44          45          46          47          48          49          50
 IAtWgt=           1           1           7          12          16          12          12          12           1           1
 AtmWgt=   1.0078250   1.0078250   7.0160045  12.0000000  15.9949146  12.0000000  12.0000000  12.0000000   1.0078250   1.0078250
 NucSpn=           1           1           3           0           0           0           0           0           1           1
 AtZEff=  -0.0000000  -0.0000000  -0.0000000  -0.0000000  -0.0000000  -0.0000000  -0.0000000  -0.0000000  -0.0000000  -0.0000000
 NQMom=    0.0000000   0.0000000  -4.0100000   0.0000000   0.0000000   0.0000000   0.0000000   0.0000000   0.0000000   0.0000000
 NMagM=    2.7928460   2.7928460   3.2564240   0.0000000   0.0000000   0.0000000   0.0000000   0.0000000   2.7928460   2.7928460
 AtZNuc=   1.0000000   1.0000000   3.0000000   6.0000000   8.0000000   6.0000000   6.0000000   6.0000000   1.0000000   1.0000000

  Atom        51          52          53          54          55          56          57          58          59          60
 IAtWgt=           1           1           1           1           1           1          12          16          12          12
 AtmWgt=   1.0078250   1.0078250   1.0078250   1.0078250   1.0078250   1.0078250  12.0000000  15.9949146  12.0000000  12.0000000
 NucSpn=           1           1           1           1           1           1           0           0           0           0
 AtZEff=  -0.0000000  -0.0000000  -0.0000000  -0.0000000  -0.0000000  -0.0000000  -0.0000000  -0.0000000  -0.0000000  -0.0000000
 NQMom=    0.0000000   0.0000000   0.0000000   0.0000000   0.0000000   0.0000000   0.0000000   0.0000000   0.0000000   0.0000000
 NMagM=    2.7928460   2.7928460   2.7928460   2.7928460   2.7928460   2.7928460   0.0000000   0.0000000   0.0000000   0.0000000
 AtZNuc=   1.0000000   1.0000000   1.0000000   1.0000000   1.0000000   1.0000000   6.0000000   8.0000000   6.0000000   6.0000000

  Atom        61          62          63          64          65          66          67          68          69          70
 IAtWgt=          12           1           1           1           1           1           1           1           1          12
 AtmWgt=  12.0000000   1.0078250   1.0078250   1.0078250   1.0078250   1.0078250   1.0078250   1.0078250   1.0078250  12.0000000
 NucSpn=           0           1           1           1           1           1           1           1           1           0
 AtZEff=  -0.0000000  -0.0000000  -0.0000000  -0.0000000  -0.0000000  -0.0000000  -0.0000000  -0.0000000  -0.0000000  -0.0000000
 NQMom=    0.0000000   0.0000000   0.0000000   0.0000000   0.0000000   0.0000000   0.0000000   0.0000000   0.0000000   0.0000000
 NMagM=    0.0000000   2.7928460   2.7928460   2.7928460   2.7928460   2.7928460   2.7928460   2.7928460   2.7928460   0.0000000
 AtZNuc=   6.0000000   1.0000000   1.0000000   1.0000000   1.0000000   1.0000000   1.0000000   1.0000000   1.0000000   6.0000000

  Atom        71          72          73          74          75          76          77          78          79          80
 IAtWgt=          12          12          12           1          12           1          12           1           1           1
 AtmWgt=  12.0000000  12.0000000  12.0000000   1.0078250  12.0000000   1.0078250  12.0000000   1.0078250   1.0078250   1.0078250
 NucSpn=           0           0           0           1           0           1           0           1           1           1
 AtZEff=  -0.0000000  -0.0000000  -0.0000000  -0.0000000  -0.0000000  -0.0000000  -0.0000000  -0.0000000  -0.0000000  -0.0000000
 NQMom=    0.0000000   0.0000000   0.0000000   0.0000000   0.0000000   0.0000000   0.0000000   0.0000000   0.0000000   0.0000000
 NMagM=    0.0000000   0.0000000   0.0000000   2.7928460   0.0000000   2.7928460   0.0000000   2.7928460   2.7928460   2.7928460
 AtZNuc=   6.0000000   6.0000000   6.0000000   1.0000000   6.0000000   1.0000000   6.0000000   1.0000000   1.0000000   1.0000000

  Atom        81          82          83          84          85          86          87          88          89          90
 IAtWgt=          12          12          12          12           1          12           1          12           1           1
 AtmWgt=  12.0000000  12.0000000  12.0000000  12.0000000   1.0078250  12.0000000   1.0078250  12.0000000   1.0078250   1.0078250
 NucSpn=           0           0           0           0           1           0           1           0           1           1
 AtZEff=  -0.0000000  -0.0000000  -0.0000000  -0.0000000  -0.0000000  -0.0000000  -0.0000000  -0.0000000  -0.0000000  -0.0000000
 NQMom=    0.0000000   0.0000000   0.0000000   0.0000000   0.0000000   0.0000000   0.0000000   0.0000000   0.0000000   0.0000000
 NMagM=    0.0000000   0.0000000   0.0000000   0.0000000   2.7928460   0.0000000   2.7928460   0.0000000   2.7928460   2.7928460
 AtZNuc=   6.0000000   6.0000000   6.0000000   6.0000000   1.0000000   6.0000000   1.0000000   6.0000000   1.0000000   1.0000000

  Atom        91
 IAtWgt=           1
 AtmWgt=   1.0078250
 NucSpn=           1
 AtZEff=  -0.0000000
 NQMom=    0.0000000
 NMagM=    2.7928460
 AtZNuc=   1.0000000
 Leave Link  101 at Fri Sep 19 16:05:56 2025, MaxMem=  4294967296 cpu:               0.1 elap:               0.1
 (Enter /opt/apps/Gaussian/G16C/g16/l202.exe)
 Symmetry turned off by external request.
 Stoichiometry    C31H50BLiNO6P
 Framework group  C1[X(C31H50BLiNO6P)]
 Deg. of freedom   267
 Full point group                 C1      NOp   1
                          Input orientation:                          
 ---------------------------------------------------------------------
 Center     Atomic      Atomic             Coordinates (Angstroms)
 Number     Number       Type             X           Y           Z
 ---------------------------------------------------------------------
      1          6           0       -2.468110    1.038986   -1.077490
      2          6           0       -2.449804    1.030746    0.411045
      3          1           0       -1.472591    0.855026    0.855759
      4          6           0       -3.417749    1.733915    1.324902
      5          1           0       -3.049084    2.744862    1.530004
      6          1           0       -4.419512    1.821604    0.894741
      7          1           0       -3.497980    1.201426    2.278991
      8          6           0       -3.605791    1.731874   -1.793740
      9          1           0       -4.572759    1.648578   -1.283331
     10          1           0       -3.372137    2.797802   -1.892785
     11          1           0       -3.709309    1.319439   -2.802049
     12          5           0       -1.039635    0.966929   -1.916974
     13          6           0       -0.355272    2.447970   -1.853292
     14          1           0       -0.270253    2.843172   -0.830802
     15          1           0        0.656296    2.438863   -2.284185
     16          1           0       -0.936640    3.185028   -2.429121
     17          8           0       -0.174265   -0.124728   -1.342187
     18          8           0       -1.248806    0.545371   -3.318625
     19          6           0       -0.824469   -0.790744   -3.491913
     20          6           0        0.302089   -0.946099   -2.416372
     21          6           0       -0.336586   -0.972702   -4.928800
     22          1           0       -1.185035   -0.890193   -5.618600
     23          1           0        0.393457   -0.205851   -5.202569
     24          1           0        0.119880   -1.959976   -5.072532
     25          6           0       -1.999935   -1.753171   -3.258863
     26          1           0       -1.739771   -2.785415   -3.522241
     27          1           0       -2.336051   -1.749852   -2.219636
     28          1           0       -2.839080   -1.440885   -3.891335
     29          6           0        1.647738   -0.396804   -2.905531
     30          1           0        2.345595   -0.373900   -2.063997
     31          1           0        2.080854   -1.036387   -3.683464
     32          1           0        1.548386    0.616331   -3.306127
     33          6           0        0.504039   -2.370727   -1.913653
     34          1           0       -0.398734   -2.758406   -1.437714
     35          1           0        0.781875   -3.034121   -2.742077
     36          1           0        1.312312   -2.397802   -1.173953
     37         15           0       -0.840800   -2.775764    1.466027
     38          8           0        0.280871   -1.746189    1.439927
     39          8           0       -2.042874   -2.598031    0.550675
     40          7           0       -2.912210   -0.178260   -0.307228
     41          1           0       -2.343052   -1.041186   -0.197805
     42          1           0       -3.911535   -0.365767   -0.259263
     43          3           0        0.713097   -0.271457    0.372300
     44          6           0        0.181521    0.826861    3.138356
     45          8           0        0.495756    1.245842    1.807176
     46          6           0        0.489488    2.676093    1.809741
     47          6           0        0.864555    3.113800    3.241266
     48          6           0        0.967751    1.787214    4.017932
     49          1           0       -0.902897    0.923154    3.306868
     50          1           0        0.457291   -0.223153    3.221437
     51          1           0        1.197317    3.011724    1.049046
     52          1           0       -0.512507    3.030828    1.533814
     53          1           0        1.803709    3.673560    3.260864
     54          1           0        0.084313    3.756565    3.659537
     55          1           0        2.009510    1.454839    4.086058
     56          1           0        0.561030    1.853375    5.030864
     57          6           0        3.320351   -0.700259    1.531855
     58          8           0        2.723500   -0.214881    0.316297
     59          6           0        3.247633    1.082154   -0.008513
     60          6           0        3.935434    1.579099    1.255664
     61          6           0        4.451280    0.269929    1.859639
     62          1           0        2.550455   -0.713930    2.310724
     63          1           0        3.661260   -1.724906    1.358570
     64          1           0        3.962770    0.977661   -0.835193
     65          1           0        2.417216    1.709447   -0.346371
     66          1           0        4.729245    2.299148    1.038596
     67          1           0        3.210513    2.048701    1.928292
     68          1           0        5.378954   -0.038141    1.363867
     69          1           0        4.639686    0.333571    2.935027
     70          6           0       -0.088444   -4.409218    1.143164
     71          6           0        1.301019   -4.560199    1.158526
     72          6           0       -0.892239   -5.523050    0.876499
     73          6           0        1.880805   -5.804226    0.910740
     74          1           0        1.925319   -3.692257    1.354009
     75          6           0       -0.316209   -6.767851    0.630985
     76          1           0       -1.973843   -5.413537    0.853003
     77          6           0        1.072326   -6.909618    0.647806
     78          1           0        2.962652   -5.910066    0.919204
     79          1           0       -0.948852   -7.626524    0.421589
     80          1           0        1.522531   -7.879713    0.453599
     81          6           0       -1.444130   -2.874125    3.191177
     82          6           0       -0.543266   -2.796811    4.260251
     83          6           0       -2.807418   -3.020404    3.461867
     84          6           0       -0.997031   -2.862394    5.575575
     85          1           0        0.519581   -2.680523    4.060804
     86          6           0       -3.265857   -3.084611    4.778377
     87          1           0       -3.509629   -3.077806    2.634212
     88          6           0       -2.361265   -3.005539    5.836255
     89          1           0       -0.288842   -2.800558    6.397934
     90          1           0       -4.328636   -3.196168    4.977638
     91          1           0       -2.716636   -3.056166    6.862175
 ---------------------------------------------------------------------
 Rotational constants (GHZ):           0.0929395           0.0757036           0.0673989
 Leave Link  202 at Fri Sep 19 16:05:56 2025, MaxMem=  4294967296 cpu:               0.1 elap:               0.0
 (Enter /opt/apps/Gaussian/G16C/g16/l301.exe)
 Standard basis: 6-311++G(d,p) (5D, 7F)
 Ernie: Thresh=  0.10000D-02 Tol=  0.10000D-05 Strict=F.
  1260 basis functions,  1940 primitive gaussians,  1301 cartesian basis functions
   157 alpha electrons      157 beta electrons
       nuclear repulsion energy      5697.3238748421 Hartrees.
 IExCor= 4639 DFT=T Ex+Corr=wB97XD ExCW=0 ScaHFX=  1.000000
 ScaDFX=  1.000000  1.000000  1.000000  1.000000 ScalE2=  1.000000  1.000000
 IRadAn=      5 IRanWt=     -1 IRanGd=            0 ICorTp=0 IEmpDi=121
 HFx  wShort=  0.000000 wLong=  0.200000 cFull=  0.222036 cShort=  0.000000 cLong=  0.777964
 DFx  wShort=  0.000000 wLong=  0.200000 cFull=  0.000000 cShort=  0.000000 cLong=  1.000000
 NAtoms=   91 NActive=   91 NUniq=   91 SFac= 1.00D+00 NAtFMM=   60 NAOKFM=T Big=T
 Integral buffers will be    131072 words long.
 Raffenetti 2 integral format.
 Two-electron integral symmetry is turned off.
 R6Disp:  Grimme-D2 Dispersion energy=       -0.1140186095 Hartrees.
 Nuclear repulsion after empirical dispersion term =     5697.2098562326 Hartrees.
 ------------------------------------------------------------------------------
 Polarizable Continuum Model (PCM)
 =================================
 Model                : PCM.
 Atomic radii         : SMD-Coulomb.
 Polarization charges : Total charges.
 Charge compensation  : None.
 Solution method      : On-the-fly selection.
 Cavity type          : VdW (van der Waals Surface) (Alpha=1.000).
 Cavity algorithm     : GePol (No added spheres)
                        Default sphere list used, NSphG=   91.
                        Lebedev-Laikov grids with approx.  5.0 points / Ang**2.
                        Smoothing algorithm: York/Karplus (Gamma=1.0000).
                        Polarization charges: spherical gaussians, with
                                              point-specific exponents (IZeta= 3).
                        Self-potential: point-specific (ISelfS= 7).
                        Self-field    : sphere-specific E.n sum rule (ISelfD= 2).
 Solvent              : TetraHydroFuran, Eps=   7.425700 Eps(inf)=   1.974025
 ------------------------------------------------------------------------------
 GePol: Number of generator spheres                  =      91
 GePol: Total number of spheres                      =      91
 GePol: Number of exposed spheres                    =      89 ( 97.80%)
 GePol: Number of points                             =    5441
 GePol: Average weight of points                     =       0.11
 GePol: Minimum weight of points                     =   0.11D-11
 GePol: Maximum weight of points                     =    0.17992
 GePol: Number of points with low weight             =     327
 GePol: Fraction of low-weight points (<1% of avg)   =       6.01%
 GePol: Cavity surface area                          =    590.273 Ang**2
 GePol: Cavity volume                                =    657.287 Ang**3
 ------------------------------------------------------------------------------
 Atomic radii for non-electrostatic terms: SMD-CDS.
 ------------------------------------------------------------------------------
 PCM non-electrostatic energy =        -0.0095752096 Hartrees.
 Nuclear repulsion after PCM non-electrostatic terms =     5697.2002810230 Hartrees.
 Leave Link  301 at Fri Sep 19 16:05:56 2025, MaxMem=  4294967296 cpu:               0.1 elap:               0.1
 (Enter /opt/apps/Gaussian/G16C/g16/l302.exe)
 NPDir=0 NMtPBC=     1 NCelOv=     1 NCel=       1 NClECP=     1 NCelD=      1
         NCelK=      1 NCelE2=     1 NClLst=     1 CellRange=     0.0.
 One-electron integrals computed using PRISM.
 NBasis=  1260 RedAO= T EigKep=  1.04D-06  NBF=  1260
 NBsUse=  1252 1.00D-06 EigRej=  8.15D-07 NBFU=  1252
 Precomputing XC quadrature grid using
 IXCGrd= 4 IRadAn=           5 IRanWt=          -1 IRanGd=           0 AccXCQ= 0.00D+00.
 Generated NRdTot=       0 NPtTot=           0 NUsed=           0 NTot=          32
 NSgBfM=  1263  1255  1259  1259  1263 MxSgAt=    91 MxSgA2=    91.
 Leave Link  302 at Fri Sep 19 16:06:00 2025, MaxMem=  4294967296 cpu:              23.6 elap:               3.6
 (Enter /opt/apps/Gaussian/G16C/g16/l303.exe)
 DipDrv:  MaxL=1.
 Leave Link  303 at Fri Sep 19 16:06:00 2025, MaxMem=  4294967296 cpu:               0.4 elap:               0.2
 (Enter /opt/apps/Gaussian/G16C/g16/l401.exe)
 ExpMin= 7.40D-03 ExpMax= 7.75D+04 ExpMxC= 2.65D+03 IAcc=3 IRadAn=         5 AccDes= 0.00D+00
 Harris functional with IExCor= 4639 and IRadAn=       5 diagonalized for initial guess.
 HarFok:  IExCor= 4639 AccDes= 0.00D+00 IRadAn=         5 IDoV= 1 UseB2=F ITyADJ=14
 ICtDFT=  3500011 ScaDFX=  1.000000  1.000000  1.000000  1.000000
 FoFCou: FMM=F IPFlag=           0 FMFlag=      100000 FMFlg1=        2001
         NFxFlg=           0 DoJE=T BraDBF=F KetDBF=T FulRan=T
         wScrn=  0.000000 ICntrl=       500 IOpCl=  0 I1Cent=   200000004 NGrid=           0
         NMat0=    1 NMatS0=      1 NMatT0=    0 NMatD0=    1 NMtDS0=    0 NMtDT0=    0
 Symmetry not used in FoFCou.
 Harris En= -2007.35097208074    
 JPrj=0 DoOrth=F DoCkMO=F.
 Leave Link  401 at Fri Sep 19 16:06:16 2025, MaxMem=  4294967296 cpu:             226.5 elap:              15.5
 (Enter /opt/apps/Gaussian/G16C/g16/l502.exe)
 Two-electron integral symmetry not used.
 Closed shell SCF:
 Using DIIS extrapolation, IDIIS=  1040.
 NGot=  4294967296 LenX=  4291549693 LenY=  4289855791
 Requested convergence on RMS density matrix=1.00D-08 within 128 cycles.
 Requested convergence on MAX density matrix=1.00D-06.
 Requested convergence on             energy=1.00D-06.
 No special actions if energy rises.
 Fock matrices will be formed incrementally for  20 cycles.

 Cycle   1  Pass 1  IDiag  1:
 FoFJK:  IHMeth= 1 ICntrl=       0 DoSepK=T KAlg= 0 I1Cent=           0 FoldK=F
 IRaf=         1 NMat=       1 IRICut=       1 DoRegI=T DoRafI=F ISym2E= 0 IDoP0=0 IntGTp=1.
 FoFCou: FMM=T IPFlag=           0 FMFlag=      100000 FMFlg1=        2001
         NFxFlg=           0 DoJE=T BraDBF=F KetDBF=F FulRan=T
         wScrn=  0.000000 ICntrl=       500 IOpCl=  0 I1Cent=           0 NGrid=           0
         NMat0=    1 NMatS0=      1 NMatT0=    0 NMatD0=    1 NMtDS0=    0 NMtDT0=    0
 Symmetry not used in FoFCou.
 FMM levels:  10  Number of levels for PrismC:   9
 Inv3:  Mode=1 IEnd=    88813443.
 Iteration    1 A*A^-1 deviation from unit magnitude is 6.55D-15 for   5425.
 Iteration    1 A*A^-1 deviation from orthogonality  is 2.78D-15 for   2134   1834.
 Iteration    1 A^-1*A deviation from unit magnitude is 6.77D-15 for   5425.
 Iteration    1 A^-1*A deviation from orthogonality  is 2.50D-15 for   5058   2956.
 E= -2090.83211056001    
 DIIS: error= 5.49D-02 at cycle   1 NSaved=   1.
 NSaved= 1 IEnMin= 1 EnMin= -2090.83211056001     IErMin= 1 ErrMin= 5.49D-02
 ErrMax= 5.49D-02  0.00D+00 EMaxC= 1.00D-01 BMatC= 4.70D+00 BMatP= 4.70D+00
 IDIUse=3 WtCom= 4.51D-01 WtEn= 5.49D-01
 Coeff-Com:  0.100D+01
 Coeff-En:   0.100D+01
 Coeff:      0.100D+01
 Gap=     0.339 Goal=   None    Shift=    0.000
 GapD=    0.339 DampG=1.000 DampE=0.500 DampFc=0.5000 IDamp=-1.
 Damping current iteration by 5.00D-01
 RMSDP=2.02D-02 MaxDP=5.53D+00              OVMax= 9.69D-02

 Cycle   2  Pass 1  IDiag  1:
 RMSU=  6.23D-03    CP:  8.65D-01
 E= -2091.15665343210     Delta-E=       -0.324542872090 Rises=F Damp=T
 DIIS: error= 2.58D-02 at cycle   2 NSaved=   2.
 NSaved= 2 IEnMin= 2 EnMin= -2091.15665343210     IErMin= 2 ErrMin= 2.58D-02
 ErrMax= 2.58D-02  0.00D+00 EMaxC= 1.00D-01 BMatC= 9.24D-01 BMatP= 4.70D+00
 IDIUse=3 WtCom= 7.42D-01 WtEn= 2.58D-01
 Coeff-Com: -0.631D+00 0.163D+01
 Coeff-En:   0.000D+00 0.100D+01
 Coeff:     -0.468D+00 0.147D+01
 Gap=     0.338 Goal=   None    Shift=    0.000
 RMSDP=1.36D-02 MaxDP=6.12D+00 DE=-3.25D-01 OVMax= 8.94D-02

 Cycle   3  Pass 1  IDiag  1:
 RMSU=  6.08D-03    CP:  6.57D-01  1.09D+00
 E= -2091.39123185049     Delta-E=       -0.234578418388 Rises=F Damp=F
 DIIS: error= 5.77D-03 at cycle   3 NSaved=   3.
 NSaved= 3 IEnMin= 3 EnMin= -2091.39123185049     IErMin= 3 ErrMin= 5.77D-03
 ErrMax= 5.77D-03  0.00D+00 EMaxC= 1.00D-01 BMatC= 1.26D-01 BMatP= 9.24D-01
 IDIUse=3 WtCom= 9.42D-01 WtEn= 5.77D-02
 Coeff-Com: -0.312D+00 0.694D+00 0.618D+00
 Coeff-En:   0.000D+00 0.000D+00 0.100D+01
 Coeff:     -0.294D+00 0.654D+00 0.640D+00
 Gap=     0.321 Goal=   None    Shift=    0.000
 RMSDP=3.55D-03 MaxDP=7.33D-01 DE=-2.35D-01 OVMax= 4.11D-02

 Cycle   4  Pass 1  IDiag  1:
 RMSU=  2.28D-03    CP:  6.46D-01  1.41D+00  7.09D-01
 E= -2091.47480888809     Delta-E=       -0.083577037606 Rises=F Damp=F
 DIIS: error= 1.44D-03 at cycle   4 NSaved=   4.
 NSaved= 4 IEnMin= 4 EnMin= -2091.47480888809     IErMin= 4 ErrMin= 1.44D-03
 ErrMax= 1.44D-03  0.00D+00 EMaxC= 1.00D-01 BMatC= 7.77D-03 BMatP= 1.26D-01
 IDIUse=3 WtCom= 9.86D-01 WtEn= 1.44D-02
 Coeff-Com: -0.997D-01 0.216D+00 0.292D+00 0.592D+00
 Coeff-En:   0.000D+00 0.000D+00 0.000D+00 0.100D+01
 Coeff:     -0.983D-01 0.213D+00 0.288D+00 0.598D+00
 Gap=     0.307 Goal=   None    Shift=    0.000
 RMSDP=7.68D-04 MaxDP=1.58D-01 DE=-8.36D-02 OVMax= 8.13D-03

 Cycle   5  Pass 1  IDiag  1:
 RMSU=  4.53D-04    CP:  6.52D-01  1.42D+00  7.46D-01  7.88D-01
 E= -2091.47963184982     Delta-E=       -0.004822961728 Rises=F Damp=F
 DIIS: error= 1.50D-04 at cycle   5 NSaved=   5.
 NSaved= 5 IEnMin= 5 EnMin= -2091.47963184982     IErMin= 5 ErrMin= 1.50D-04
 ErrMax= 1.50D-04  0.00D+00 EMaxC= 1.00D-01 BMatC= 1.45D-04 BMatP= 7.77D-03
 IDIUse=3 WtCom= 9.98D-01 WtEn= 1.50D-03
 Coeff-Com: -0.163D-01 0.342D-01 0.666D-01 0.190D+00 0.726D+00
 Coeff-En:   0.000D+00 0.000D+00 0.000D+00 0.000D+00 0.100D+01
 Coeff:     -0.162D-01 0.341D-01 0.665D-01 0.189D+00 0.726D+00
 Gap=     0.307 Goal=   None    Shift=    0.000
 RMSDP=2.52D-04 MaxDP=1.13D-01 DE=-4.82D-03 OVMax= 1.44D-03

 Cycle   6  Pass 1  IDiag  1:
 RMSU=  1.53D-04    CP:  6.49D-01  1.42D+00  7.68D-01  8.22D-01  1.06D+00
 E= -2091.47975589817     Delta-E=       -0.000124048352 Rises=F Damp=F
 DIIS: error= 8.44D-05 at cycle   6 NSaved=   6.
 NSaved= 6 IEnMin= 6 EnMin= -2091.47975589817     IErMin= 6 ErrMin= 8.44D-05
 ErrMax= 8.44D-05  0.00D+00 EMaxC= 1.00D-01 BMatC= 1.69D-05 BMatP= 1.45D-04
 IDIUse=1 WtCom= 1.00D+00 WtEn= 0.00D+00
 Coeff-Com:  0.601D-02-0.132D-01-0.105D-01-0.830D-02 0.239D+00 0.787D+00
 Coeff:      0.601D-02-0.132D-01-0.105D-01-0.830D-02 0.239D+00 0.787D+00
 Gap=     0.307 Goal=   None    Shift=    0.000
 RMSDP=9.95D-05 MaxDP=3.37D-02 DE=-1.24D-04 OVMax= 5.50D-04

 Cycle   7  Pass 1  IDiag  1:
 RMSU=  5.70D-05    CP:  6.49D-01  1.42D+00  7.75D-01  8.44D-01  1.15D+00
                    CP:  9.20D-01
 E= -2091.47977070085     Delta-E=       -0.000014802681 Rises=F Damp=F
 DIIS: error= 2.89D-05 at cycle   7 NSaved=   7.
 NSaved= 7 IEnMin= 7 EnMin= -2091.47977070085     IErMin= 7 ErrMin= 2.89D-05
 ErrMax= 2.89D-05  0.00D+00 EMaxC= 1.00D-01 BMatC= 2.46D-06 BMatP= 1.69D-05
 IDIUse=1 WtCom= 1.00D+00 WtEn= 0.00D+00
 Coeff-Com:  0.415D-02-0.893D-02-0.114D-01-0.246D-01 0.227D-01 0.339D+00
 Coeff-Com:  0.679D+00
 Coeff:      0.415D-02-0.893D-02-0.114D-01-0.246D-01 0.227D-01 0.339D+00
 Coeff:      0.679D+00
 Gap=     0.307 Goal=   None    Shift=    0.000
 RMSDP=4.02D-05 MaxDP=4.91D-03 DE=-1.48D-05 OVMax= 1.86D-04

 Cycle   8  Pass 1  IDiag  1:
 RMSU=  1.55D-05    CP:  6.49D-01  1.42D+00  7.76D-01  8.50D-01  1.19D+00
                    CP:  1.01D+00  9.37D-01
 E= -2091.47977287566     Delta-E=       -0.000002174803 Rises=F Damp=F
 DIIS: error= 6.33D-06 at cycle   8 NSaved=   8.
 NSaved= 8 IEnMin= 8 EnMin= -2091.47977287566     IErMin= 8 ErrMin= 6.33D-06
 ErrMax= 6.33D-06  0.00D+00 EMaxC= 1.00D-01 BMatC= 1.25D-07 BMatP= 2.46D-06
 IDIUse=1 WtCom= 1.00D+00 WtEn= 0.00D+00
 Coeff-Com:  0.610D-03-0.129D-02-0.212D-02-0.552D-02-0.131D-01 0.354D-01
 Coeff-Com:  0.203D+00 0.783D+00
 Coeff:      0.610D-03-0.129D-02-0.212D-02-0.552D-02-0.131D-01 0.354D-01
 Coeff:      0.203D+00 0.783D+00
 Gap=     0.307 Goal=   None    Shift=    0.000
 RMSDP=1.00D-05 MaxDP=2.61D-03 DE=-2.17D-06 OVMax= 8.56D-05

 Cycle   9  Pass 1  IDiag  1:
 RMSU=  5.17D-06    CP:  6.49D-01  1.42D+00  7.76D-01  8.51D-01  1.20D+00
                    CP:  1.04D+00  9.71D-01  1.12D+00
 E= -2091.47977300714     Delta-E=       -0.000000131478 Rises=F Damp=F
 DIIS: error= 3.35D-06 at cycle   9 NSaved=   9.
 NSaved= 9 IEnMin= 9 EnMin= -2091.47977300714     IErMin= 9 ErrMin= 3.35D-06
 ErrMax= 3.35D-06  0.00D+00 EMaxC= 1.00D-01 BMatC= 3.04D-08 BMatP= 1.25D-07
 IDIUse=1 WtCom= 1.00D+00 WtEn= 0.00D+00
 Coeff-Com: -0.208D-03 0.459D-03 0.391D-03 0.461D-03-0.963D-02-0.277D-01
 Coeff-Com:  0.487D-02 0.361D+00 0.670D+00
 Coeff:     -0.208D-03 0.459D-03 0.391D-03 0.461D-03-0.963D-02-0.277D-01
 Coeff:      0.487D-02 0.361D+00 0.670D+00
 Gap=     0.307 Goal=   None    Shift=    0.000
 RMSDP=4.53D-06 MaxDP=8.02D-04 DE=-1.31D-07 OVMax= 3.13D-05

 Cycle  10  Pass 1  IDiag  1:
 RMSU=  2.20D-06    CP:  6.49D-01  1.42D+00  7.76D-01  8.51D-01  1.20D+00
                    CP:  1.05D+00  9.99D-01  1.23D+00  1.04D+00
 E= -2091.47977303657     Delta-E=       -0.000000029434 Rises=F Damp=F
 DIIS: error= 8.03D-07 at cycle  10 NSaved=  10.
 NSaved=10 IEnMin=10 EnMin= -2091.47977303657     IErMin=10 ErrMin= 8.03D-07
 ErrMax= 8.03D-07  0.00D+00 EMaxC= 1.00D-01 BMatC= 2.00D-09 BMatP= 3.04D-08
 IDIUse=1 WtCom= 1.00D+00 WtEn= 0.00D+00
 Coeff-Com: -0.136D-03 0.294D-03 0.371D-03 0.764D-03-0.176D-02-0.129D-01
 Coeff-Com: -0.211D-01 0.413D-01 0.220D+00 0.773D+00
 Coeff:     -0.136D-03 0.294D-03 0.371D-03 0.764D-03-0.176D-02-0.129D-01
 Coeff:     -0.211D-01 0.413D-01 0.220D+00 0.773D+00
 Gap=     0.307 Goal=   None    Shift=    0.000
 RMSDP=1.49D-06 MaxDP=2.82D-04 DE=-2.94D-08 OVMax= 1.27D-05

 Cycle  11  Pass 1  IDiag  1:
 RMSU=  4.66D-07    CP:  6.49D-01  1.42D+00  7.76D-01  8.51D-01  1.20D+00
                    CP:  1.05D+00  1.01D+00  1.28D+00  1.16D+00  1.14D+00
 E= -2091.47977303916     Delta-E=       -0.000000002591 Rises=F Damp=F
 DIIS: error= 3.78D-07 at cycle  11 NSaved=  11.
 NSaved=11 IEnMin=11 EnMin= -2091.47977303916     IErMin=11 ErrMin= 3.78D-07
 ErrMax= 3.78D-07  0.00D+00 EMaxC= 1.00D-01 BMatC= 2.81D-10 BMatP= 2.00D-09
 IDIUse=1 WtCom= 1.00D+00 WtEn= 0.00D+00
 Coeff-Com: -0.602D-05 0.117D-04 0.401D-04 0.119D-03 0.879D-03 0.565D-03
 Coeff-Com: -0.750D-02-0.404D-01-0.362D-01 0.252D+00 0.830D+00
 Coeff:     -0.602D-05 0.117D-04 0.401D-04 0.119D-03 0.879D-03 0.565D-03
 Coeff:     -0.750D-02-0.404D-01-0.362D-01 0.252D+00 0.830D+00
 Gap=     0.307 Goal=   None    Shift=    0.000
 RMSDP=6.32D-07 MaxDP=1.25D-04 DE=-2.59D-09 OVMax= 5.92D-06

 Cycle  12  Pass 1  IDiag  1:
 RMSU=  2.28D-07    CP:  6.49D-01  1.42D+00  7.76D-01  8.52D-01  1.20D+00
                    CP:  1.05D+00  1.01D+00  1.30D+00  1.20D+00  1.25D+00
                    CP:  1.19D+00
 E= -2091.47977303912     Delta-E=        0.000000000037 Rises=F Damp=F
 DIIS: error= 1.11D-07 at cycle  12 NSaved=  12.
 NSaved=12 IEnMin=11 EnMin= -2091.47977303916     IErMin=12 ErrMin= 1.11D-07
 ErrMax= 1.11D-07  0.00D+00 EMaxC= 1.00D-01 BMatC= 4.07D-11 BMatP= 2.81D-10
 IDIUse=1 WtCom= 1.00D+00 WtEn= 0.00D+00
 Coeff-Com:  0.633D-05-0.144D-04-0.782D-05 0.241D-05 0.527D-03 0.125D-02
 Coeff-Com: -0.171D-02-0.208D-01-0.339D-01 0.436D-01 0.358D+00 0.654D+00
 Coeff:      0.633D-05-0.144D-04-0.782D-05 0.241D-05 0.527D-03 0.125D-02
 Coeff:     -0.171D-02-0.208D-01-0.339D-01 0.436D-01 0.358D+00 0.654D+00
 Gap=     0.307 Goal=   None    Shift=    0.000
 RMSDP=1.93D-07 MaxDP=2.48D-05 DE= 3.73D-11 OVMax= 1.43D-06

 Cycle  13  Pass 1  IDiag  1:
 RMSU=  7.85D-08    CP:  6.49D-01  1.42D+00  7.76D-01  8.52D-01  1.20D+00
                    CP:  1.05D+00  1.00D+00  1.30D+00  1.22D+00  1.28D+00
                    CP:  1.27D+00  9.11D-01
 E= -2091.47977303968     Delta-E=       -0.000000000558 Rises=F Damp=F
 DIIS: error= 4.38D-08 at cycle  13 NSaved=  13.
 NSaved=13 IEnMin=13 EnMin= -2091.47977303968     IErMin=13 ErrMin= 4.38D-08
 ErrMax= 4.38D-08  0.00D+00 EMaxC= 1.00D-01 BMatC= 4.93D-12 BMatP= 4.07D-11
 IDIUse=1 WtCom= 1.00D+00 WtEn= 0.00D+00
 Coeff-Com:  0.320D-05-0.698D-05-0.868D-05-0.128D-04 0.715D-04 0.374D-03
 Coeff-Com:  0.440D-03-0.193D-02-0.691D-02-0.211D-01 0.141D-01 0.246D+00
 Coeff-Com:  0.769D+00
 Coeff:      0.320D-05-0.698D-05-0.868D-05-0.128D-04 0.715D-04 0.374D-03
 Coeff:      0.440D-03-0.193D-02-0.691D-02-0.211D-01 0.141D-01 0.246D+00
 Coeff:      0.769D+00
 Gap=     0.307 Goal=   None    Shift=    0.000
 RMSDP=6.01D-08 MaxDP=1.32D-05 DE=-5.58D-10 OVMax= 7.55D-07

 Cycle  14  Pass 1  IDiag  1:
 RMSU=  2.58D-08    CP:  6.49D-01  1.42D+00  7.76D-01  8.52D-01  1.20D+00
                    CP:  1.05D+00  1.00D+00  1.30D+00  1.22D+00  1.29D+00
                    CP:  1.31D+00  1.03D+00  1.05D+00
 E= -2091.47977303932     Delta-E=        0.000000000360 Rises=F Damp=F
 DIIS: error= 1.66D-08 at cycle  14 NSaved=  14.
 NSaved=14 IEnMin=13 EnMin= -2091.47977303968     IErMin=14 ErrMin= 1.66D-08
 ErrMax= 1.66D-08  0.00D+00 EMaxC= 1.00D-01 BMatC= 9.77D-13 BMatP= 4.93D-12
 IDIUse=1 WtCom= 1.00D+00 WtEn= 0.00D+00
 Coeff-Com:  0.566D-06-0.110D-05-0.314D-05-0.720D-05-0.529D-04-0.229D-04
 Coeff-Com:  0.496D-03 0.238D-02 0.212D-02-0.173D-01-0.511D-01 0.655D-02
 Coeff-Com:  0.351D+00 0.706D+00
 Coeff:      0.566D-06-0.110D-05-0.314D-05-0.720D-05-0.529D-04-0.229D-04
 Coeff:      0.496D-03 0.238D-02 0.212D-02-0.173D-01-0.511D-01 0.655D-02
 Coeff:      0.351D+00 0.706D+00
 Gap=     0.307 Goal=   None    Shift=    0.000
 RMSDP=2.88D-08 MaxDP=4.69D-06 DE= 3.60D-10 OVMax= 2.94D-07

 Cycle  15  Pass 1  IDiag  1:
 RMSU=  1.06D-08    CP:  6.49D-01  1.42D+00  7.76D-01  8.52D-01  1.20D+00
                    CP:  1.05D+00  1.00D+00  1.30D+00  1.22D+00  1.29D+00
                    CP:  1.33D+00  1.06D+00  1.18D+00  1.01D+00
 E= -2091.47977303966     Delta-E=       -0.000000000343 Rises=F Damp=F
 DIIS: error= 6.13D-09 at cycle  15 NSaved=  15.
 NSaved=15 IEnMin=13 EnMin= -2091.47977303968     IErMin=15 ErrMin= 6.13D-09
 ErrMax= 6.13D-09  0.00D+00 EMaxC= 1.00D-01 BMatC= 6.60D-14 BMatP= 9.77D-13
 IDIUse=1 WtCom= 1.00D+00 WtEn= 0.00D+00
 Coeff-Com: -0.121D-06 0.297D-06-0.536D-07-0.113D-05-0.206D-04-0.388D-04
 Coeff-Com:  0.100D-03 0.857D-03 0.122D-02-0.261D-02-0.165D-01-0.217D-01
 Coeff-Com:  0.236D-01 0.205D+00 0.810D+00
 Coeff:     -0.121D-06 0.297D-06-0.536D-07-0.113D-05-0.206D-04-0.388D-04
 Coeff:      0.100D-03 0.857D-03 0.122D-02-0.261D-02-0.165D-01-0.217D-01
 Coeff:      0.236D-01 0.205D+00 0.810D+00
 Gap=     0.307 Goal=   None    Shift=    0.000
 RMSDP=7.37D-09 MaxDP=1.31D-06 DE=-3.43D-10 OVMax= 1.15D-07

 Cycle  16  Pass 1  IDiag  1:
 RMSU=  4.14D-09    CP:  6.49D-01  1.42D+00  7.76D-01  8.52D-01  1.20D+00
                    CP:  1.05D+00  1.00D+00  1.30D+00  1.22D+00  1.29D+00
                    CP:  1.34D+00  1.08D+00  1.20D+00  1.12D+00  1.12D+00
 E= -2091.47977303944     Delta-E=        0.000000000220 Rises=F Damp=F
 DIIS: error= 3.58D-09 at cycle  16 NSaved=  16.
 NSaved=16 IEnMin=13 EnMin= -2091.47977303968     IErMin=16 ErrMin= 3.58D-09
 ErrMax= 3.58D-09  0.00D+00 EMaxC= 1.00D-01 BMatC= 1.62D-14 BMatP= 6.60D-14
 IDIUse=1 WtCom= 1.00D+00 WtEn= 0.00D+00
 Coeff-Com: -0.137D-06 0.291D-06 0.445D-06 0.459D-06-0.969D-06-0.136D-04
 Coeff-Com: -0.330D-04 0.110D-04 0.202D-03 0.156D-02 0.635D-03-0.956D-02
 Coeff-Com: -0.445D-01-0.246D-01 0.353D+00 0.723D+00
 Coeff:     -0.137D-06 0.291D-06 0.445D-06 0.459D-06-0.969D-06-0.136D-04
 Coeff:     -0.330D-04 0.110D-04 0.202D-03 0.156D-02 0.635D-03-0.956D-02
 Coeff:     -0.445D-01-0.246D-01 0.353D+00 0.723D+00
 Gap=     0.307 Goal=   None    Shift=    0.000
 RMSDP=3.24D-09 MaxDP=4.37D-07 DE= 2.20D-10 OVMax= 5.18D-08

 Error on total polarization charges =  0.07790
 SCF Done:  E(RwB97XD) =  -2091.47977304     A.U. after   16 cycles
            NFock= 16  Conv=0.32D-08     -V/T= 2.0040
 KE= 2.083111875522D+03 PE=-1.628924257515D+04 EE= 6.417450645563D+03
 SMD-CDS (non-electrostatic) energy       (kcal/mol) =      -6.01
 (included in total energy above)
 Leave Link  502 at Fri Sep 19 16:45:31 2025, MaxMem=  4294967296 cpu:           33602.2 elap:            2355.6
 (Enter /opt/apps/Gaussian/G16C/g16/l601.exe)
 Copying SCF densities to generalized density rwf, IOpCl= 0 IROHF=0.

 **********************************************************************

            Population analysis using the SCF Density.

 **********************************************************************

 Alpha  occ. eigenvalues --  -77.26699 -19.26075 -19.25305 -19.20098 -19.18083
 Alpha  occ. eigenvalues --  -19.17826 -19.17734 -14.49238 -10.32609 -10.32563
 Alpha  occ. eigenvalues --  -10.32350 -10.32095 -10.31967 -10.31638 -10.31177
 Alpha  occ. eigenvalues --  -10.29964 -10.29008 -10.28996 -10.28868 -10.28837
 Alpha  occ. eigenvalues --  -10.28789 -10.28784 -10.28741 -10.28645 -10.28578
 Alpha  occ. eigenvalues --  -10.28570 -10.28517 -10.28322 -10.27926 -10.27870
 Alpha  occ. eigenvalues --  -10.27854 -10.27830 -10.27788 -10.26614 -10.25018
 Alpha  occ. eigenvalues --  -10.24709 -10.24680 -10.24655 -10.21370  -6.81483
 Alpha  occ. eigenvalues --   -6.71025  -4.85739  -4.85722  -4.85701  -1.98312
 Alpha  occ. eigenvalues --   -1.15123  -1.14159  -1.10856  -1.09430  -1.07363
 Alpha  occ. eigenvalues --   -1.03934  -1.01430  -0.95792  -0.95536  -0.88359
 Alpha  occ. eigenvalues --   -0.87960  -0.87401  -0.85414  -0.85126  -0.84601
 Alpha  occ. eigenvalues --   -0.84366  -0.84215  -0.83842  -0.83347  -0.82829
 Alpha  occ. eigenvalues --   -0.81925  -0.77839  -0.76636  -0.75223  -0.74931
 Alpha  occ. eigenvalues --   -0.71620  -0.69811  -0.69445  -0.69128  -0.68975
 Alpha  occ. eigenvalues --   -0.68860  -0.68543  -0.68312  -0.68230  -0.65999
 Alpha  occ. eigenvalues --   -0.64151  -0.63447  -0.60927  -0.60681  -0.60451
 Alpha  occ. eigenvalues --   -0.59461  -0.58800  -0.58333  -0.58171  -0.58056
 Alpha  occ. eigenvalues --   -0.56727  -0.54221  -0.54023  -0.53782  -0.53569
 Alpha  occ. eigenvalues --   -0.53493  -0.52882  -0.52675  -0.52235  -0.52005
 Alpha  occ. eigenvalues --   -0.51280  -0.51058  -0.50716  -0.50530  -0.50429
 Alpha  occ. eigenvalues --   -0.50239  -0.50158  -0.50052  -0.49473  -0.48863
 Alpha  occ. eigenvalues --   -0.48525  -0.48147  -0.47593  -0.47188  -0.46681
 Alpha  occ. eigenvalues --   -0.46329  -0.46261  -0.45839  -0.45813  -0.45620
 Alpha  occ. eigenvalues --   -0.45126  -0.44545  -0.44105  -0.43784  -0.43714
 Alpha  occ. eigenvalues --   -0.43366  -0.43217  -0.43189  -0.43078  -0.42820
 Alpha  occ. eigenvalues --   -0.42447  -0.42174  -0.42158  -0.41906  -0.41763
 Alpha  occ. eigenvalues --   -0.41475  -0.41147  -0.40947  -0.40476  -0.40421
 Alpha  occ. eigenvalues --   -0.39946  -0.38350  -0.38163  -0.37249  -0.36780
 Alpha  occ. eigenvalues --   -0.35952  -0.35249  -0.34777  -0.34307  -0.34053
 Alpha  occ. eigenvalues --   -0.33959  -0.33407  -0.33083  -0.32923  -0.31740
 Alpha  occ. eigenvalues --   -0.31141  -0.28416
 Alpha virt. eigenvalues --    0.02311   0.02483   0.02658   0.02743   0.03172
 Alpha virt. eigenvalues --    0.04811   0.05380   0.05609   0.05712   0.05775
 Alpha virt. eigenvalues --    0.05970   0.06042   0.06181   0.06871   0.06938
 Alpha virt. eigenvalues --    0.07105   0.07237   0.07245   0.07406   0.07526
 Alpha virt. eigenvalues --    0.07654   0.07959   0.08002   0.08229   0.08637
 Alpha virt. eigenvalues --    0.08720   0.08867   0.09224   0.09551   0.09676
 Alpha virt. eigenvalues --    0.09749   0.10074   0.10404   0.10635   0.10770
 Alpha virt. eigenvalues --    0.11357   0.11385   0.11730   0.11873   0.12141
 Alpha virt. eigenvalues --    0.12585   0.12716   0.12845   0.13000   0.13207
 Alpha virt. eigenvalues --    0.13370   0.13807   0.14005   0.14282   0.14498
 Alpha virt. eigenvalues --    0.14622   0.14687   0.14864   0.14990   0.15179
 Alpha virt. eigenvalues --    0.15451   0.15602   0.15776   0.16282   0.16427
 Alpha virt. eigenvalues --    0.16556   0.16670   0.16679   0.16907   0.16989
 Alpha virt. eigenvalues --    0.17090   0.17258   0.17384   0.17527   0.17665
 Alpha virt. eigenvalues --    0.17764   0.17948   0.18110   0.18243   0.18485
 Alpha virt. eigenvalues --    0.18515   0.18552   0.18695   0.18747   0.18836
 Alpha virt. eigenvalues --    0.19006   0.19091   0.19265   0.19408   0.19761
 Alpha virt. eigenvalues --    0.19805   0.19877   0.20126   0.20179   0.20315
 Alpha virt. eigenvalues --    0.20504   0.20550   0.20657   0.20792   0.20854
 Alpha virt. eigenvalues --    0.21106   0.21158   0.21286   0.21449   0.21495
 Alpha virt. eigenvalues --    0.21656   0.21785   0.22039   0.22102   0.22212
 Alpha virt. eigenvalues --    0.22260   0.22370   0.22484   0.22504   0.22626
 Alpha virt. eigenvalues --    0.22888   0.23003   0.23084   0.23200   0.23462
 Alpha virt. eigenvalues --    0.23662   0.23724   0.23808   0.23940   0.24181
 Alpha virt. eigenvalues --    0.24367   0.24519   0.24591   0.24744   0.24819
 Alpha virt. eigenvalues --    0.25014   0.25026   0.25335   0.25427   0.25700
 Alpha virt. eigenvalues --    0.25829   0.25855   0.25933   0.26058   0.26195
 Alpha virt. eigenvalues --    0.26233   0.26384   0.26501   0.26849   0.26894
 Alpha virt. eigenvalues --    0.26935   0.27150   0.27258   0.27442   0.27712
 Alpha virt. eigenvalues --    0.27796   0.27871   0.28019   0.28142   0.28298
 Alpha virt. eigenvalues --    0.28460   0.28602   0.28679   0.28856   0.28995
 Alpha virt. eigenvalues --    0.29240   0.29400   0.29442   0.29669   0.29847
 Alpha virt. eigenvalues --    0.29991   0.30085   0.30106   0.30216   0.30308
 Alpha virt. eigenvalues --    0.30418   0.30608   0.30775   0.30827   0.31044
 Alpha virt. eigenvalues --    0.31241   0.31321   0.31752   0.31819   0.32028
 Alpha virt. eigenvalues --    0.32217   0.32271   0.32396   0.32573   0.32595
 Alpha virt. eigenvalues --    0.32979   0.33325   0.33397   0.33610   0.33651
 Alpha virt. eigenvalues --    0.33878   0.34030   0.34235   0.34348   0.34411
 Alpha virt. eigenvalues --    0.34651   0.34806   0.35045   0.35173   0.35288
 Alpha virt. eigenvalues --    0.35506   0.35622   0.36032   0.36266   0.36363
 Alpha virt. eigenvalues --    0.36441   0.36475   0.36771   0.37113   0.37188
 Alpha virt. eigenvalues --    0.37209   0.37603   0.37639   0.37920   0.38014
 Alpha virt. eigenvalues --    0.38139   0.38387   0.38442   0.38654   0.38866
 Alpha virt. eigenvalues --    0.39087   0.39151   0.39214   0.39304   0.39440
 Alpha virt. eigenvalues --    0.39808   0.39837   0.39993   0.40104   0.40339
 Alpha virt. eigenvalues --    0.40569   0.40662   0.40908   0.41088   0.41098
 Alpha virt. eigenvalues --    0.41365   0.41501   0.41733   0.41800   0.41923
 Alpha virt. eigenvalues --    0.42081   0.42513   0.42561   0.43021   0.43097
 Alpha virt. eigenvalues --    0.43333   0.43537   0.43728   0.44014   0.44191
 Alpha virt. eigenvalues --    0.44483   0.44608   0.44773   0.44917   0.45206
 Alpha virt. eigenvalues --    0.45324   0.45392   0.45538   0.45971   0.46140
 Alpha virt. eigenvalues --    0.46204   0.46469   0.46742   0.46870   0.47081
 Alpha virt. eigenvalues --    0.47390   0.47795   0.48147   0.48242   0.48341
 Alpha virt. eigenvalues --    0.48558   0.48862   0.48927   0.49360   0.49447
 Alpha virt. eigenvalues --    0.49815   0.50119   0.50562   0.50650   0.51202
 Alpha virt. eigenvalues --    0.51640   0.51706   0.51889   0.52321   0.52549
 Alpha virt. eigenvalues --    0.52824   0.53010   0.53368   0.53802   0.53855
 Alpha virt. eigenvalues --    0.54273   0.54727   0.55118   0.55308   0.55583
 Alpha virt. eigenvalues --    0.55986   0.56450   0.56779   0.57040   0.57631
 Alpha virt. eigenvalues --    0.57964   0.58098   0.58595   0.58840   0.59328
 Alpha virt. eigenvalues --    0.60083   0.60595   0.60769   0.61180   0.61562
 Alpha virt. eigenvalues --    0.62004   0.62255   0.62442   0.62791   0.62938
 Alpha virt. eigenvalues --    0.63225   0.63380   0.63500   0.64142   0.64431
 Alpha virt. eigenvalues --    0.64508   0.64861   0.65276   0.65391   0.65509
 Alpha virt. eigenvalues --    0.66131   0.66253   0.66431   0.66704   0.67087
 Alpha virt. eigenvalues --    0.67602   0.67841   0.68043   0.68154   0.68635
 Alpha virt. eigenvalues --    0.68859   0.68948   0.69082   0.69727   0.69866
 Alpha virt. eigenvalues --    0.70070   0.70287   0.70443   0.70838   0.71051
 Alpha virt. eigenvalues --    0.71274   0.71515   0.71733   0.72082   0.72259
 Alpha virt. eigenvalues --    0.72592   0.73059   0.73336   0.73385   0.73732
 Alpha virt. eigenvalues --    0.74113   0.74214   0.74669   0.74985   0.75083
 Alpha virt. eigenvalues --    0.75313   0.75455   0.75752   0.75970   0.76390
 Alpha virt. eigenvalues --    0.76856   0.77128   0.77540   0.77692   0.77773
 Alpha virt. eigenvalues --    0.78068   0.78426   0.78570   0.78931   0.79128
 Alpha virt. eigenvalues --    0.79573   0.79776   0.80051   0.80163   0.80300
 Alpha virt. eigenvalues --    0.80573   0.80665   0.80987   0.81186   0.81321
 Alpha virt. eigenvalues --    0.81893   0.82084   0.82486   0.82790   0.82891
 Alpha virt. eigenvalues --    0.82986   0.83094   0.83401   0.83450   0.83798
 Alpha virt. eigenvalues --    0.84100   0.84222   0.84517   0.84800   0.85151
 Alpha virt. eigenvalues --    0.85345   0.85545   0.85894   0.85998   0.86151
 Alpha virt. eigenvalues --    0.86493   0.86631   0.86936   0.87183   0.87288
 Alpha virt. eigenvalues --    0.87601   0.87849   0.88098   0.88183   0.88425
 Alpha virt. eigenvalues --    0.88643   0.88999   0.89025   0.89359   0.89657
 Alpha virt. eigenvalues --    0.89807   0.90201   0.90622   0.90867   0.90956
 Alpha virt. eigenvalues --    0.91247   0.91342   0.91559   0.91770   0.92109
 Alpha virt. eigenvalues --    0.92455   0.92606   0.92940   0.93153   0.94147
 Alpha virt. eigenvalues --    0.94331   0.94536   0.94812   0.94873   0.95198
 Alpha virt. eigenvalues --    0.95321   0.95614   0.96039   0.96308   0.96824
 Alpha virt. eigenvalues --    0.96956   0.97052   0.97526   0.97868   0.98018
 Alpha virt. eigenvalues --    0.98295   0.98544   0.98948   0.99069   0.99283
 Alpha virt. eigenvalues --    0.99673   1.00125   1.00769   1.00816   1.01191
 Alpha virt. eigenvalues --    1.01844   1.02425   1.02653   1.03434   1.03563
 Alpha virt. eigenvalues --    1.04077   1.04554   1.05222   1.05558   1.05831
 Alpha virt. eigenvalues --    1.06859   1.07638   1.08233   1.08711   1.08994
 Alpha virt. eigenvalues --    1.09239   1.09620   1.10303   1.10503   1.10783
 Alpha virt. eigenvalues --    1.11128   1.11441   1.11744   1.12872   1.13242
 Alpha virt. eigenvalues --    1.13559   1.13963   1.14462   1.14967   1.15427
 Alpha virt. eigenvalues --    1.15709   1.16155   1.16535   1.17590   1.17944
 Alpha virt. eigenvalues --    1.18576   1.18806   1.19146   1.19544   1.20211
 Alpha virt. eigenvalues --    1.20771   1.21422   1.21698   1.22110   1.22726
 Alpha virt. eigenvalues --    1.22993   1.24061   1.24176   1.24645   1.25399
 Alpha virt. eigenvalues --    1.25781   1.26413   1.26717   1.27437   1.27558
 Alpha virt. eigenvalues --    1.28459   1.28696   1.29385   1.30180   1.30634
 Alpha virt. eigenvalues --    1.31136   1.31352   1.31598   1.32211   1.32445
 Alpha virt. eigenvalues --    1.32801   1.33916   1.34496   1.34850   1.35338
 Alpha virt. eigenvalues --    1.35873   1.36648   1.37074   1.38120   1.38842
 Alpha virt. eigenvalues --    1.39301   1.39989   1.40373   1.40822   1.41166
 Alpha virt. eigenvalues --    1.42050   1.42223   1.42366   1.43070   1.43471
 Alpha virt. eigenvalues --    1.44338   1.44860   1.45934   1.46484   1.47089
 Alpha virt. eigenvalues --    1.47600   1.48297   1.49006   1.50127   1.51046
 Alpha virt. eigenvalues --    1.51545   1.52035   1.52817   1.53146   1.53779
 Alpha virt. eigenvalues --    1.54042   1.54422   1.55024   1.55258   1.55646
 Alpha virt. eigenvalues --    1.56234   1.56734   1.57368   1.57861   1.58647
 Alpha virt. eigenvalues --    1.59293   1.59397   1.60013   1.60738   1.60937
 Alpha virt. eigenvalues --    1.61242   1.61487   1.62343   1.62896   1.63091
 Alpha virt. eigenvalues --    1.63392   1.63645   1.64029   1.64494   1.64978
 Alpha virt. eigenvalues --    1.65101   1.65493   1.65982   1.66243   1.66441
 Alpha virt. eigenvalues --    1.66739   1.66915   1.67168   1.67343   1.67786
 Alpha virt. eigenvalues --    1.68496   1.68774   1.69109   1.69302   1.69781
 Alpha virt. eigenvalues --    1.69996   1.70229   1.70809   1.70911   1.71219
 Alpha virt. eigenvalues --    1.71739   1.72252   1.72456   1.72789   1.73068
 Alpha virt. eigenvalues --    1.73303   1.73589   1.74186   1.74302   1.74771
 Alpha virt. eigenvalues --    1.75341   1.75388   1.75526   1.75800   1.76005
 Alpha virt. eigenvalues --    1.76483   1.76765   1.77057   1.77361   1.77637
 Alpha virt. eigenvalues --    1.77873   1.78388   1.78675   1.78835   1.79384
 Alpha virt. eigenvalues --    1.79536   1.79637   1.80292   1.80573   1.81070
 Alpha virt. eigenvalues --    1.81898   1.82506   1.82581   1.82673   1.83130
 Alpha virt. eigenvalues --    1.83207   1.83979   1.84049   1.84199   1.84468
 Alpha virt. eigenvalues --    1.84668   1.84947   1.85271   1.85915   1.86090
 Alpha virt. eigenvalues --    1.86309   1.86521   1.86928   1.87151   1.87361
 Alpha virt. eigenvalues --    1.87919   1.88059   1.88451   1.88851   1.89084
 Alpha virt. eigenvalues --    1.89655   1.90004   1.90417   1.91048   1.91328
 Alpha virt. eigenvalues --    1.91701   1.92419   1.92629   1.93070   1.93331
 Alpha virt. eigenvalues --    1.93680   1.93927   1.94476   1.94875   1.95150
 Alpha virt. eigenvalues --    1.95754   1.95917   1.95986   1.96505   1.97063
 Alpha virt. eigenvalues --    1.97484   1.98075   1.98411   1.98939   1.99193
 Alpha virt. eigenvalues --    1.99586   2.00058   2.00608   2.00917   2.01114
 Alpha virt. eigenvalues --    2.02151   2.02317   2.02762   2.02890   2.03123
 Alpha virt. eigenvalues --    2.03487   2.03636   2.04491   2.04881   2.05333
 Alpha virt. eigenvalues --    2.05579   2.05875   2.06174   2.06826   2.06940
 Alpha virt. eigenvalues --    2.07890   2.08050   2.08698   2.09128   2.09607
 Alpha virt. eigenvalues --    2.09653   2.09784   2.10286   2.10516   2.11043
 Alpha virt. eigenvalues --    2.11292   2.11787   2.12038   2.12265   2.12743
 Alpha virt. eigenvalues --    2.13216   2.13835   2.14556   2.15015   2.15679
 Alpha virt. eigenvalues --    2.16042   2.16225   2.16414   2.17622   2.18039
 Alpha virt. eigenvalues --    2.18380   2.18434   2.19071   2.19426   2.20052
 Alpha virt. eigenvalues --    2.20707   2.21245   2.22231   2.22913   2.23273
 Alpha virt. eigenvalues --    2.23609   2.24516   2.24870   2.25849   2.26312
 Alpha virt. eigenvalues --    2.27021   2.27263   2.28282   2.28596   2.29358
 Alpha virt. eigenvalues --    2.29867   2.30172   2.30721   2.32058   2.32291
 Alpha virt. eigenvalues --    2.32873   2.33509   2.34183   2.34507   2.35398
 Alpha virt. eigenvalues --    2.35653   2.36748   2.38591   2.38681   2.39124
 Alpha virt. eigenvalues --    2.40997   2.41285   2.41543   2.41751   2.42166
 Alpha virt. eigenvalues --    2.42664   2.42923   2.43170   2.43412   2.43767
 Alpha virt. eigenvalues --    2.44054   2.44575   2.45526   2.46381   2.46962
 Alpha virt. eigenvalues --    2.47977   2.48194   2.48782   2.49379   2.50169
 Alpha virt. eigenvalues --    2.51247   2.52176   2.52736   2.53454   2.53516
 Alpha virt. eigenvalues --    2.54795   2.55492   2.56555   2.57682   2.58235
 Alpha virt. eigenvalues --    2.59188   2.59772   2.60047   2.60221   2.60605
 Alpha virt. eigenvalues --    2.60952   2.61625   2.61968   2.63314   2.63579
 Alpha virt. eigenvalues --    2.64028   2.64270   2.64789   2.65350   2.65906
 Alpha virt. eigenvalues --    2.66285   2.66858   2.67164   2.67981   2.68405
 Alpha virt. eigenvalues --    2.68546   2.69816   2.70145   2.70517   2.70890
 Alpha virt. eigenvalues --    2.71305   2.71850   2.72375   2.72875   2.73468
 Alpha virt. eigenvalues --    2.74107   2.74169   2.74458   2.74795   2.75070
 Alpha virt. eigenvalues --    2.75730   2.76076   2.76676   2.77259   2.77753
 Alpha virt. eigenvalues --    2.77862   2.78916   2.79327   2.80196   2.80429
 Alpha virt. eigenvalues --    2.81372   2.81458   2.82149   2.82365   2.82860
 Alpha virt. eigenvalues --    2.83527   2.83791   2.84128   2.84635   2.85459
 Alpha virt. eigenvalues --    2.85957   2.86195   2.86485   2.86743   2.87476
 Alpha virt. eigenvalues --    2.87788   2.88030   2.88247   2.88948   2.89819
 Alpha virt. eigenvalues --    2.90330   2.90449   2.90668   2.91182   2.92143
 Alpha virt. eigenvalues --    2.92331   2.92698   2.93028   2.93575   2.93767
 Alpha virt. eigenvalues --    2.93922   2.94137   2.94702   2.95290   2.95544
 Alpha virt. eigenvalues --    2.95940   2.96508   2.96758   2.97057   2.97843
 Alpha virt. eigenvalues --    2.98260   2.98641   2.99042   2.99462   2.99655
 Alpha virt. eigenvalues --    2.99869   3.00636   3.00828   3.01221   3.01742
 Alpha virt. eigenvalues --    3.02063   3.02508   3.03140   3.03552   3.04069
 Alpha virt. eigenvalues --    3.04340   3.05762   3.06097   3.06366   3.06745
 Alpha virt. eigenvalues --    3.07145   3.07399   3.08106   3.08475   3.08740
 Alpha virt. eigenvalues --    3.08953   3.09692   3.10309   3.10663   3.11693
 Alpha virt. eigenvalues --    3.12354   3.12886   3.13443   3.13677   3.15642
 Alpha virt. eigenvalues --    3.16737   3.17313   3.17968   3.18303   3.19075
 Alpha virt. eigenvalues --    3.19986   3.20520   3.20741   3.20973   3.21665
 Alpha virt. eigenvalues --    3.22469   3.23180   3.23578   3.23739   3.24919
 Alpha virt. eigenvalues --    3.25990   3.26840   3.27128   3.28393   3.28861
 Alpha virt. eigenvalues --    3.29267   3.30236   3.30659   3.31675   3.32819
 Alpha virt. eigenvalues --    3.33162   3.34749   3.34875   3.35294   3.36079
 Alpha virt. eigenvalues --    3.36559   3.38107   3.38242   3.40226   3.40825
 Alpha virt. eigenvalues --    3.41929   3.42088   3.42767   3.43467   3.44399
 Alpha virt. eigenvalues --    3.45126   3.46353   3.47860   3.48610   3.49643
 Alpha virt. eigenvalues --    3.50248   3.50770   3.51924   3.52669   3.53336
 Alpha virt. eigenvalues --    3.54350   3.55809   3.60737   3.63587   3.64021
 Alpha virt. eigenvalues --    3.64330   3.65242   3.66900   3.67730   3.69519
 Alpha virt. eigenvalues --    3.73951   3.74649   3.75832   3.78351   3.79649
 Alpha virt. eigenvalues --    3.83310   3.83398   3.87666   3.89590   3.89778
 Alpha virt. eigenvalues --    3.90533   3.91734   3.91976   3.92806   3.93315
 Alpha virt. eigenvalues --    3.94320   3.94551   3.95556   3.95899   3.96640
 Alpha virt. eigenvalues --    3.97830   3.98701   3.98905   3.99657   4.00756
 Alpha virt. eigenvalues --    4.01290   4.03715   4.03827   4.06435   4.08893
 Alpha virt. eigenvalues --    4.10746   4.12434   4.13983   4.15392   4.15629
 Alpha virt. eigenvalues --    4.16344   4.18373   4.20251   4.20626   4.23405
 Alpha virt. eigenvalues --    4.25471   4.26404   4.28098   4.28744   4.29146
 Alpha virt. eigenvalues --    4.30512   4.31693   4.32315   4.34959   4.37313
 Alpha virt. eigenvalues --    4.39592   4.42222   4.43046   4.44370   4.47605
 Alpha virt. eigenvalues --    4.48346   4.53585   4.70703   4.85442   4.87532
 Alpha virt. eigenvalues --    4.95324   4.96052   5.11868   5.38177   5.41026
 Alpha virt. eigenvalues --    5.42301   5.43374   5.48423   5.48689   5.51123
 Alpha virt. eigenvalues --    5.51785   5.57521   5.59209   5.63947   5.65941
 Alpha virt. eigenvalues --    5.71492   5.73626   5.77151   5.80221   5.82349
 Alpha virt. eigenvalues --    5.89734   7.69096  14.36454  14.39745  14.49084
 Alpha virt. eigenvalues --   14.96536  23.78614  23.79424  23.95731  23.99427
 Alpha virt. eigenvalues --   24.01565  24.03028  24.03661  24.05619  24.06173
 Alpha virt. eigenvalues --   24.07263  24.10634  24.10915  24.12034  24.12171
 Alpha virt. eigenvalues --   24.12788  24.13529  24.13756  24.14395  24.15252
 Alpha virt. eigenvalues --   24.16147  24.18051  24.18688  24.19664  24.20766
 Alpha virt. eigenvalues --   24.21443  24.22069  24.23116  24.23255  24.23591
 Alpha virt. eigenvalues --   24.32575  24.33064  35.74516  50.15251  50.17018
 Alpha virt. eigenvalues --   50.19663  50.22685  50.25580  50.25772 163.94718
          Condensed to atoms (all electrons):
 Mulliken charges:
               1
     1  C   -0.193493
     2  C    0.441802
     3  H   -0.793099
     4  C   -0.372324
     5  H    0.232172
     6  H    0.185473
     7  H    0.202976
     8  C   -0.625110
     9  H    0.130680
    10  H    0.223852
    11  H    0.216848
    12  B    1.021146
    13  C   -0.776840
    14  H    0.229916
    15  H    0.143438
    16  H    0.157456
    17  O   -0.015371
    18  O   -0.147881
    19  C    0.112274
    20  C   -0.571387
    21  C   -0.726962
    22  H    0.188505
    23  H    0.188303
    24  H    0.191445
    25  C   -0.455488
    26  H    0.213256
    27  H    0.061105
    28  H    0.211846
    29  C   -0.365137
    30  H    0.114703
    31  H    0.218659
    32  H    0.167512
    33  C   -0.993759
    34  H    0.107930
    35  H    0.252691
    36  H    0.161852
    37  P   -0.273575
    38  O   -0.116887
    39  O   -0.272008
    40  N   -0.409737
    41  H    0.411104
    42  H    0.477520
    43  Li  -0.777141
    44  C    0.069867
    45  O    0.240460
    46  C   -0.201000
    47  C   -0.535895
    48  C   -0.628480
    49  H    0.227186
    50  H    0.094456
    51  H    0.193167
    52  H    0.127156
    53  H    0.256457
    54  H    0.216958
    55  H    0.213419
    56  H    0.246655
    57  C    0.118186
    58  O    0.211630
    59  C   -0.088969
    60  C   -0.428918
    61  C   -0.834460
    62  H   -0.006002
    63  H    0.148862
    64  H    0.217960
    65  H    0.290853
    66  H    0.258659
    67  H    0.072498
    68  H    0.217082
    69  H    0.217602
    70  C   -0.166340
    71  C    0.330969
    72  C   -0.085047
    73  C   -0.196398
    74  H    0.261876
    75  C   -0.254907
    76  H    0.302398
    77  C   -0.654262
    78  H    0.284827
    79  H    0.282204
    80  H    0.253358
    81  C    0.156138
    82  C    0.118083
    83  C   -0.066762
    84  C   -0.434673
    85  H    0.366664
    86  C   -0.357712
    87  H    0.298570
    88  C   -0.548391
    89  H    0.279025
    90  H    0.277000
    91  H    0.259729
 Sum of Mulliken charges =  -0.00000
 Mulliken charges with hydrogens summed into heavy atoms:
               1
     1  C   -0.193493
     2  C   -0.351297
     4  C    0.248297
     8  C   -0.053730
    12  B    1.021146
    13  C   -0.246030
    17  O   -0.015371
    18  O   -0.147881
    19  C    0.112274
    20  C   -0.571387
    21  C   -0.158708
    25  C    0.030720
    29  C    0.135737
    33  C   -0.471286
    37  P   -0.273575
    38  O   -0.116887
    39  O   -0.272008
    40  N    0.478887
    43  Li  -0.777141
    44  C    0.391509
    45  O    0.240460
    46  C    0.119322
    47  C   -0.062480
    48  C   -0.168406
    57  C    0.261047
    58  O    0.211630
    59  C    0.419844
    60  C   -0.097761
    61  C   -0.399777
    70  C   -0.166340
    71  C    0.592844
    72  C    0.217351
    73  C    0.088428
    75  C    0.027297
    77  C   -0.400905
    81  C    0.156138
    82  C    0.484746
    83  C    0.231808
    84  C   -0.155648
    86  C   -0.080713
    88  C   -0.288662
 Electronic spatial extent (au):  <R**2>=          21785.4849
 Charge=              0.0000 electrons
 Dipole moment (field-independent basis, Debye):
    X=              1.6834    Y=              4.4556    Z=              8.6900  Tot=              9.9097
 Quadrupole moment (field-independent basis, Debye-Ang):
   XX=           -214.7453   YY=           -254.7630   ZZ=           -254.7184
   XY=             -4.1365   XZ=             -1.6254   YZ=             17.7264
 Traceless Quadrupole moment (field-independent basis, Debye-Ang):
   XX=             26.6636   YY=            -13.3541   ZZ=            -13.3095
   XY=             -4.1365   XZ=             -1.6254   YZ=             17.7264
 Octapole moment (field-independent basis, Debye-Ang**2):
  XXX=            129.6834  YYY=            783.2890  ZZZ=           -286.1890  XYY=             87.1136
  XXY=            270.4654  XXZ=           -100.3148  XZZ=             67.8664  YZZ=            266.1226
  YYZ=           -156.5168  XYZ=              0.3782
 Hexadecapole moment (field-independent basis, Debye-Ang**3):
 XXXX=          -5991.6934 YYYY=         -11641.8752 ZZZZ=         -10513.0027 XXXY=           -385.4357
 XXXZ=             43.4824 YYYX=           -568.3424 YYYZ=           1672.0212 ZZZX=           -131.4559
 ZZZY=           1292.6488 XXYY=          -3001.3315 XXZZ=          -2831.9641 YYZZ=          -4080.7068
 XXYZ=            349.1842 YYXZ=             24.7349 ZZXY=            -44.1266
 N-N= 5.697200281023D+03 E-N=-1.628924257526D+04  KE= 2.083111875522D+03
 No NMR shielding tensors so no spin-rotation constants.
 Leave Link  601 at Fri Sep 19 16:45:32 2025, MaxMem=  4294967296 cpu:               3.5 elap:               0.7
 (Enter /opt/apps/Gaussian/G16C/g16/l9999.exe)
 Unable to Open any file for archive entry.
 1\1\GINC-NODE02\SP\RwB97XD\6-311++G(d,p)\C31H50B1Li1N1O6P1\WHUGHES2\19
 -Sep-2025\0\\#p wb97xd/6-311++g** nosymm int=ultrafine scrf=(smd,solve
 nt=tetrahydrofuran)\\aziridinium-phos-full-tzpop\\0,1\C,0,-2.46811,1.0
 38986,-1.07749\C,0,-2.449804,1.030746,0.411045\H,0,-1.472591,0.855026,
 0.855759\C,0,-3.417749,1.733915,1.324902\H,0,-3.049084,2.744862,1.5300
 04\H,0,-4.419512,1.821604,0.894741\H,0,-3.49798,1.201426,2.278991\C,0,
 -3.605791,1.731874,-1.79374\H,0,-4.572759,1.648578,-1.283331\H,0,-3.37
 2137,2.797802,-1.892785\H,0,-3.709309,1.319439,-2.802049\B,0,-1.039635
 ,0.966929,-1.916974\C,0,-0.355272,2.44797,-1.853292\H,0,-0.270253,2.84
 3172,-0.830802\H,0,0.656296,2.438863,-2.284185\H,0,-0.93664,3.185028,-
 2.429121\O,0,-0.174265,-0.124728,-1.342187\O,0,-1.248806,0.545371,-3.3
 18625\C,0,-0.824469,-0.790744,-3.491913\C,0,0.302089,-0.946099,-2.4163
 72\C,0,-0.336586,-0.972702,-4.9288\H,0,-1.185035,-0.890193,-5.6186\H,0
 ,0.393457,-0.205851,-5.202569\H,0,0.11988,-1.959976,-5.072532\C,0,-1.9
 99935,-1.753171,-3.258863\H,0,-1.739771,-2.785415,-3.522241\H,0,-2.336
 051,-1.749852,-2.219636\H,0,-2.83908,-1.440885,-3.891335\C,0,1.647738,
 -0.396804,-2.905531\H,0,2.345595,-0.3739,-2.063997\H,0,2.080854,-1.036
 387,-3.683464\H,0,1.548386,0.616331,-3.306127\C,0,0.504039,-2.370727,-
 1.913653\H,0,-0.398734,-2.758406,-1.437714\H,0,0.781875,-3.034121,-2.7
 42077\H,0,1.312312,-2.397802,-1.173953\P,0,-0.8408,-2.775764,1.466027\
 O,0,0.280871,-1.746189,1.439927\O,0,-2.042874,-2.598031,0.550675\N,0,-
 2.91221,-0.17826,-0.307228\H,0,-2.343052,-1.041186,-0.197805\H,0,-3.91
 1535,-0.365767,-0.259263\Li,0,0.713097,-0.271457,0.3723\C,0,0.181521,0
 .826861,3.138356\O,0,0.495756,1.245842,1.807176\C,0,0.489488,2.676093,
 1.809741\C,0,0.864555,3.1138,3.241266\C,0,0.967751,1.787214,4.017932\H
 ,0,-0.902897,0.923154,3.306868\H,0,0.457291,-0.223153,3.221437\H,0,1.1
 97317,3.011724,1.049046\H,0,-0.512507,3.030828,1.533814\H,0,1.803709,3
 .67356,3.260864\H,0,0.084313,3.756565,3.659537\H,0,2.00951,1.454839,4.
 086058\H,0,0.56103,1.853375,5.030864\C,0,3.320351,-0.700259,1.531855\O
 ,0,2.7235,-0.214881,0.316297\C,0,3.247633,1.082154,-0.008513\C,0,3.935
 434,1.579099,1.255664\C,0,4.45128,0.269929,1.859639\H,0,2.550455,-0.71
 393,2.310724\H,0,3.66126,-1.724906,1.35857\H,0,3.96277,0.977661,-0.835
 193\H,0,2.417216,1.709447,-0.346371\H,0,4.729245,2.299148,1.038596\H,0
 ,3.210513,2.048701,1.928292\H,0,5.378954,-0.038141,1.363867\H,0,4.6396
 86,0.333571,2.935027\C,0,-0.088444,-4.409218,1.143164\C,0,1.301019,-4.
 560199,1.158526\C,0,-0.892239,-5.52305,0.876499\C,0,1.880805,-5.804226
 ,0.91074\H,0,1.925319,-3.692257,1.354009\C,0,-0.316209,-6.767851,0.630
 985\H,0,-1.973843,-5.413537,0.853003\C,0,1.072326,-6.909618,0.647806\H
 ,0,2.962652,-5.910066,0.919204\H,0,-0.948852,-7.626524,0.421589\H,0,1.
 522531,-7.879713,0.453599\C,0,-1.44413,-2.874125,3.191177\C,0,-0.54326
 6,-2.796811,4.260251\C,0,-2.807418,-3.020404,3.461867\C,0,-0.997031,-2
 .862394,5.575575\H,0,0.519581,-2.680523,4.060804\C,0,-3.265857,-3.0846
 11,4.778377\H,0,-3.509629,-3.077806,2.634212\C,0,-2.361265,-3.005539,5
 .836255\H,0,-0.288842,-2.800558,6.397934\H,0,-4.328636,-3.196168,4.977
 638\H,0,-2.716636,-3.056166,6.862175\\Version=AS64L-G16RevC.01\HF=-209
 1.479773\RMSD=3.245e-09\Dipole=0.6623039,1.7529687,3.4188929\Quadrupol
 e=19.8237317,-9.9284522,-9.8952795,-3.0753715,-1.2084242,13.1791185\PG
 =C01 [X(C31H50B1Li1N1O6P1)]\\@
 The archive entry for this job was punched.


 You never know when you're making a memory.
                        -- Rickie Lee Jones
 Job cpu time:       0 days  9 hours 24 minutes 16.6 seconds.
 Elapsed time:       0 days  0 hours 39 minutes 35.9 seconds.
 File lengths (MBytes):  RWF=   1319 Int=      0 D2E=      0 Chk=     95 Scr=      1
 Normal termination of Gaussian 16 at Fri Sep 19 16:45:32 2025.
