Job Start Time: Wed Oct  8 15:27:45 MDT 2025
SLURM Job ID: 768177
SLURM Job Name: aziridinium-phos-full-c2_tzpop-sp
 Entering Gaussian System, Link 0=/opt/apps/Gaussian/G16C/g16/g16
 Initial command:
 /opt/apps/Gaussian/G16C/g16/l1.exe "/tmp/768177/Gau-2198593.inp" -scrdir="/tmp/768177/"
 Entering Link 1 = /opt/apps/Gaussian/G16C/g16/l1.exe PID=   2198597.
  
 Copyright (c) 1988-2019, Gaussian, Inc.  All Rights Reserved.
  
 This is part of the Gaussian(R) 16 program.  It is based on
 the Gaussian(R) 09 system (copyright 2009, Gaussian, Inc.),
 the Gaussian(R) 03 system (copyright 2003, Gaussian, Inc.),
 the Gaussian(R) 98 system (copyright 1998, Gaussian, Inc.),
 the Gaussian(R) 94 system (copyright 1995, Gaussian, Inc.),
 the Gaussian 92(TM) system (copyright 1992, Gaussian, Inc.),
 the Gaussian 90(TM) system (copyright 1990, Gaussian, Inc.),
 the Gaussian 88(TM) system (copyright 1988, Gaussian, Inc.),
 the Gaussian 86(TM) system (copyright 1986, Carnegie Mellon
 University), and the Gaussian 82(TM) system (copyright 1983,
 Carnegie Mellon University). Gaussian is a federally registered
 trademark of Gaussian, Inc.
  
 This software contains proprietary and confidential information,
 including trade secrets, belonging to Gaussian, Inc.
  
 This software is provided under written license and may be
 used, copied, transmitted, or stored only in accord with that
 written license.
  
 The following legend is applicable only to US Government
 contracts under FAR:
  
                    RESTRICTED RIGHTS LEGEND
  
 Use, reproduction and disclosure by the US Government is
 subject to restrictions as set forth in subparagraphs (a)
 and (c) of the Commercial Computer Software - Restricted
 Rights clause in FAR 52.227-19.
  
 Gaussian, Inc.
 340 Quinnipiac St., Bldg. 40, Wallingford CT 06492
  
  
 ---------------------------------------------------------------
 Warning -- This program may not be used in any manner that
 competes with the business of Gaussian, Inc. or will provide
 assistance to any competitor of Gaussian, Inc.  The licensee
 of this program is prohibited from giving any competitor of
 Gaussian, Inc. access to this program.  By using this program,
 the user acknowledges that Gaussian, Inc. is engaged in the
 business of creating and licensing software in the field of
 computational chemistry and represents and warrants to the
 licensee that it is not a competitor of Gaussian, Inc. and that
 it will not use this program in any manner prohibited above.
 ---------------------------------------------------------------
  

 Cite this work as:
 Gaussian 16, Revision C.01,
 M. J. Frisch, G. W. Trucks, H. B. Schlegel, G. E. Scuseria, 
 M. A. Robb, J. R. Cheeseman, G. Scalmani, V. Barone, 
 G. A. Petersson, H. Nakatsuji, X. Li, M. Caricato, A. V. Marenich, 
 J. Bloino, B. G. Janesko, R. Gomperts, B. Mennucci, H. P. Hratchian, 
 J. V. Ortiz, A. F. Izmaylov, J. L. Sonnenberg, D. Williams-Young, 
 F. Ding, F. Lipparini, F. Egidi, J. Goings, B. Peng, A. Petrone, 
 T. Henderson, D. Ranasinghe, V. G. Zakrzewski, J. Gao, N. Rega, 
 G. Zheng, W. Liang, M. Hada, M. Ehara, K. Toyota, R. Fukuda, 
 J. Hasegawa, M. Ishida, T. Nakajima, Y. Honda, O. Kitao, H. Nakai, 
 T. Vreven, K. Throssell, J. A. Montgomery, Jr., J. E. Peralta, 
 F. Ogliaro, M. J. Bearpark, J. J. Heyd, E. N. Brothers, K. N. Kudin, 
 V. N. Staroverov, T. A. Keith, R. Kobayashi, J. Normand, 
 K. Raghavachari, A. P. Rendell, J. C. Burant, S. S. Iyengar, 
 J. Tomasi, M. Cossi, J. M. Millam, M. Klene, C. Adamo, R. Cammi, 
 J. W. Ochterski, R. L. Martin, K. Morokuma, O. Farkas, 
 J. B. Foresman, and D. J. Fox, Gaussian, Inc., Wallingford CT, 2019.
 
 ******************************************
 Gaussian 16:  AS64L-G16RevC.01  3-Jul-2019
                 8-Oct-2025 
 ******************************************
 %chk=aziridinium-phos-full-c2_tzpop-sp.chk
 %nprocshared=4
 Will use up to    4 processors via shared memory.
 %mem=8GB
 ----------------------------------------------------------------------
 # wb97xd/6-311++g** nosymm int=ultrafine scrf=(smd,solvent=tetrahydrof
 uran)
 ----------------------------------------------------------------------
 1/38=1,172=1/1;
 2/12=2,15=1,17=6,18=5,40=1/2;
 3/5=4,6=6,7=1111,11=2,25=1,30=1,70=32201,72=20,74=-58,75=-5/1,2,3;
 4//1;
 5/5=2,38=5,53=20/2;
 6/7=2,8=2,9=2,10=2,28=1/1;
 99/5=1,9=1/99;
 ---------------------------------
 aziridinium-phos-full-c2_tzpop-sp
 ---------------------------------
 Symbolic Z-matrix:
 Charge =  0 Multiplicity = 1
 C                    -1.8347    1.158     2.5856 
 C                    -0.4395    1.6694    2.5394 
 H                    -0.0377    1.8196    1.5391 
 C                     0.2504    2.4688    3.613 
 H                    -0.0232    3.5239    3.5012 
 H                    -0.0258    2.1527    4.6229 
 H                     1.3373    2.3886    3.5122 
 C                    -2.6441    1.3633    3.8461 
 H                    -3.1871    2.312     3.7675 
 H                    -3.3903    0.5696    3.9401 
 H                    -2.0431    1.3957    4.7623 
 B                    -2.7165    1.0489    1.1762 
 C                    -2.7325    2.5265    0.4842 
 H                    -3.4922    2.5961   -0.3063 
 H                    -2.9598    3.3219    1.2127 
 H                    -1.7631    2.7794    0.0287 
 O                    -2.1738    0.019     0.2146 
 O                    -4.0558    0.5221    1.5268 
 C                    -4.414    -0.5151    0.6436 
 C                    -3.033    -1.1234    0.2286 
 C                    -5.1826    0.0687   -0.553 
 H                    -4.5513    0.7331   -1.1491 
 H                    -5.5807   -0.7129   -1.2113 
 H                    -6.025     0.6579   -0.1732 
 C                    -5.3279   -1.5014    1.3698 
 H                    -6.2839   -1.0166    1.6003 
 H                    -5.5372   -2.3819    0.7492 
 H                    -4.8861   -1.8361    2.3127 
 C                    -3.0383   -1.7698   -1.1523 
 H                    -2.0728   -2.2387   -1.3503 
 H                    -3.8115   -2.5451   -1.2154 
 H                    -3.2206   -1.0317   -1.9395 
 C                    -2.4981   -2.1303    1.2532 
 H                    -3.048    -3.0781    1.2166 
 H                    -1.4437   -2.3321    1.0335 
 H                    -2.5639   -1.7348    2.2725 
 P                     1.8361   -0.2863    0.5192 
 O                     1.0844    0.7927   -0.2563 
 O                     0.9957   -1.3722    1.1795 
 N                    -0.67      0.2195    2.7797 
 H                    -0.3527   -0.4385    2.0461 
 H                    -0.4769   -0.1125    3.7221 
 Li                   -0.5986    0.0991   -0.956 
 C                     0.4367   -2.8721   -1.7592 
 O                     0.0919   -1.5342   -2.1197 
 C                     0.044    -1.5133   -3.5413 
 C                    -0.6578   -2.8174   -3.927 
 C                    -0.2763   -3.7796   -2.7781 
 H                     1.5269   -2.9872   -1.826 
 H                     0.1373   -3.0184   -0.7203 
 H                    -0.4855   -0.6081   -3.8405 
 H                     1.0709   -1.4814   -3.9377 
 H                    -1.7412   -2.6646   -3.9594 
 H                    -0.336    -3.1778   -4.9083 
 H                    -1.1653   -4.2462   -2.3436 
 H                     0.3892   -4.5798   -3.1148 
 C                    -2.1816    1.7986   -2.9643 
 O                    -0.9337    1.3162   -2.4701 
 C                     0.0821    2.2108   -2.9165 
 C                    -0.5499    3.5907   -2.7698 
 C                    -2.0364    3.3283   -3.0911 
 H                    -2.3856    1.3319   -3.9383 
 H                    -2.9467    1.4862   -2.2528 
 H                     0.9559    2.0416   -2.2859 
 H                     0.329     1.9897   -3.967 
 H                    -0.4335    3.9397   -1.7389 
 H                    -0.0952    4.3289   -3.4367 
 H                    -2.6946    3.8519   -2.3925 
 H                    -2.2904    3.6553   -4.1038 
 C                     3.0688   -1.0434   -0.5946 
 C                     3.8647   -2.108    -0.1583 
 C                     3.2013   -0.5867   -1.9079 
 C                     4.7745   -2.7115   -1.0239 
 H                     3.7671   -2.4755    0.8609 
 C                     4.1095   -1.1896   -2.7777 
 H                     2.5714    0.2293   -2.2501 
 C                     4.8958   -2.2539   -2.3372 
 H                     5.386    -3.5403   -0.6769 
 H                     4.2005   -0.8316   -3.8001 
 H                     5.6029   -2.7259   -3.0146 
 C                     2.8294    0.538     1.8151 
 C                     3.4294    1.7777    1.5677 
 C                     2.9836   -0.0534    3.0723 
 C                     4.1709    2.4156    2.56 
 H                     3.3054    2.2505    0.5964 
 C                     3.7245    0.5828    4.0685 
 H                     2.5104   -1.0117    3.2707 
 C                     4.3186    1.8183    3.8131 
 H                     4.6294    3.3803    2.3592 
 H                     3.8357    0.1162    5.044 
 H                     4.8942    2.3166    4.5888 
 
 Symmetry turned off by external request.
 Stoichiometry    C31H50BLiNO6P
 Framework group  C1[X(C31H50BLiNO6P)]
 Deg. of freedom   267
 Full point group                 C1      NOp   1
                          Input orientation:                          
 ---------------------------------------------------------------------
 Center     Atomic      Atomic             Coordinates (Angstroms)
 Number     Number       Type             X           Y           Z
 ---------------------------------------------------------------------
      1          6           0       -1.834700    1.158000    2.585600
      2          6           0       -0.439500    1.669400    2.539400
      3          1           0       -0.037700    1.819600    1.539100
      4          6           0        0.250400    2.468800    3.613000
      5          1           0       -0.023200    3.523900    3.501200
      6          1           0       -0.025800    2.152700    4.622900
      7          1           0        1.337300    2.388600    3.512200
      8          6           0       -2.644100    1.363300    3.846100
      9          1           0       -3.187100    2.312000    3.767500
     10          1           0       -3.390300    0.569600    3.940100
     11          1           0       -2.043100    1.395700    4.762300
     12          5           0       -2.716500    1.048900    1.176200
     13          6           0       -2.732500    2.526500    0.484200
     14          1           0       -3.492200    2.596100   -0.306300
     15          1           0       -2.959800    3.321900    1.212700
     16          1           0       -1.763100    2.779400    0.028700
     17          8           0       -2.173800    0.019000    0.214600
     18          8           0       -4.055800    0.522100    1.526800
     19          6           0       -4.414000   -0.515100    0.643600
     20          6           0       -3.033000   -1.123400    0.228600
     21          6           0       -5.182600    0.068700   -0.553000
     22          1           0       -4.551300    0.733100   -1.149100
     23          1           0       -5.580700   -0.712900   -1.211300
     24          1           0       -6.025000    0.657900   -0.173200
     25          6           0       -5.327900   -1.501400    1.369800
     26          1           0       -6.283900   -1.016600    1.600300
     27          1           0       -5.537200   -2.381900    0.749200
     28          1           0       -4.886100   -1.836100    2.312700
     29          6           0       -3.038300   -1.769800   -1.152300
     30          1           0       -2.072800   -2.238700   -1.350300
     31          1           0       -3.811500   -2.545100   -1.215400
     32          1           0       -3.220600   -1.031700   -1.939500
     33          6           0       -2.498100   -2.130300    1.253200
     34          1           0       -3.048000   -3.078100    1.216600
     35          1           0       -1.443700   -2.332100    1.033500
     36          1           0       -2.563900   -1.734800    2.272500
     37         15           0        1.836100   -0.286300    0.519200
     38          8           0        1.084400    0.792700   -0.256300
     39          8           0        0.995700   -1.372200    1.179500
     40          7           0       -0.670000    0.219500    2.779700
     41          1           0       -0.352700   -0.438500    2.046100
     42          1           0       -0.476900   -0.112500    3.722100
     43          3           0       -0.598600    0.099100   -0.956000
     44          6           0        0.436700   -2.872100   -1.759200
     45          8           0        0.091900   -1.534200   -2.119700
     46          6           0        0.044000   -1.513300   -3.541300
     47          6           0       -0.657800   -2.817400   -3.927000
     48          6           0       -0.276300   -3.779600   -2.778100
     49          1           0        1.526900   -2.987200   -1.826000
     50          1           0        0.137300   -3.018400   -0.720300
     51          1           0       -0.485500   -0.608100   -3.840500
     52          1           0        1.070900   -1.481400   -3.937700
     53          1           0       -1.741200   -2.664600   -3.959400
     54          1           0       -0.336000   -3.177800   -4.908300
     55          1           0       -1.165300   -4.246200   -2.343600
     56          1           0        0.389200   -4.579800   -3.114800
     57          6           0       -2.181600    1.798600   -2.964300
     58          8           0       -0.933700    1.316200   -2.470100
     59          6           0        0.082100    2.210800   -2.916500
     60          6           0       -0.549900    3.590700   -2.769800
     61          6           0       -2.036400    3.328300   -3.091100
     62          1           0       -2.385600    1.331900   -3.938300
     63          1           0       -2.946700    1.486200   -2.252800
     64          1           0        0.955900    2.041600   -2.285900
     65          1           0        0.329000    1.989700   -3.967000
     66          1           0       -0.433500    3.939700   -1.738900
     67          1           0       -0.095200    4.328900   -3.436700
     68          1           0       -2.694600    3.851900   -2.392500
     69          1           0       -2.290400    3.655300   -4.103800
     70          6           0        3.068800   -1.043400   -0.594600
     71          6           0        3.864700   -2.108000   -0.158300
     72          6           0        3.201300   -0.586700   -1.907900
     73          6           0        4.774500   -2.711500   -1.023900
     74          1           0        3.767100   -2.475500    0.860900
     75          6           0        4.109500   -1.189600   -2.777700
     76          1           0        2.571400    0.229300   -2.250100
     77          6           0        4.895800   -2.253900   -2.337200
     78          1           0        5.386000   -3.540300   -0.676900
     79          1           0        4.200500   -0.831600   -3.800100
     80          1           0        5.602900   -2.725900   -3.014600
     81          6           0        2.829400    0.538000    1.815100
     82          6           0        3.429400    1.777700    1.567700
     83          6           0        2.983600   -0.053400    3.072300
     84          6           0        4.170900    2.415600    2.560000
     85          1           0        3.305400    2.250500    0.596400
     86          6           0        3.724500    0.582800    4.068500
     87          1           0        2.510400   -1.011700    3.270700
     88          6           0        4.318600    1.818300    3.813100
     89          1           0        4.629400    3.380300    2.359200
     90          1           0        3.835700    0.116200    5.044000
     91          1           0        4.894200    2.316600    4.588800
 ---------------------------------------------------------------------
 Rotational constants (GHZ):           0.1011185           0.0794945           0.0618577
 Standard basis: 6-311++G(d,p) (5D, 7F)
  1260 basis functions,  1940 primitive gaussians,  1301 cartesian basis functions
   157 alpha electrons      157 beta electrons
       nuclear repulsion energy      5732.8698354451 Hartrees.
 NAtoms=   91 NActive=   91 NUniq=   91 SFac= 1.00D+00 NAtFMM=   60 NAOKFM=T Big=T
 Integral buffers will be    131072 words long.
 Raffenetti 2 integral format.
 Two-electron integral symmetry is turned off.
 Nuclear repulsion after empirical dispersion term =     5732.7535405857 Hartrees.
 ------------------------------------------------------------------------------
 Polarizable Continuum Model (PCM)
 =================================
 Model                : PCM.
 Atomic radii         : SMD-Coulomb.
 Polarization charges : Total charges.
 Charge compensation  : None.
 Solution method      : On-the-fly selection.
 Cavity type          : VdW (van der Waals Surface) (Alpha=1.000).
 Cavity algorithm     : GePol (No added spheres)
                        Default sphere list used, NSphG=   91.
                        Lebedev-Laikov grids with approx.  5.0 points / Ang**2.
                        Smoothing algorithm: York/Karplus (Gamma=1.0000).
                        Polarization charges: spherical gaussians, with
                                              point-specific exponents (IZeta= 3).
                        Self-potential: point-specific (ISelfS= 7).
                        Self-field    : sphere-specific E.n sum rule (ISelfD= 2).
 Solvent              : TetraHydroFuran, Eps=   7.425700 Eps(inf)=   1.974025
 ------------------------------------------------------------------------------
 ------------------------------------------------------------------------------
 Atomic radii for non-electrostatic terms: SMD-CDS.
 ------------------------------------------------------------------------------
 Nuclear repulsion after PCM non-electrostatic terms =     5732.7440789744 Hartrees.
 One-electron integrals computed using PRISM.
 NBasis=  1260 RedAO= T EigKep=  1.17D-06  NBF=  1260
 NBsUse=  1251 1.00D-06 EigRej=  9.66D-07 NBFU=  1251
 ExpMin= 7.40D-03 ExpMax= 7.75D+04 ExpMxC= 2.65D+03 IAcc=3 IRadAn=         5 AccDes= 0.00D+00
 Harris functional with IExCor= 4639 and IRadAn=       5 diagonalized for initial guess.
 HarFok:  IExCor= 4639 AccDes= 0.00D+00 IRadAn=         5 IDoV= 1 UseB2=F ITyADJ=14
 ICtDFT=  3500011 ScaDFX=  1.000000  1.000000  1.000000  1.000000
 FoFCou: FMM=F IPFlag=           0 FMFlag=      100000 FMFlg1=        2001
         NFxFlg=           0 DoJE=T BraDBF=F KetDBF=T FulRan=T
         wScrn=  0.000000 ICntrl=       500 IOpCl=  0 I1Cent=   200000004 NGrid=           0
         NMat0=    1 NMatS0=      1 NMatT0=    0 NMatD0=    1 NMtDS0=    0 NMtDT0=    0
 Symmetry not used in FoFCou.
 Requested convergence on RMS density matrix=1.00D-08 within 128 cycles.
 Requested convergence on MAX density matrix=1.00D-06.
 Requested convergence on             energy=1.00D-06.
 No special actions if energy rises.
 Inv3:  Mode=1 IEnd=    88748163.
 Iteration    1 A*A^-1 deviation from unit magnitude is 1.04D-14 for   5429.
 Iteration    1 A*A^-1 deviation from orthogonality  is 3.22D-15 for   5437   5037.
 Iteration    1 A^-1*A deviation from unit magnitude is 1.04D-14 for   5429.
 Iteration    1 A^-1*A deviation from orthogonality  is 3.12D-15 for   5410   5347.
 Error on total polarization charges =  0.07701
 SCF Done:  E(RwB97XD) =  -2091.47707453     A.U. after   15 cycles
            NFock= 15  Conv=0.76D-08     -V/T= 2.0040
 SMD-CDS (non-electrostatic) energy       (kcal/mol) =      -5.94
 (included in total energy above)

 **********************************************************************

            Population analysis using the SCF Density.

 **********************************************************************

 Alpha  occ. eigenvalues --  -77.26570 -19.25496 -19.25187 -19.20211 -19.18109
 Alpha  occ. eigenvalues --  -19.17748 -19.17629 -14.49443 -10.32156 -10.32046
 Alpha  occ. eigenvalues --  -10.31875 -10.31781 -10.31767 -10.31445 -10.31367
 Alpha  occ. eigenvalues --  -10.29827 -10.29045 -10.28966 -10.28942 -10.28941
 Alpha  occ. eigenvalues --  -10.28927 -10.28859 -10.28839 -10.28733 -10.28724
 Alpha  occ. eigenvalues --  -10.28673 -10.28526 -10.28452 -10.27414 -10.27404
 Alpha  occ. eigenvalues --  -10.27347 -10.27343 -10.27303 -10.26383 -10.25430
 Alpha  occ. eigenvalues --  -10.25242 -10.25057 -10.24939 -10.21212  -6.81605
 Alpha  occ. eigenvalues --   -6.70935  -4.85642  -4.85626  -4.85613  -1.98469
 Alpha  occ. eigenvalues --   -1.14860  -1.14470  -1.10966  -1.09399  -1.07280
 Alpha  occ. eigenvalues --   -1.04138  -1.01075  -0.95858  -0.95677  -0.87685
 Alpha  occ. eigenvalues --   -0.87417  -0.87239  -0.85378  -0.85119  -0.84638
 Alpha  occ. eigenvalues --   -0.84503  -0.84313  -0.83278  -0.82890  -0.82622
 Alpha  occ. eigenvalues --   -0.81987  -0.78284  -0.76572  -0.75545  -0.74761
 Alpha  occ. eigenvalues --   -0.71686  -0.69863  -0.69546  -0.69080  -0.68772
 Alpha  occ. eigenvalues --   -0.68689  -0.68479  -0.68098  -0.67847  -0.65678
 Alpha  occ. eigenvalues --   -0.63938  -0.63560  -0.60986  -0.60893  -0.59685
 Alpha  occ. eigenvalues --   -0.59358  -0.59189  -0.58091  -0.57647  -0.57391
 Alpha  occ. eigenvalues --   -0.56593  -0.54222  -0.53826  -0.53767  -0.53609
 Alpha  occ. eigenvalues --   -0.53475  -0.53353  -0.53031  -0.52694  -0.52217
 Alpha  occ. eigenvalues --   -0.51081  -0.50856  -0.50488  -0.50448  -0.50368
 Alpha  occ. eigenvalues --   -0.50167  -0.50104  -0.49906  -0.49232  -0.48703
 Alpha  occ. eigenvalues --   -0.48160  -0.47694  -0.47587  -0.47440  -0.46658
 Alpha  occ. eigenvalues --   -0.46311  -0.46052  -0.45964  -0.45448  -0.45362
 Alpha  occ. eigenvalues --   -0.45036  -0.44369  -0.43979  -0.43693  -0.43494
 Alpha  occ. eigenvalues --   -0.43269  -0.43209  -0.43125  -0.42827  -0.42482
 Alpha  occ. eigenvalues --   -0.42345  -0.42204  -0.42086  -0.41990  -0.41548
 Alpha  occ. eigenvalues --   -0.41161  -0.41030  -0.40865  -0.40265  -0.39947
 Alpha  occ. eigenvalues --   -0.39723  -0.38234  -0.38113  -0.37394  -0.36947
 Alpha  occ. eigenvalues --   -0.35512  -0.34712  -0.34670  -0.34461  -0.34023
 Alpha  occ. eigenvalues --   -0.33925  -0.33359  -0.33086  -0.33010  -0.31800
 Alpha  occ. eigenvalues --   -0.31281  -0.28339
 Alpha virt. eigenvalues --    0.02328   0.02535   0.02621   0.02699   0.03197
 Alpha virt. eigenvalues --    0.04740   0.05302   0.05650   0.05701   0.05727
 Alpha virt. eigenvalues --    0.05798   0.06017   0.06174   0.06918   0.07006
 Alpha virt. eigenvalues --    0.07103   0.07214   0.07277   0.07478   0.07635
 Alpha virt. eigenvalues --    0.07754   0.07805   0.07964   0.08289   0.08648
 Alpha virt. eigenvalues --    0.08757   0.09056   0.09142   0.09453   0.09701
 Alpha virt. eigenvalues --    0.09996   0.10166   0.10335   0.10792   0.10954
 Alpha virt. eigenvalues --    0.11321   0.11437   0.11844   0.12316   0.12433
 Alpha virt. eigenvalues --    0.12484   0.12713   0.13007   0.13172   0.13423
 Alpha virt. eigenvalues --    0.13690   0.14144   0.14210   0.14332   0.14477
 Alpha virt. eigenvalues --    0.14672   0.14823   0.15159   0.15231   0.15424
 Alpha virt. eigenvalues --    0.15696   0.15860   0.16072   0.16123   0.16362
 Alpha virt. eigenvalues --    0.16414   0.16660   0.16888   0.16941   0.17118
 Alpha virt. eigenvalues --    0.17152   0.17202   0.17419   0.17616   0.17769
 Alpha virt. eigenvalues --    0.17941   0.18037   0.18141   0.18246   0.18309
 Alpha virt. eigenvalues --    0.18565   0.18654   0.18801   0.19027   0.19165
 Alpha virt. eigenvalues --    0.19368   0.19417   0.19533   0.19887   0.19903
 Alpha virt. eigenvalues --    0.19982   0.20110   0.20179   0.20368   0.20448
 Alpha virt. eigenvalues --    0.20505   0.20539   0.20833   0.21081   0.21135
 Alpha virt. eigenvalues --    0.21153   0.21336   0.21387   0.21550   0.21622
 Alpha virt. eigenvalues --    0.21824   0.21869   0.21987   0.22141   0.22234
 Alpha virt. eigenvalues --    0.22437   0.22662   0.22763   0.22943   0.23029
 Alpha virt. eigenvalues --    0.23215   0.23333   0.23379   0.23592   0.23763
 Alpha virt. eigenvalues --    0.23902   0.23917   0.24002   0.24069   0.24314
 Alpha virt. eigenvalues --    0.24332   0.24529   0.24633   0.24798   0.24831
 Alpha virt. eigenvalues --    0.24948   0.25151   0.25363   0.25508   0.25614
 Alpha virt. eigenvalues --    0.25666   0.25779   0.26037   0.26174   0.26247
 Alpha virt. eigenvalues --    0.26497   0.26618   0.26730   0.26934   0.27003
 Alpha virt. eigenvalues --    0.27175   0.27326   0.27475   0.27521   0.27653
 Alpha virt. eigenvalues --    0.27755   0.27862   0.28145   0.28232   0.28438
 Alpha virt. eigenvalues --    0.28588   0.28830   0.28875   0.29122   0.29170
 Alpha virt. eigenvalues --    0.29289   0.29445   0.29554   0.29857   0.29905
 Alpha virt. eigenvalues --    0.30144   0.30194   0.30467   0.30487   0.30663
 Alpha virt. eigenvalues --    0.30918   0.31112   0.31232   0.31334   0.31435
 Alpha virt. eigenvalues --    0.31599   0.31693   0.31819   0.32000   0.32125
 Alpha virt. eigenvalues --    0.32267   0.32417   0.32608   0.32755   0.32922
 Alpha virt. eigenvalues --    0.33187   0.33290   0.33549   0.33587   0.33838
 Alpha virt. eigenvalues --    0.34001   0.34259   0.34335   0.34605   0.34734
 Alpha virt. eigenvalues --    0.34919   0.35030   0.35220   0.35497   0.35675
 Alpha virt. eigenvalues --    0.35771   0.35912   0.36034   0.36173   0.36346
 Alpha virt. eigenvalues --    0.36724   0.36798   0.36965   0.37151   0.37446
 Alpha virt. eigenvalues --    0.37511   0.37591   0.37951   0.38080   0.38214
 Alpha virt. eigenvalues --    0.38389   0.38490   0.38573   0.38914   0.39003
 Alpha virt. eigenvalues --    0.39111   0.39223   0.39660   0.39692   0.39865
 Alpha virt. eigenvalues --    0.39998   0.40045   0.40346   0.40419   0.40678
 Alpha virt. eigenvalues --    0.40764   0.40884   0.41032   0.41193   0.41443
 Alpha virt. eigenvalues --    0.41489   0.41756   0.42075   0.42230   0.42408
 Alpha virt. eigenvalues --    0.42474   0.42597   0.42886   0.43029   0.43158
 Alpha virt. eigenvalues --    0.43666   0.43906   0.44038   0.44214   0.44414
 Alpha virt. eigenvalues --    0.44514   0.44658   0.44920   0.45059   0.45391
 Alpha virt. eigenvalues --    0.45438   0.45625   0.45946   0.46116   0.46375
 Alpha virt. eigenvalues --    0.46434   0.46639   0.46976   0.47152   0.47164
 Alpha virt. eigenvalues --    0.47494   0.47637   0.47643   0.48048   0.48416
 Alpha virt. eigenvalues --    0.48593   0.48708   0.49012   0.49246   0.49423
 Alpha virt. eigenvalues --    0.49624   0.50044   0.50338   0.50726   0.50797
 Alpha virt. eigenvalues --    0.51168   0.51490   0.52044   0.52250   0.52413
 Alpha virt. eigenvalues --    0.53186   0.53382   0.53577   0.53953   0.54394
 Alpha virt. eigenvalues --    0.54598   0.55184   0.55540   0.55868   0.56107
 Alpha virt. eigenvalues --    0.56432   0.57006   0.57248   0.57555   0.57790
 Alpha virt. eigenvalues --    0.58287   0.58446   0.58587   0.59432   0.59602
 Alpha virt. eigenvalues --    0.59813   0.60463   0.60606   0.60951   0.61430
 Alpha virt. eigenvalues --    0.61785   0.62069   0.62200   0.62510   0.63013
 Alpha virt. eigenvalues --    0.63059   0.63551   0.63849   0.64235   0.64738
 Alpha virt. eigenvalues --    0.64867   0.64977   0.65212   0.65405   0.65774
 Alpha virt. eigenvalues --    0.65858   0.65926   0.66202   0.66876   0.66967
 Alpha virt. eigenvalues --    0.67197   0.67630   0.67890   0.68020   0.68261
 Alpha virt. eigenvalues --    0.68667   0.68813   0.68904   0.69102   0.69659
 Alpha virt. eigenvalues --    0.69848   0.70485   0.70843   0.71126   0.71510
 Alpha virt. eigenvalues --    0.71608   0.71631   0.71928   0.72571   0.72664
 Alpha virt. eigenvalues --    0.72819   0.72998   0.73343   0.73492   0.73819
 Alpha virt. eigenvalues --    0.74044   0.74281   0.74412   0.74753   0.75041
 Alpha virt. eigenvalues --    0.75566   0.75739   0.75974   0.76310   0.76715
 Alpha virt. eigenvalues --    0.76878   0.77411   0.77575   0.77782   0.78291
 Alpha virt. eigenvalues --    0.78440   0.78645   0.78935   0.79459   0.79761
 Alpha virt. eigenvalues --    0.79838   0.80037   0.80274   0.80589   0.80752
 Alpha virt. eigenvalues --    0.80868   0.80992   0.81135   0.81708   0.81953
 Alpha virt. eigenvalues --    0.82127   0.82364   0.82471   0.82794   0.82992
 Alpha virt. eigenvalues --    0.83321   0.83464   0.83661   0.83921   0.84205
 Alpha virt. eigenvalues --    0.84559   0.84634   0.84923   0.85126   0.85355
 Alpha virt. eigenvalues --    0.85788   0.85828   0.85995   0.86262   0.86507
 Alpha virt. eigenvalues --    0.86529   0.87096   0.87149   0.87454   0.87748
 Alpha virt. eigenvalues --    0.87817   0.88082   0.88394   0.88650   0.88913
 Alpha virt. eigenvalues --    0.89089   0.89264   0.89362   0.89816   0.90053
 Alpha virt. eigenvalues --    0.90137   0.90404   0.90726   0.90838   0.91024
 Alpha virt. eigenvalues --    0.91469   0.91760   0.91926   0.92228   0.92535
 Alpha virt. eigenvalues --    0.92866   0.92928   0.93449   0.93779   0.94062
 Alpha virt. eigenvalues --    0.94390   0.94880   0.95219   0.95315   0.95454
 Alpha virt. eigenvalues --    0.95728   0.95865   0.96335   0.96513   0.97080
 Alpha virt. eigenvalues --    0.97217   0.97542   0.97665   0.98137   0.98566
 Alpha virt. eigenvalues --    0.98985   0.99028   0.99099   0.99322   1.00136
 Alpha virt. eigenvalues --    1.00347   1.00660   1.01560   1.01957   1.02097
 Alpha virt. eigenvalues --    1.02646   1.02822   1.03085   1.03856   1.04518
 Alpha virt. eigenvalues --    1.04694   1.04797   1.05548   1.05945   1.06639
 Alpha virt. eigenvalues --    1.07081   1.07618   1.07864   1.08651   1.09057
 Alpha virt. eigenvalues --    1.09759   1.10377   1.10778   1.11322   1.12065
 Alpha virt. eigenvalues --    1.12261   1.12674   1.13082   1.13513   1.13648
 Alpha virt. eigenvalues --    1.14523   1.14792   1.15441   1.15806   1.16140
 Alpha virt. eigenvalues --    1.16958   1.17186   1.17392   1.17611   1.18596
 Alpha virt. eigenvalues --    1.19436   1.19679   1.19984   1.20433   1.21272
 Alpha virt. eigenvalues --    1.22183   1.22526   1.22860   1.23344   1.23798
 Alpha virt. eigenvalues --    1.23945   1.24427   1.24546   1.25316   1.25787
 Alpha virt. eigenvalues --    1.26295   1.26846   1.27663   1.27732   1.28893
 Alpha virt. eigenvalues --    1.29174   1.29593   1.30021   1.30152   1.31085
 Alpha virt. eigenvalues --    1.31411   1.31851   1.32636   1.33523   1.33892
 Alpha virt. eigenvalues --    1.34842   1.35511   1.36068   1.36243   1.36949
 Alpha virt. eigenvalues --    1.37103   1.37702   1.38012   1.38514   1.39871
 Alpha virt. eigenvalues --    1.40815   1.40906   1.41161   1.41663   1.42111
 Alpha virt. eigenvalues --    1.42172   1.42533   1.43476   1.44019   1.44793
 Alpha virt. eigenvalues --    1.44931   1.46681   1.46897   1.47200   1.47905
 Alpha virt. eigenvalues --    1.48219   1.48664   1.49661   1.50717   1.51081
 Alpha virt. eigenvalues --    1.51941   1.52807   1.53584   1.53852   1.54354
 Alpha virt. eigenvalues --    1.54510   1.54876   1.55837   1.56862   1.57027
 Alpha virt. eigenvalues --    1.57715   1.58466   1.58728   1.59093   1.59970
 Alpha virt. eigenvalues --    1.60201   1.60665   1.61100   1.61843   1.62021
 Alpha virt. eigenvalues --    1.62302   1.62629   1.62970   1.63305   1.63398
 Alpha virt. eigenvalues --    1.63893   1.64311   1.64561   1.64858   1.64915
 Alpha virt. eigenvalues --    1.65524   1.66143   1.66312   1.66521   1.66910
 Alpha virt. eigenvalues --    1.67090   1.67691   1.67766   1.68041   1.68500
 Alpha virt. eigenvalues --    1.68715   1.69013   1.69141   1.69387   1.69692
 Alpha virt. eigenvalues --    1.70092   1.70400   1.70733   1.71332   1.71614
 Alpha virt. eigenvalues --    1.71671   1.71731   1.72650   1.72980   1.73209
 Alpha virt. eigenvalues --    1.73683   1.73805   1.74018   1.74473   1.74533
 Alpha virt. eigenvalues --    1.75176   1.75686   1.75927   1.76303   1.76583
 Alpha virt. eigenvalues --    1.76907   1.77030   1.77413   1.77522   1.77666
 Alpha virt. eigenvalues --    1.77896   1.78580   1.78718   1.79103   1.79369
 Alpha virt. eigenvalues --    1.79764   1.79977   1.80568   1.80787   1.81182
 Alpha virt. eigenvalues --    1.81660   1.81889   1.82175   1.82842   1.82965
 Alpha virt. eigenvalues --    1.83421   1.83808   1.84676   1.84906   1.85500
 Alpha virt. eigenvalues --    1.85589   1.85801   1.86012   1.86367   1.86974
 Alpha virt. eigenvalues --    1.87259   1.87905   1.88047   1.88740   1.89136
 Alpha virt. eigenvalues --    1.89293   1.89402   1.89724   1.90280   1.90936
 Alpha virt. eigenvalues --    1.91170   1.91601   1.91824   1.91957   1.92324
 Alpha virt. eigenvalues --    1.92699   1.93432   1.93605   1.93804   1.94187
 Alpha virt. eigenvalues --    1.94356   1.94769   1.95097   1.95316   1.95654
 Alpha virt. eigenvalues --    1.95828   1.96615   1.96825   1.97744   1.98132
 Alpha virt. eigenvalues --    1.98421   1.98802   1.99505   1.99806   2.00218
 Alpha virt. eigenvalues --    2.00819   2.01092   2.01491   2.01774   2.02131
 Alpha virt. eigenvalues --    2.02446   2.02870   2.03128   2.03569   2.04094
 Alpha virt. eigenvalues --    2.04486   2.04782   2.05091   2.05493   2.06035
 Alpha virt. eigenvalues --    2.06435   2.06498   2.06669   2.06996   2.07536
 Alpha virt. eigenvalues --    2.07775   2.08429   2.08728   2.09180   2.09245
 Alpha virt. eigenvalues --    2.09889   2.10054   2.10845   2.10918   2.11526
 Alpha virt. eigenvalues --    2.11760   2.12366   2.12755   2.12763   2.13491
 Alpha virt. eigenvalues --    2.14335   2.14521   2.15377   2.15531   2.16228
 Alpha virt. eigenvalues --    2.16512   2.16883   2.17637   2.18217   2.18681
 Alpha virt. eigenvalues --    2.19342   2.19617   2.20571   2.21127   2.21295
 Alpha virt. eigenvalues --    2.22238   2.22498   2.23737   2.23998   2.24163
 Alpha virt. eigenvalues --    2.24539   2.25379   2.26099   2.26242   2.26900
 Alpha virt. eigenvalues --    2.28047   2.28326   2.28740   2.29036   2.29500
 Alpha virt. eigenvalues --    2.30298   2.30523   2.31610   2.32374   2.33222
 Alpha virt. eigenvalues --    2.33425   2.33919   2.34425   2.35401   2.35782
 Alpha virt. eigenvalues --    2.37004   2.37478   2.38644   2.39589   2.40388
 Alpha virt. eigenvalues --    2.41302   2.41675   2.41972   2.42595   2.42978
 Alpha virt. eigenvalues --    2.43136   2.43159   2.43806   2.44056   2.44521
 Alpha virt. eigenvalues --    2.45240   2.45753   2.46399   2.47460   2.48442
 Alpha virt. eigenvalues --    2.48540   2.48867   2.49487   2.49693   2.50755
 Alpha virt. eigenvalues --    2.51797   2.53661   2.53998   2.54288   2.54953
 Alpha virt. eigenvalues --    2.56149   2.57675   2.58616   2.58990   2.59594
 Alpha virt. eigenvalues --    2.59837   2.60278   2.60700   2.61211   2.61382
 Alpha virt. eigenvalues --    2.62298   2.62561   2.63229   2.63731   2.64259
 Alpha virt. eigenvalues --    2.64604   2.64671   2.64897   2.65442   2.65729
 Alpha virt. eigenvalues --    2.66587   2.67487   2.68579   2.68926   2.69093
 Alpha virt. eigenvalues --    2.69580   2.69896   2.70138   2.70394   2.71422
 Alpha virt. eigenvalues --    2.71582   2.72030   2.72730   2.72865   2.73787
 Alpha virt. eigenvalues --    2.74130   2.74370   2.74729   2.75326   2.75515
 Alpha virt. eigenvalues --    2.76057   2.76463   2.76794   2.76929   2.77756
 Alpha virt. eigenvalues --    2.78574   2.78684   2.79001   2.79771   2.80344
 Alpha virt. eigenvalues --    2.80738   2.81404   2.82696   2.83407   2.83742
 Alpha virt. eigenvalues --    2.84296   2.84826   2.85197   2.85548   2.85944
 Alpha virt. eigenvalues --    2.86499   2.86953   2.87164   2.87443   2.87917
 Alpha virt. eigenvalues --    2.88243   2.88780   2.89348   2.89659   2.90182
 Alpha virt. eigenvalues --    2.90472   2.90509   2.91162   2.91548   2.92001
 Alpha virt. eigenvalues --    2.92416   2.92684   2.93306   2.93787   2.94182
 Alpha virt. eigenvalues --    2.94318   2.95132   2.95584   2.95921   2.96242
 Alpha virt. eigenvalues --    2.96982   2.97352   2.98060   2.98363   2.98714
 Alpha virt. eigenvalues --    2.98998   2.99343   2.99671   3.00011   3.00575
 Alpha virt. eigenvalues --    3.00902   3.01459   3.01606   3.01909   3.02780
 Alpha virt. eigenvalues --    3.03177   3.03613   3.03934   3.04327   3.04811
 Alpha virt. eigenvalues --    3.05554   3.05853   3.06096   3.06572   3.07047
 Alpha virt. eigenvalues --    3.07357   3.07706   3.08478   3.09401   3.09908
 Alpha virt. eigenvalues --    3.10232   3.10818   3.11533   3.11930   3.12297
 Alpha virt. eigenvalues --    3.12784   3.13010   3.13531   3.14971   3.15066
 Alpha virt. eigenvalues --    3.16004   3.16264   3.16636   3.17472   3.18911
 Alpha virt. eigenvalues --    3.20321   3.20991   3.21552   3.22150   3.23066
 Alpha virt. eigenvalues --    3.23462   3.24296   3.25185   3.25936   3.26233
 Alpha virt. eigenvalues --    3.27082   3.27694   3.28486   3.29092   3.29487
 Alpha virt. eigenvalues --    3.29697   3.30699   3.31225   3.32132   3.33166
 Alpha virt. eigenvalues --    3.34400   3.35065   3.35139   3.36267   3.36914
 Alpha virt. eigenvalues --    3.37551   3.37808   3.40332   3.41061   3.41432
 Alpha virt. eigenvalues --    3.41954   3.43122   3.44009   3.44971   3.46354
 Alpha virt. eigenvalues --    3.46463   3.47986   3.48525   3.49779   3.50931
 Alpha virt. eigenvalues --    3.51572   3.52850   3.53427   3.54325   3.55872
 Alpha virt. eigenvalues --    3.56630   3.62334   3.63816   3.64612   3.65923
 Alpha virt. eigenvalues --    3.66161   3.67772   3.69034   3.71037   3.74405
 Alpha virt. eigenvalues --    3.74803   3.75107   3.75793   3.78741   3.80953
 Alpha virt. eigenvalues --    3.83641   3.88011   3.88779   3.90003   3.90684
 Alpha virt. eigenvalues --    3.91642   3.92795   3.93468   3.93982   3.94446
 Alpha virt. eigenvalues --    3.95250   3.96119   3.96213   3.96402   3.98133
 Alpha virt. eigenvalues --    3.98485   3.99346   4.00914   4.01856   4.04092
 Alpha virt. eigenvalues --    4.04447   4.06146   4.06549   4.11148   4.12458
 Alpha virt. eigenvalues --    4.14993   4.15297   4.15391   4.15520   4.16097
 Alpha virt. eigenvalues --    4.20112   4.20367   4.21082   4.21727   4.23475
 Alpha virt. eigenvalues --    4.26228   4.28364   4.28912   4.29308   4.29554
 Alpha virt. eigenvalues --    4.30364   4.32861   4.35111   4.38780   4.41272
 Alpha virt. eigenvalues --    4.42179   4.42718   4.47763   4.48829   4.50505
 Alpha virt. eigenvalues --    4.53324   4.76389   4.84673   4.87081   4.95502
 Alpha virt. eigenvalues --    4.96026   5.10109   5.37623   5.41769   5.43974
 Alpha virt. eigenvalues --    5.47638   5.48186   5.49357   5.50032   5.50934
 Alpha virt. eigenvalues --    5.56944   5.59127   5.60454   5.68543   5.71075
 Alpha virt. eigenvalues --    5.74084   5.79741   5.80240   5.82884   5.90562
 Alpha virt. eigenvalues --    7.67712  14.40569  14.41643  14.47133  14.98177
 Alpha virt. eigenvalues --   23.79983  23.83762  23.95977  23.98013  24.02571
 Alpha virt. eigenvalues --   24.03292  24.04098  24.04980  24.05322  24.06487
 Alpha virt. eigenvalues --   24.10595  24.11247  24.12122  24.12684  24.12976
 Alpha virt. eigenvalues --   24.13415  24.13577  24.14405  24.14899  24.15885
 Alpha virt. eigenvalues --   24.16356  24.18056  24.19464  24.20879  24.21633
 Alpha virt. eigenvalues --   24.21975  24.22575  24.23343  24.23750  24.32596
 Alpha virt. eigenvalues --   24.33046  35.74824  50.14906  50.16510  50.21455
 Alpha virt. eigenvalues --   50.23794  50.25239  50.25652 163.92621
          Condensed to atoms (all electrons):
 Mulliken charges:
               1
     1  C    0.133958
     2  C    0.236706
     3  H    0.101467
     4  C   -0.819758
     5  H    0.244291
     6  H    0.173187
     7  H    0.134482
     8  C   -0.759866
     9  H    0.232510
    10  H    0.214587
    11  H    0.131130
    12  B    0.555761
    13  C   -0.714443
    14  H    0.140442
    15  H    0.168475
    16  H    0.317808
    17  O    0.135754
    18  O   -0.121276
    19  C   -0.052324
    20  C   -0.509262
    21  C   -0.302867
    22  H    0.098776
    23  H    0.197181
    24  H    0.207960
    25  C   -0.787601
    26  H    0.194798
    27  H    0.182141
    28  H    0.175355
    29  C   -0.624207
    30  H   -0.035498
    31  H    0.268957
    32  H    0.251266
    33  C   -0.488315
    34  H    0.233756
    35  H    0.148785
    36  H    0.187265
    37  P   -0.878615
    38  O   -0.063939
    39  O   -0.139166
    40  N   -0.304232
    41  H    0.296474
    42  H    0.492301
    43  Li  -0.677789
    44  C   -0.273811
    45  O    0.255647
    46  C   -0.051828
    47  C   -0.606519
    48  C   -0.469743
    49  H    0.226247
    50  H    0.187434
    51  H    0.113219
    52  H    0.162482
    53  H    0.177744
    54  H    0.238494
    55  H    0.242789
    56  H    0.225785
    57  C    0.021638
    58  O    0.064165
    59  C    0.167658
    60  C   -0.698806
    61  C   -0.450699
    62  H    0.253239
    63  H    0.028531
    64  H    0.277358
    65  H    0.242583
    66  H    0.220897
    67  H    0.236357
    68  H    0.184229
    69  H    0.220098
    70  C    0.254132
    71  C   -0.141992
    72  C    0.024527
    73  C   -0.535386
    74  H    0.305780
    75  C   -0.307219
    76  H    0.250162
    77  C   -0.499693
    78  H    0.273304
    79  H    0.290328
    80  H    0.256541
    81  C    0.029142
    82  C   -0.045220
    83  C   -0.100350
    84  C   -0.369062
    85  H    0.308229
    86  C   -0.434202
    87  H    0.295925
    88  C   -0.442977
    89  H    0.282873
    90  H    0.275184
    91  H    0.258371
 Sum of Mulliken charges =  -0.00000
 Mulliken charges with hydrogens summed into heavy atoms:
               1
     1  C    0.133958
     2  C    0.338173
     4  C   -0.267798
     8  C   -0.181639
    12  B    0.555761
    13  C   -0.087718
    17  O    0.135754
    18  O   -0.121276
    19  C   -0.052324
    20  C   -0.509262
    21  C    0.201050
    25  C   -0.235307
    29  C   -0.139482
    33  C    0.081491
    37  P   -0.878615
    38  O   -0.063939
    39  O   -0.139166
    40  N    0.484543
    43  Li  -0.677789
    44  C    0.139870
    45  O    0.255647
    46  C    0.223873
    47  C   -0.190282
    48  C   -0.001168
    57  C    0.303407
    58  O    0.064165
    59  C    0.687598
    60  C   -0.241551
    61  C   -0.046371
    70  C    0.254132
    71  C    0.163787
    72  C    0.274689
    73  C   -0.262082
    75  C   -0.016891
    77  C   -0.243152
    81  C    0.029142
    82  C    0.263009
    83  C    0.195575
    84  C   -0.086188
    86  C   -0.159019
    88  C   -0.184606
 Electronic spatial extent (au):  <R**2>=          20076.0288
 Charge=             -0.0000 electrons
 Dipole moment (field-independent basis, Debye):
    X=              3.3537    Y=             -0.5752    Z=             -2.3880  Tot=              4.1571
 Quadrupole moment (field-independent basis, Debye-Ang):
   XX=           -270.9648   YY=           -242.8598   ZZ=           -208.4751
   XY=              7.7590   XZ=             10.5316   YZ=              3.4200
 Traceless Quadrupole moment (field-independent basis, Debye-Ang):
   XX=            -30.1982   YY=             -2.0932   ZZ=             32.2914
   XY=              7.7590   XZ=             10.5316   YZ=              3.4200
 Octapole moment (field-independent basis, Debye-Ang**2):
  XXX=            105.9265  YYY=             -1.5714  ZZZ=              4.2347  XYY=             48.3076
  XXY=            -47.7059  XXZ=            -57.2628  XZZ=             53.3003  YZZ=             20.0689
  YYZ=            -36.2687  XYZ=             34.5195
 Hexadecapole moment (field-independent basis, Debye-Ang**3):
 XXXX=         -13751.7237 YYYY=          -5698.5125 ZZZZ=          -7818.7339 XXXY=            412.4101
 XXXZ=            -27.6773 YYYX=            412.3555 YYYZ=           -916.2945 ZZZX=            -74.4792
 ZZZY=           -930.0097 XXYY=          -2956.6696 XXZZ=          -3452.5150 YYZZ=          -2248.4853
 XXYZ=           -209.9440 YYXZ=            -20.3790 ZZXY=            107.0214
 N-N= 5.732744078974D+03 E-N=-1.636052685675D+04  KE= 2.083113193235D+03
 Unable to Open any file for archive entry.
 1\1\GINC-NODE19\SP\RwB97XD\6-311++G(d,p)\C31H50B1Li1N1O6P1\WHUGHES2\08
 -Oct-2025\0\\# wb97xd/6-311++g** nosymm int=ultrafine scrf=(smd,solven
 t=tetrahydrofuran)\\aziridinium-phos-full-c2_tzpop-sp\\0,1\C,0,-1.8347
 ,1.158,2.5856\C,0,-0.4395,1.6694,2.5394\H,0,-0.0377,1.8196,1.5391\C,0,
 0.2504,2.4688,3.613\H,0,-0.0232,3.5239,3.5012\H,0,-0.0258,2.1527,4.622
 9\H,0,1.3373,2.3886,3.5122\C,0,-2.6441,1.3633,3.8461\H,0,-3.1871,2.312
 ,3.7675\H,0,-3.3903,0.5696,3.9401\H,0,-2.0431,1.3957,4.7623\B,0,-2.716
 5,1.0489,1.1762\C,0,-2.7325,2.5265,0.4842\H,0,-3.4922,2.5961,-0.3063\H
 ,0,-2.9598,3.3219,1.2127\H,0,-1.7631,2.7794,0.0287\O,0,-2.1738,0.019,0
 .2146\O,0,-4.0558,0.5221,1.5268\C,0,-4.414,-0.5151,0.6436\C,0,-3.033,-
 1.1234,0.2286\C,0,-5.1826,0.0687,-0.553\H,0,-4.5513,0.7331,-1.1491\H,0
 ,-5.5807,-0.7129,-1.2113\H,0,-6.025,0.6579,-0.1732\C,0,-5.3279,-1.5014
 ,1.3698\H,0,-6.2839,-1.0166,1.6003\H,0,-5.5372,-2.3819,0.7492\H,0,-4.8
 861,-1.8361,2.3127\C,0,-3.0383,-1.7698,-1.1523\H,0,-2.0728,-2.2387,-1.
 3503\H,0,-3.8115,-2.5451,-1.2154\H,0,-3.2206,-1.0317,-1.9395\C,0,-2.49
 81,-2.1303,1.2532\H,0,-3.048,-3.0781,1.2166\H,0,-1.4437,-2.3321,1.0335
 \H,0,-2.5639,-1.7348,2.2725\P,0,1.8361,-0.2863,0.5192\O,0,1.0844,0.792
 7,-0.2563\O,0,0.9957,-1.3722,1.1795\N,0,-0.67,0.2195,2.7797\H,0,-0.352
 7,-0.4385,2.0461\H,0,-0.4769,-0.1125,3.7221\Li,0,-0.5986,0.0991,-0.956
 \C,0,0.4367,-2.8721,-1.7592\O,0,0.0919,-1.5342,-2.1197\C,0,0.044,-1.51
 33,-3.5413\C,0,-0.6578,-2.8174,-3.927\C,0,-0.2763,-3.7796,-2.7781\H,0,
 1.5269,-2.9872,-1.826\H,0,0.1373,-3.0184,-0.7203\H,0,-0.4855,-0.6081,-
 3.8405\H,0,1.0709,-1.4814,-3.9377\H,0,-1.7412,-2.6646,-3.9594\H,0,-0.3
 36,-3.1778,-4.9083\H,0,-1.1653,-4.2462,-2.3436\H,0,0.3892,-4.5798,-3.1
 148\C,0,-2.1816,1.7986,-2.9643\O,0,-0.9337,1.3162,-2.4701\C,0,0.0821,2
 .2108,-2.9165\C,0,-0.5499,3.5907,-2.7698\C,0,-2.0364,3.3283,-3.0911\H,
 0,-2.3856,1.3319,-3.9383\H,0,-2.9467,1.4862,-2.2528\H,0,0.9559,2.0416,
 -2.2859\H,0,0.329,1.9897,-3.967\H,0,-0.4335,3.9397,-1.7389\H,0,-0.0952
 ,4.3289,-3.4367\H,0,-2.6946,3.8519,-2.3925\H,0,-2.2904,3.6553,-4.1038\
 C,0,3.0688,-1.0434,-0.5946\C,0,3.8647,-2.108,-0.1583\C,0,3.2013,-0.586
 7,-1.9079\C,0,4.7745,-2.7115,-1.0239\H,0,3.7671,-2.4755,0.8609\C,0,4.1
 095,-1.1896,-2.7777\H,0,2.5714,0.2293,-2.2501\C,0,4.8958,-2.2539,-2.33
 72\H,0,5.386,-3.5403,-0.6769\H,0,4.2005,-0.8316,-3.8001\H,0,5.6029,-2.
 7259,-3.0146\C,0,2.8294,0.538,1.8151\C,0,3.4294,1.7777,1.5677\C,0,2.98
 36,-0.0534,3.0723\C,0,4.1709,2.4156,2.56\H,0,3.3054,2.2505,0.5964\C,0,
 3.7245,0.5828,4.0685\H,0,2.5104,-1.0117,3.2707\C,0,4.3186,1.8183,3.813
 1\H,0,4.6294,3.3803,2.3592\H,0,3.8357,0.1162,5.044\H,0,4.8942,2.3166,4
 .5888\\Version=AS64L-G16RevC.01\HF=-2091.4770745\RMSD=7.569e-09\Dipole
 =1.3194626,-0.2262989,-0.9395276\Quadrupole=-22.4516504,-1.5562428,24.
 0078933,5.7686509,7.8300214,2.5426606\PG=C01 [X(C31H50B1Li1N1O6P1)]\\@
 The archive entry for this job was punched.


 IT IS UNWORTHY OF EXCELLENT MEN TO LOSE HOURS LIKE SLAVES IN THE LABOR
 OF CALCULATION WHICH COULD BE SAFELY RELEGATED TO ANYONE ELSE
 IF A MACHINE WERE USED.
    -- G.W. VON LEIBNIZ
 Job cpu time:       0 days  7 hours 14 minutes 43.8 seconds.
 Elapsed time:       0 days  1 hours 49 minutes 35.2 seconds.
 File lengths (MBytes):  RWF=   1318 Int=      0 D2E=      0 Chk=     95 Scr=      1
 Normal termination of Gaussian 16 at Wed Oct  8 17:17:20 2025.
