Job Start Time: Wed Oct  8 15:27:45 MDT 2025
SLURM Job ID: 768189
SLURM Job Name: openTS-phos-full-unfrz-c9_tzpop-sp
 Entering Gaussian System, Link 0=/opt/apps/Gaussian/G16C/g16/g16
 Initial command:
 /opt/apps/Gaussian/G16C/g16/l1.exe "/tmp/768189/Gau-2376651.inp" -scrdir="/tmp/768189/"
 Entering Link 1 = /opt/apps/Gaussian/G16C/g16/l1.exe PID=   2376655.
  
 Copyright (c) 1988-2019, Gaussian, Inc.  All Rights Reserved.
  
 This is part of the Gaussian(R) 16 program.  It is based on
 the Gaussian(R) 09 system (copyright 2009, Gaussian, Inc.),
 the Gaussian(R) 03 system (copyright 2003, Gaussian, Inc.),
 the Gaussian(R) 98 system (copyright 1998, Gaussian, Inc.),
 the Gaussian(R) 94 system (copyright 1995, Gaussian, Inc.),
 the Gaussian 92(TM) system (copyright 1992, Gaussian, Inc.),
 the Gaussian 90(TM) system (copyright 1990, Gaussian, Inc.),
 the Gaussian 88(TM) system (copyright 1988, Gaussian, Inc.),
 the Gaussian 86(TM) system (copyright 1986, Carnegie Mellon
 University), and the Gaussian 82(TM) system (copyright 1983,
 Carnegie Mellon University). Gaussian is a federally registered
 trademark of Gaussian, Inc.
  
 This software contains proprietary and confidential information,
 including trade secrets, belonging to Gaussian, Inc.
  
 This software is provided under written license and may be
 used, copied, transmitted, or stored only in accord with that
 written license.
  
 The following legend is applicable only to US Government
 contracts under FAR:
  
                    RESTRICTED RIGHTS LEGEND
  
 Use, reproduction and disclosure by the US Government is
 subject to restrictions as set forth in subparagraphs (a)
 and (c) of the Commercial Computer Software - Restricted
 Rights clause in FAR 52.227-19.
  
 Gaussian, Inc.
 340 Quinnipiac St., Bldg. 40, Wallingford CT 06492
  
  
 ---------------------------------------------------------------
 Warning -- This program may not be used in any manner that
 competes with the business of Gaussian, Inc. or will provide
 assistance to any competitor of Gaussian, Inc.  The licensee
 of this program is prohibited from giving any competitor of
 Gaussian, Inc. access to this program.  By using this program,
 the user acknowledges that Gaussian, Inc. is engaged in the
 business of creating and licensing software in the field of
 computational chemistry and represents and warrants to the
 licensee that it is not a competitor of Gaussian, Inc. and that
 it will not use this program in any manner prohibited above.
 ---------------------------------------------------------------
  

 Cite this work as:
 Gaussian 16, Revision C.01,
 M. J. Frisch, G. W. Trucks, H. B. Schlegel, G. E. Scuseria, 
 M. A. Robb, J. R. Cheeseman, G. Scalmani, V. Barone, 
 G. A. Petersson, H. Nakatsuji, X. Li, M. Caricato, A. V. Marenich, 
 J. Bloino, B. G. Janesko, R. Gomperts, B. Mennucci, H. P. Hratchian, 
 J. V. Ortiz, A. F. Izmaylov, J. L. Sonnenberg, D. Williams-Young, 
 F. Ding, F. Lipparini, F. Egidi, J. Goings, B. Peng, A. Petrone, 
 T. Henderson, D. Ranasinghe, V. G. Zakrzewski, J. Gao, N. Rega, 
 G. Zheng, W. Liang, M. Hada, M. Ehara, K. Toyota, R. Fukuda, 
 J. Hasegawa, M. Ishida, T. Nakajima, Y. Honda, O. Kitao, H. Nakai, 
 T. Vreven, K. Throssell, J. A. Montgomery, Jr., J. E. Peralta, 
 F. Ogliaro, M. J. Bearpark, J. J. Heyd, E. N. Brothers, K. N. Kudin, 
 V. N. Staroverov, T. A. Keith, R. Kobayashi, J. Normand, 
 K. Raghavachari, A. P. Rendell, J. C. Burant, S. S. Iyengar, 
 J. Tomasi, M. Cossi, J. M. Millam, M. Klene, C. Adamo, R. Cammi, 
 J. W. Ochterski, R. L. Martin, K. Morokuma, O. Farkas, 
 J. B. Foresman, and D. J. Fox, Gaussian, Inc., Wallingford CT, 2019.
 
 ******************************************
 Gaussian 16:  AS64L-G16RevC.01  3-Jul-2019
                 8-Oct-2025 
 ******************************************
 %chk=openTS-phos-full-unfrz-c9_tzpop-sp.chk
 %nprocshared=4
 Will use up to    4 processors via shared memory.
 %mem=8GB
 ----------------------------------------------------------------------
 # wb97xd/6-311++g** nosymm int=ultrafine scrf=(smd,solvent=tetrahydrof
 uran)
 ----------------------------------------------------------------------
 1/38=1,172=1/1;
 2/12=2,15=1,17=6,18=5,40=1/2;
 3/5=4,6=6,7=1111,11=2,25=1,30=1,70=32201,72=20,74=-58,75=-5/1,2,3;
 4//1;
 5/5=2,38=5,53=20/2;
 6/7=2,8=2,9=2,10=2,28=1/1;
 99/5=1,9=1/99;
 ----------------------------------
 openTS-phos-full-unfrz-c9_tzpop-sp
 ----------------------------------
 Symbolic Z-matrix:
 Charge =  0 Multiplicity = 1
 C                    -2.9365    1.8433    2.1009 
 C                    -1.5479    2.1847    2.5177 
 H                    -0.8283    1.8942    1.7476 
 C                    -1.2562    3.5853    3.0269 
 H                    -1.8745    3.8361    3.8955 
 H                    -0.2064    3.6534    3.3283 
 H                    -1.4436    4.3326    2.2488 
 C                    -4.0643    2.6141    2.6769 
 H                    -5.0255    2.1346    2.4822 
 H                    -3.9329    2.7609    3.7557 
 H                    -4.0668    3.6235    2.2388 
 B                    -3.199     0.7875    0.9458 
 C                    -3.2688    1.9556   -0.2567 
 H                    -2.5015    2.7359   -0.2794 
 H                    -3.1636    1.3621   -1.1749 
 H                    -4.2509    2.4415   -0.2677 
 O                    -2.113    -0.2013    0.7892 
 O                    -4.4376    0.0378    0.9709 
 C                    -4.1292   -1.2771    1.4095 
 C                    -2.6939   -1.5232    0.8156 
 C                    -5.191    -2.2347    0.8768 
 H                    -6.1536   -2.0181    1.3543 
 H                    -5.3197   -2.1289   -0.2036 
 H                    -4.9297   -3.2762    1.099 
 C                    -4.168    -1.317     2.9443 
 H                    -4.0033   -2.3286    3.331 
 H                    -3.4223   -0.6563    3.3955 
 H                    -5.1558   -0.9797    3.2777 
 C                    -2.7374   -2.0454   -0.6211 
 H                    -1.7162   -2.0816   -1.0098 
 H                    -3.1481   -3.0599   -0.6682 
 H                    -3.3386   -1.3911   -1.2609 
 C                    -1.8158   -2.4375    1.6606 
 H                    -1.6478   -2.0302    2.6626 
 H                    -2.283    -3.4242    1.7681 
 H                    -0.8442   -2.5733    1.1769 
 P                     1.762    -1.9551   -0.1676 
 O                     0.4935   -1.2939   -0.7032 
 O                     1.7038   -3.3562    0.3944 
 N                    -1.4344    1.1935    3.597 
 H                    -2.1229    1.3016    4.3371 
 H                    -1.4342    0.2389    3.247 
 Li                   -0.7159    0.1324   -0.6319 
 C                     1.6929    1.8566   -1.0208 
 O                     0.3443    2.012    -0.5677 
 C                     0.2147    3.4088   -0.3118 
 C                     1.4946    3.7812    0.4342 
 C                     2.5361    2.8006   -0.1517 
 H                     1.9535    0.8076   -0.9187 
 H                     1.7423    2.1401   -2.0818 
 H                     0.1407    3.9469   -1.2697 
 H                    -0.7007    3.5789    0.2527 
 H                     1.7607    4.8314    0.2854 
 H                     1.3642    3.6096    1.5072 
 H                     3.2949    3.3102   -0.7522 
 H                     3.0461    2.2467    0.6406 
 C                    -1.0843   -0.8443   -3.4372 
 O                    -1.2964    0.2879   -2.5743 
 C                    -1.2093    1.4784   -3.3543 
 C                    -0.1473    1.1671   -4.3986 
 C                    -0.4564   -0.2993   -4.7332 
 H                    -0.4305   -1.5302   -2.8951 
 H                    -2.0473   -1.334    -3.6227 
 H                    -2.1824    1.685    -3.8252 
 H                    -0.9569    2.2976   -2.6792 
 H                    -0.2051    1.827    -5.2691 
 H                     0.8495    1.2633   -3.9543 
 H                    -1.1707   -0.3587   -5.5608 
 H                     0.4367   -0.8624   -5.018 
 C                     2.3995   -0.8127    1.1275 
 C                     1.4663   -0.1082    1.8988 
 C                     3.7593   -0.6529    1.4134 
 C                     1.8779    0.7273    2.9347 
 H                     0.4056   -0.2117    1.6789 
 C                     4.1772    0.1888    2.445 
 H                     4.5069   -1.1814    0.827 
 C                     3.2372    0.8786    3.2098 
 H                     1.1323    1.2561    3.5235 
 H                     5.2384    0.3052    2.6502 
 H                     3.5623    1.5335    4.0142 
 C                     2.9823   -1.9053   -1.5379 
 C                     2.7268   -1.1427   -2.6832 
 C                     4.1632   -2.6553   -1.4797 
 C                     3.6357   -1.1139   -3.74 
 H                     1.7987   -0.5816   -2.7485 
 C                     5.0784   -2.6245   -2.5308 
 H                     4.3616   -3.2778   -0.6107 
 C                     4.8174   -1.8504   -3.6621 
 H                     3.4195   -0.521    -4.6255 
 H                     5.9917   -3.211    -2.4714 
 H                     5.5285   -1.8296   -4.484 
 
 Symmetry turned off by external request.
 Stoichiometry    C31H50BLiNO6P
 Framework group  C1[X(C31H50BLiNO6P)]
 Deg. of freedom   267
 Full point group                 C1      NOp   1
                          Input orientation:                          
 ---------------------------------------------------------------------
 Center     Atomic      Atomic             Coordinates (Angstroms)
 Number     Number       Type             X           Y           Z
 ---------------------------------------------------------------------
      1          6           0       -2.936500    1.843300    2.100900
      2          6           0       -1.547900    2.184700    2.517700
      3          1           0       -0.828300    1.894200    1.747600
      4          6           0       -1.256200    3.585300    3.026900
      5          1           0       -1.874500    3.836100    3.895500
      6          1           0       -0.206400    3.653400    3.328300
      7          1           0       -1.443600    4.332600    2.248800
      8          6           0       -4.064300    2.614100    2.676900
      9          1           0       -5.025500    2.134600    2.482200
     10          1           0       -3.932900    2.760900    3.755700
     11          1           0       -4.066800    3.623500    2.238800
     12          5           0       -3.199000    0.787500    0.945800
     13          6           0       -3.268800    1.955600   -0.256700
     14          1           0       -2.501500    2.735900   -0.279400
     15          1           0       -3.163600    1.362100   -1.174900
     16          1           0       -4.250900    2.441500   -0.267700
     17          8           0       -2.113000   -0.201300    0.789200
     18          8           0       -4.437600    0.037800    0.970900
     19          6           0       -4.129200   -1.277100    1.409500
     20          6           0       -2.693900   -1.523200    0.815600
     21          6           0       -5.191000   -2.234700    0.876800
     22          1           0       -6.153600   -2.018100    1.354300
     23          1           0       -5.319700   -2.128900   -0.203600
     24          1           0       -4.929700   -3.276200    1.099000
     25          6           0       -4.168000   -1.317000    2.944300
     26          1           0       -4.003300   -2.328600    3.331000
     27          1           0       -3.422300   -0.656300    3.395500
     28          1           0       -5.155800   -0.979700    3.277700
     29          6           0       -2.737400   -2.045400   -0.621100
     30          1           0       -1.716200   -2.081600   -1.009800
     31          1           0       -3.148100   -3.059900   -0.668200
     32          1           0       -3.338600   -1.391100   -1.260900
     33          6           0       -1.815800   -2.437500    1.660600
     34          1           0       -1.647800   -2.030200    2.662600
     35          1           0       -2.283000   -3.424200    1.768100
     36          1           0       -0.844200   -2.573300    1.176900
     37         15           0        1.762000   -1.955100   -0.167600
     38          8           0        0.493500   -1.293900   -0.703200
     39          8           0        1.703800   -3.356200    0.394400
     40          7           0       -1.434400    1.193500    3.597000
     41          1           0       -2.122900    1.301600    4.337100
     42          1           0       -1.434200    0.238900    3.247000
     43          3           0       -0.715900    0.132400   -0.631900
     44          6           0        1.692900    1.856600   -1.020800
     45          8           0        0.344300    2.012000   -0.567700
     46          6           0        0.214700    3.408800   -0.311800
     47          6           0        1.494600    3.781200    0.434200
     48          6           0        2.536100    2.800600   -0.151700
     49          1           0        1.953500    0.807600   -0.918700
     50          1           0        1.742300    2.140100   -2.081800
     51          1           0        0.140700    3.946900   -1.269700
     52          1           0       -0.700700    3.578900    0.252700
     53          1           0        1.760700    4.831400    0.285400
     54          1           0        1.364200    3.609600    1.507200
     55          1           0        3.294900    3.310200   -0.752200
     56          1           0        3.046100    2.246700    0.640600
     57          6           0       -1.084300   -0.844300   -3.437200
     58          8           0       -1.296400    0.287900   -2.574300
     59          6           0       -1.209300    1.478400   -3.354300
     60          6           0       -0.147300    1.167100   -4.398600
     61          6           0       -0.456400   -0.299300   -4.733200
     62          1           0       -0.430500   -1.530200   -2.895100
     63          1           0       -2.047300   -1.334000   -3.622700
     64          1           0       -2.182400    1.685000   -3.825200
     65          1           0       -0.956900    2.297600   -2.679200
     66          1           0       -0.205100    1.827000   -5.269100
     67          1           0        0.849500    1.263300   -3.954300
     68          1           0       -1.170700   -0.358700   -5.560800
     69          1           0        0.436700   -0.862400   -5.018000
     70          6           0        2.399500   -0.812700    1.127500
     71          6           0        1.466300   -0.108200    1.898800
     72          6           0        3.759300   -0.652900    1.413400
     73          6           0        1.877900    0.727300    2.934700
     74          1           0        0.405600   -0.211700    1.678900
     75          6           0        4.177200    0.188800    2.445000
     76          1           0        4.506900   -1.181400    0.827000
     77          6           0        3.237200    0.878600    3.209800
     78          1           0        1.132300    1.256100    3.523500
     79          1           0        5.238400    0.305200    2.650200
     80          1           0        3.562300    1.533500    4.014200
     81          6           0        2.982300   -1.905300   -1.537900
     82          6           0        2.726800   -1.142700   -2.683200
     83          6           0        4.163200   -2.655300   -1.479700
     84          6           0        3.635700   -1.113900   -3.740000
     85          1           0        1.798700   -0.581600   -2.748500
     86          6           0        5.078400   -2.624500   -2.530800
     87          1           0        4.361600   -3.277800   -0.610700
     88          6           0        4.817400   -1.850400   -3.662100
     89          1           0        3.419500   -0.521000   -4.625500
     90          1           0        5.991700   -3.211000   -2.471400
     91          1           0        5.528500   -1.829600   -4.484000
 ---------------------------------------------------------------------
 Rotational constants (GHZ):           0.1143993           0.0705401           0.0644299
 Standard basis: 6-311++G(d,p) (5D, 7F)
  1260 basis functions,  1940 primitive gaussians,  1301 cartesian basis functions
   157 alpha electrons      157 beta electrons
       nuclear repulsion energy      5730.5990959972 Hartrees.
 NAtoms=   91 NActive=   91 NUniq=   91 SFac= 1.00D+00 NAtFMM=   60 NAOKFM=T Big=T
 Integral buffers will be    131072 words long.
 Raffenetti 2 integral format.
 Two-electron integral symmetry is turned off.
 Nuclear repulsion after empirical dispersion term =     5730.4762489983 Hartrees.
 ------------------------------------------------------------------------------
 Polarizable Continuum Model (PCM)
 =================================
 Model                : PCM.
 Atomic radii         : SMD-Coulomb.
 Polarization charges : Total charges.
 Charge compensation  : None.
 Solution method      : On-the-fly selection.
 Cavity type          : VdW (van der Waals Surface) (Alpha=1.000).
 Cavity algorithm     : GePol (No added spheres)
                        Default sphere list used, NSphG=   91.
                        Lebedev-Laikov grids with approx.  5.0 points / Ang**2.
                        Smoothing algorithm: York/Karplus (Gamma=1.0000).
                        Polarization charges: spherical gaussians, with
                                              point-specific exponents (IZeta= 3).
                        Self-potential: point-specific (ISelfS= 7).
                        Self-field    : sphere-specific E.n sum rule (ISelfD= 2).
 Solvent              : TetraHydroFuran, Eps=   7.425700 Eps(inf)=   1.974025
 ------------------------------------------------------------------------------
 ------------------------------------------------------------------------------
 Atomic radii for non-electrostatic terms: SMD-CDS.
 ------------------------------------------------------------------------------
 Nuclear repulsion after PCM non-electrostatic terms =     5730.4676932472 Hartrees.
 One-electron integrals computed using PRISM.
 NBasis=  1260 RedAO= T EigKep=  1.07D-06  NBF=  1260
 NBsUse=  1250 1.00D-06 EigRej=  9.91D-07 NBFU=  1250
 ExpMin= 7.40D-03 ExpMax= 7.75D+04 ExpMxC= 2.65D+03 IAcc=3 IRadAn=         5 AccDes= 0.00D+00
 Harris functional with IExCor= 4639 and IRadAn=       5 diagonalized for initial guess.
 HarFok:  IExCor= 4639 AccDes= 0.00D+00 IRadAn=         5 IDoV= 1 UseB2=F ITyADJ=14
 ICtDFT=  3500011 ScaDFX=  1.000000  1.000000  1.000000  1.000000
 FoFCou: FMM=F IPFlag=           0 FMFlag=      100000 FMFlg1=        2001
         NFxFlg=           0 DoJE=T BraDBF=F KetDBF=T FulRan=T
         wScrn=  0.000000 ICntrl=       500 IOpCl=  0 I1Cent=   200000004 NGrid=           0
         NMat0=    1 NMatS0=      1 NMatT0=    0 NMatD0=    1 NMtDS0=    0 NMtDT0=    0
 Symmetry not used in FoFCou.
 Requested convergence on RMS density matrix=1.00D-08 within 128 cycles.
 Requested convergence on MAX density matrix=1.00D-06.
 Requested convergence on             energy=1.00D-06.
 No special actions if energy rises.
 Inv3:  Mode=1 IEnd=    90816012.
 Iteration    1 A*A^-1 deviation from unit magnitude is 1.04D-14 for   5481.
 Iteration    1 A*A^-1 deviation from orthogonality  is 4.01D-15 for   5496   4022.
 Iteration    1 A^-1*A deviation from unit magnitude is 1.04D-14 for   5481.
 Iteration    1 A^-1*A deviation from orthogonality  is 1.08D-14 for   4022   1062.
 Error on total polarization charges =  0.07737
 SCF Done:  E(RwB97XD) =  -2091.43986737     A.U. after   17 cycles
            NFock= 17  Conv=0.79D-08     -V/T= 2.0040
 SMD-CDS (non-electrostatic) energy       (kcal/mol) =      -5.37
 (included in total energy above)

 **********************************************************************

            Population analysis using the SCF Density.

 **********************************************************************

 Alpha  occ. eigenvalues --  -77.25764 -19.26281 -19.25376 -19.21645 -19.20142
 Alpha  occ. eigenvalues --  -19.17178 -19.16039 -14.44425 -10.34641 -10.33265
 Alpha  occ. eigenvalues --  -10.32767 -10.32531 -10.32331 -10.32198 -10.31977
 Alpha  occ. eigenvalues --  -10.31505 -10.28863 -10.28771 -10.28626 -10.28598
 Alpha  occ. eigenvalues --  -10.28561 -10.28540 -10.28524 -10.28512 -10.28450
 Alpha  occ. eigenvalues --  -10.28360 -10.28237 -10.28151 -10.28148 -10.27774
 Alpha  occ. eigenvalues --  -10.27715 -10.27676 -10.27526 -10.27400 -10.25701
 Alpha  occ. eigenvalues --  -10.25571 -10.25036 -10.24787 -10.24755  -6.83835
 Alpha  occ. eigenvalues --   -6.70054  -4.84791  -4.84771  -4.84698  -1.99539
 Alpha  occ. eigenvalues --   -1.15382  -1.14308  -1.12385  -1.06193  -1.05768
 Alpha  occ. eigenvalues --   -1.02411  -0.99999  -0.95483  -0.95302  -0.89449
 Alpha  occ. eigenvalues --   -0.87933  -0.87851  -0.87735  -0.84897  -0.84340
 Alpha  occ. eigenvalues --   -0.84203  -0.83892  -0.83750  -0.83261  -0.83222
 Alpha  occ. eigenvalues --   -0.82704  -0.78518  -0.78143  -0.75643  -0.75044
 Alpha  occ. eigenvalues --   -0.71085  -0.69787  -0.69453  -0.69250  -0.69112
 Alpha  occ. eigenvalues --   -0.68756  -0.68607  -0.68176  -0.67997  -0.65705
 Alpha  occ. eigenvalues --   -0.63400  -0.62337  -0.61758  -0.60672  -0.60321
 Alpha  occ. eigenvalues --   -0.59622  -0.59497  -0.58114  -0.57941  -0.57502
 Alpha  occ. eigenvalues --   -0.56619  -0.54920  -0.54211  -0.53929  -0.53830
 Alpha  occ. eigenvalues --   -0.53522  -0.53332  -0.52941  -0.52820  -0.52569
 Alpha  occ. eigenvalues --   -0.52425  -0.51008  -0.50800  -0.50686  -0.50455
 Alpha  occ. eigenvalues --   -0.50250  -0.50061  -0.49726  -0.49659  -0.49238
 Alpha  occ. eigenvalues --   -0.48552  -0.48211  -0.48004  -0.47535  -0.47214
 Alpha  occ. eigenvalues --   -0.47117  -0.46966  -0.46327  -0.46082  -0.45942
 Alpha  occ. eigenvalues --   -0.45531  -0.45448  -0.44625  -0.44263  -0.43804
 Alpha  occ. eigenvalues --   -0.43725  -0.43469  -0.43165  -0.43073  -0.42917
 Alpha  occ. eigenvalues --   -0.42593  -0.42455  -0.42324  -0.41864  -0.41829
 Alpha  occ. eigenvalues --   -0.41535  -0.41417  -0.41376  -0.41169  -0.40550
 Alpha  occ. eigenvalues --   -0.39961  -0.39886  -0.38919  -0.36580  -0.35945
 Alpha  occ. eigenvalues --   -0.35472  -0.35204  -0.34331  -0.34217  -0.33900
 Alpha  occ. eigenvalues --   -0.32962  -0.32898  -0.32668  -0.32581  -0.32042
 Alpha  occ. eigenvalues --   -0.30932  -0.30369
 Alpha virt. eigenvalues --   -0.00815   0.02210   0.02572   0.02609   0.02897
 Alpha virt. eigenvalues --    0.03825   0.05365   0.05461   0.05570   0.05674
 Alpha virt. eigenvalues --    0.05787   0.05928   0.06025   0.06174   0.06625
 Alpha virt. eigenvalues --    0.06990   0.07123   0.07301   0.07409   0.07577
 Alpha virt. eigenvalues --    0.07672   0.07833   0.08047   0.08324   0.08342
 Alpha virt. eigenvalues --    0.08834   0.08966   0.09270   0.09415   0.09625
 Alpha virt. eigenvalues --    0.09792   0.09990   0.10487   0.10835   0.10936
 Alpha virt. eigenvalues --    0.11142   0.11639   0.11821   0.11918   0.11997
 Alpha virt. eigenvalues --    0.12267   0.12814   0.12896   0.13111   0.13462
 Alpha virt. eigenvalues --    0.13760   0.13827   0.14013   0.14187   0.14512
 Alpha virt. eigenvalues --    0.14650   0.14740   0.14863   0.15201   0.15377
 Alpha virt. eigenvalues --    0.15489   0.15668   0.15811   0.16009   0.16240
 Alpha virt. eigenvalues --    0.16514   0.16654   0.16873   0.16917   0.17014
 Alpha virt. eigenvalues --    0.17340   0.17392   0.17648   0.17772   0.17911
 Alpha virt. eigenvalues --    0.18032   0.18230   0.18259   0.18457   0.18573
 Alpha virt. eigenvalues --    0.18599   0.18702   0.18891   0.19046   0.19199
 Alpha virt. eigenvalues --    0.19286   0.19496   0.19554   0.19719   0.19894
 Alpha virt. eigenvalues --    0.20003   0.20113   0.20245   0.20338   0.20392
 Alpha virt. eigenvalues --    0.20650   0.20827   0.20912   0.20965   0.21165
 Alpha virt. eigenvalues --    0.21333   0.21355   0.21386   0.21557   0.21599
 Alpha virt. eigenvalues --    0.21757   0.21888   0.21950   0.22185   0.22309
 Alpha virt. eigenvalues --    0.22440   0.22508   0.22588   0.22923   0.22998
 Alpha virt. eigenvalues --    0.23115   0.23257   0.23311   0.23431   0.23623
 Alpha virt. eigenvalues --    0.23832   0.24023   0.24068   0.24222   0.24275
 Alpha virt. eigenvalues --    0.24417   0.24596   0.24753   0.24879   0.25046
 Alpha virt. eigenvalues --    0.25057   0.25263   0.25317   0.25627   0.25705
 Alpha virt. eigenvalues --    0.25758   0.25997   0.26067   0.26217   0.26537
 Alpha virt. eigenvalues --    0.26630   0.26738   0.26887   0.26956   0.27134
 Alpha virt. eigenvalues --    0.27267   0.27435   0.27486   0.27657   0.27805
 Alpha virt. eigenvalues --    0.28028   0.28036   0.28375   0.28419   0.28619
 Alpha virt. eigenvalues --    0.28695   0.28797   0.28981   0.29113   0.29212
 Alpha virt. eigenvalues --    0.29277   0.29516   0.29705   0.29820   0.29995
 Alpha virt. eigenvalues --    0.30045   0.30138   0.30502   0.30655   0.30789
 Alpha virt. eigenvalues --    0.30996   0.31087   0.31349   0.31442   0.31575
 Alpha virt. eigenvalues --    0.31745   0.31955   0.32085   0.32123   0.32401
 Alpha virt. eigenvalues --    0.32493   0.32708   0.32919   0.33024   0.33289
 Alpha virt. eigenvalues --    0.33501   0.33653   0.33728   0.33774   0.34147
 Alpha virt. eigenvalues --    0.34265   0.34381   0.34713   0.34722   0.34863
 Alpha virt. eigenvalues --    0.35034   0.35246   0.35362   0.35677   0.35888
 Alpha virt. eigenvalues --    0.35932   0.36050   0.36156   0.36285   0.36440
 Alpha virt. eigenvalues --    0.36591   0.36981   0.37051   0.37359   0.37386
 Alpha virt. eigenvalues --    0.37601   0.37918   0.37958   0.38033   0.38233
 Alpha virt. eigenvalues --    0.38388   0.38691   0.38735   0.38946   0.39119
 Alpha virt. eigenvalues --    0.39253   0.39314   0.39475   0.39629   0.39788
 Alpha virt. eigenvalues --    0.40022   0.40081   0.40256   0.40462   0.40631
 Alpha virt. eigenvalues --    0.40788   0.41056   0.41223   0.41364   0.41483
 Alpha virt. eigenvalues --    0.41684   0.41767   0.41859   0.42109   0.42550
 Alpha virt. eigenvalues --    0.42584   0.42877   0.42950   0.43044   0.43402
 Alpha virt. eigenvalues --    0.43542   0.43757   0.43782   0.44117   0.44196
 Alpha virt. eigenvalues --    0.44462   0.44680   0.44785   0.45099   0.45236
 Alpha virt. eigenvalues --    0.45509   0.45747   0.45871   0.46266   0.46335
 Alpha virt. eigenvalues --    0.46640   0.46743   0.46940   0.47240   0.47412
 Alpha virt. eigenvalues --    0.47599   0.47636   0.47968   0.48191   0.48411
 Alpha virt. eigenvalues --    0.48592   0.48904   0.49025   0.49268   0.49330
 Alpha virt. eigenvalues --    0.49606   0.50302   0.50615   0.50683   0.50743
 Alpha virt. eigenvalues --    0.51327   0.51674   0.52009   0.52268   0.52380
 Alpha virt. eigenvalues --    0.52688   0.53454   0.53704   0.54004   0.54040
 Alpha virt. eigenvalues --    0.54359   0.55137   0.55494   0.55960   0.56167
 Alpha virt. eigenvalues --    0.56683   0.56901   0.57577   0.58043   0.58220
 Alpha virt. eigenvalues --    0.58608   0.58670   0.59442   0.59778   0.60108
 Alpha virt. eigenvalues --    0.60427   0.60794   0.60977   0.61480   0.61727
 Alpha virt. eigenvalues --    0.61756   0.62445   0.62592   0.62826   0.63412
 Alpha virt. eigenvalues --    0.63446   0.63527   0.64142   0.64400   0.64557
 Alpha virt. eigenvalues --    0.64773   0.64880   0.65382   0.65931   0.66111
 Alpha virt. eigenvalues --    0.66281   0.66551   0.66887   0.67249   0.67528
 Alpha virt. eigenvalues --    0.67898   0.68040   0.68274   0.68376   0.68831
 Alpha virt. eigenvalues --    0.69101   0.69292   0.69462   0.69866   0.70370
 Alpha virt. eigenvalues --    0.70523   0.71107   0.71255   0.71382   0.71581
 Alpha virt. eigenvalues --    0.72046   0.72290   0.72436   0.72686   0.72917
 Alpha virt. eigenvalues --    0.73254   0.73595   0.73803   0.74003   0.74238
 Alpha virt. eigenvalues --    0.74874   0.75007   0.75188   0.75393   0.75572
 Alpha virt. eigenvalues --    0.75869   0.76027   0.76453   0.76715   0.77050
 Alpha virt. eigenvalues --    0.77409   0.77844   0.78290   0.78446   0.78702
 Alpha virt. eigenvalues --    0.78816   0.78959   0.79245   0.79469   0.79864
 Alpha virt. eigenvalues --    0.80164   0.80549   0.80772   0.80824   0.80905
 Alpha virt. eigenvalues --    0.81107   0.81243   0.81881   0.81970   0.82161
 Alpha virt. eigenvalues --    0.82343   0.82607   0.82743   0.83041   0.83328
 Alpha virt. eigenvalues --    0.83513   0.83674   0.84069   0.84162   0.84548
 Alpha virt. eigenvalues --    0.84827   0.84952   0.85054   0.85446   0.85879
 Alpha virt. eigenvalues --    0.86077   0.86158   0.86372   0.86612   0.86762
 Alpha virt. eigenvalues --    0.87052   0.87267   0.87342   0.87591   0.87896
 Alpha virt. eigenvalues --    0.88123   0.88277   0.88406   0.88574   0.88671
 Alpha virt. eigenvalues --    0.89249   0.89382   0.89513   0.89724   0.90350
 Alpha virt. eigenvalues --    0.90847   0.90914   0.91049   0.91456   0.91913
 Alpha virt. eigenvalues --    0.92101   0.92266   0.92548   0.93011   0.93132
 Alpha virt. eigenvalues --    0.93535   0.93695   0.94008   0.94243   0.94671
 Alpha virt. eigenvalues --    0.94700   0.95304   0.95338   0.95458   0.95732
 Alpha virt. eigenvalues --    0.96088   0.96396   0.96837   0.97102   0.97386
 Alpha virt. eigenvalues --    0.97906   0.98164   0.98634   0.98730   0.98934
 Alpha virt. eigenvalues --    0.99689   0.99870   1.00376   1.00948   1.01053
 Alpha virt. eigenvalues --    1.01182   1.01575   1.02194   1.02499   1.02879
 Alpha virt. eigenvalues --    1.03246   1.03454   1.03723   1.04599   1.04871
 Alpha virt. eigenvalues --    1.05649   1.06404   1.07233   1.07521   1.07798
 Alpha virt. eigenvalues --    1.08210   1.08254   1.08733   1.10018   1.10219
 Alpha virt. eigenvalues --    1.10521   1.11106   1.11237   1.12032   1.12380
 Alpha virt. eigenvalues --    1.12985   1.13147   1.13688   1.14185   1.15008
 Alpha virt. eigenvalues --    1.15327   1.15687   1.15929   1.16344   1.16720
 Alpha virt. eigenvalues --    1.17378   1.17826   1.18716   1.18921   1.19483
 Alpha virt. eigenvalues --    1.19718   1.20467   1.20803   1.21106   1.21621
 Alpha virt. eigenvalues --    1.22295   1.22554   1.22902   1.24031   1.24161
 Alpha virt. eigenvalues --    1.24348   1.24938   1.25439   1.26015   1.26411
 Alpha virt. eigenvalues --    1.27283   1.27748   1.28583   1.28764   1.29934
 Alpha virt. eigenvalues --    1.30209   1.30690   1.30930   1.31095   1.31421
 Alpha virt. eigenvalues --    1.31822   1.32170   1.33238   1.33733   1.34232
 Alpha virt. eigenvalues --    1.34906   1.35132   1.35716   1.36094   1.36941
 Alpha virt. eigenvalues --    1.37445   1.38337   1.38558   1.38692   1.39710
 Alpha virt. eigenvalues --    1.39875   1.40856   1.41183   1.41682   1.42063
 Alpha virt. eigenvalues --    1.42780   1.43061   1.43523   1.44052   1.44330
 Alpha virt. eigenvalues --    1.45151   1.45386   1.45677   1.47101   1.47190
 Alpha virt. eigenvalues --    1.48108   1.48797   1.49876   1.50426   1.51141
 Alpha virt. eigenvalues --    1.51646   1.52295   1.52558   1.53721   1.54103
 Alpha virt. eigenvalues --    1.54742   1.55313   1.55462   1.56102   1.56815
 Alpha virt. eigenvalues --    1.57590   1.58567   1.58978   1.59086   1.59499
 Alpha virt. eigenvalues --    1.60142   1.60458   1.60852   1.61088   1.61799
 Alpha virt. eigenvalues --    1.62519   1.62792   1.62996   1.63565   1.63786
 Alpha virt. eigenvalues --    1.63939   1.64321   1.64400   1.65095   1.65359
 Alpha virt. eigenvalues --    1.65585   1.66025   1.66427   1.66715   1.66868
 Alpha virt. eigenvalues --    1.67160   1.67184   1.67776   1.68202   1.68423
 Alpha virt. eigenvalues --    1.68467   1.68858   1.69600   1.69888   1.69976
 Alpha virt. eigenvalues --    1.70317   1.70592   1.70740   1.71562   1.71750
 Alpha virt. eigenvalues --    1.72034   1.72319   1.72616   1.72940   1.73434
 Alpha virt. eigenvalues --    1.73781   1.74083   1.74415   1.74818   1.74905
 Alpha virt. eigenvalues --    1.75494   1.75747   1.76056   1.76353   1.76634
 Alpha virt. eigenvalues --    1.76912   1.77436   1.77572   1.77679   1.78073
 Alpha virt. eigenvalues --    1.78181   1.78377   1.79159   1.79358   1.79631
 Alpha virt. eigenvalues --    1.79964   1.80158   1.80491   1.80965   1.81317
 Alpha virt. eigenvalues --    1.81796   1.82238   1.82907   1.83010   1.83090
 Alpha virt. eigenvalues --    1.83593   1.83827   1.84211   1.84389   1.84658
 Alpha virt. eigenvalues --    1.85142   1.85330   1.85507   1.86004   1.86284
 Alpha virt. eigenvalues --    1.86744   1.86905   1.87150   1.87459   1.88288
 Alpha virt. eigenvalues --    1.88768   1.89659   1.89798   1.90238   1.90676
 Alpha virt. eigenvalues --    1.91132   1.91607   1.91836   1.92203   1.93108
 Alpha virt. eigenvalues --    1.93434   1.93644   1.94150   1.94265   1.94640
 Alpha virt. eigenvalues --    1.95077   1.95174   1.95344   1.95672   1.96339
 Alpha virt. eigenvalues --    1.96849   1.97019   1.97184   1.98054   1.98232
 Alpha virt. eigenvalues --    1.99264   1.99572   1.99806   1.99942   2.00531
 Alpha virt. eigenvalues --    2.00963   2.01239   2.01431   2.02149   2.02241
 Alpha virt. eigenvalues --    2.02637   2.03582   2.03751   2.04002   2.04108
 Alpha virt. eigenvalues --    2.04336   2.05094   2.05392   2.06002   2.06477
 Alpha virt. eigenvalues --    2.06823   2.07044   2.07209   2.07969   2.08127
 Alpha virt. eigenvalues --    2.08227   2.08757   2.09192   2.09353   2.10586
 Alpha virt. eigenvalues --    2.10769   2.11001   2.11304   2.11837   2.12213
 Alpha virt. eigenvalues --    2.12741   2.13173   2.13448   2.13995   2.14680
 Alpha virt. eigenvalues --    2.15079   2.15468   2.16093   2.16478   2.17157
 Alpha virt. eigenvalues --    2.17418   2.17688   2.18362   2.18848   2.19317
 Alpha virt. eigenvalues --    2.19752   2.20310   2.20650   2.20921   2.21554
 Alpha virt. eigenvalues --    2.22068   2.22650   2.23053   2.23656   2.24760
 Alpha virt. eigenvalues --    2.25624   2.26109   2.26621   2.27671   2.27709
 Alpha virt. eigenvalues --    2.28300   2.28808   2.29217   2.29418   2.29864
 Alpha virt. eigenvalues --    2.30822   2.31775   2.31993   2.32394   2.33241
 Alpha virt. eigenvalues --    2.34057   2.34663   2.35249   2.35497   2.36665
 Alpha virt. eigenvalues --    2.37401   2.37730   2.37979   2.39079   2.40322
 Alpha virt. eigenvalues --    2.41179   2.41438   2.41707   2.42286   2.42679
 Alpha virt. eigenvalues --    2.43338   2.43549   2.43749   2.44244   2.44939
 Alpha virt. eigenvalues --    2.46059   2.46401   2.46557   2.47282   2.48196
 Alpha virt. eigenvalues --    2.48734   2.49837   2.50589   2.51227   2.52303
 Alpha virt. eigenvalues --    2.53060   2.54118   2.54680   2.55044   2.55859
 Alpha virt. eigenvalues --    2.56537   2.58483   2.58994   2.59272   2.60414
 Alpha virt. eigenvalues --    2.60919   2.61050   2.61576   2.62055   2.62970
 Alpha virt. eigenvalues --    2.63504   2.64219   2.64947   2.65030   2.65234
 Alpha virt. eigenvalues --    2.65394   2.65974   2.66079   2.66711   2.66861
 Alpha virt. eigenvalues --    2.67442   2.67716   2.68382   2.68452   2.68932
 Alpha virt. eigenvalues --    2.69463   2.70157   2.70523   2.70949   2.71234
 Alpha virt. eigenvalues --    2.71489   2.72722   2.73010   2.73765   2.73922
 Alpha virt. eigenvalues --    2.74404   2.74549   2.75033   2.75155   2.76239
 Alpha virt. eigenvalues --    2.76650   2.76741   2.77580   2.78009   2.78545
 Alpha virt. eigenvalues --    2.79406   2.79890   2.80473   2.81150   2.81317
 Alpha virt. eigenvalues --    2.82067   2.82233   2.82393   2.83060   2.83520
 Alpha virt. eigenvalues --    2.84388   2.84656   2.85323   2.86331   2.86697
 Alpha virt. eigenvalues --    2.86766   2.87279   2.87444   2.87602   2.88533
 Alpha virt. eigenvalues --    2.88773   2.89240   2.89678   2.89900   2.90456
 Alpha virt. eigenvalues --    2.91357   2.91632   2.92391   2.92770   2.93346
 Alpha virt. eigenvalues --    2.93370   2.93917   2.94570   2.94748   2.95138
 Alpha virt. eigenvalues --    2.95495   2.96357   2.97016   2.97363   2.97661
 Alpha virt. eigenvalues --    2.97838   2.98242   2.98774   2.99302   2.99674
 Alpha virt. eigenvalues --    3.00012   3.00210   3.00542   3.00983   3.01093
 Alpha virt. eigenvalues --    3.01780   3.02317   3.02537   3.03104   3.03184
 Alpha virt. eigenvalues --    3.03793   3.04223   3.04622   3.05368   3.05633
 Alpha virt. eigenvalues --    3.05819   3.06755   3.06992   3.07193   3.07675
 Alpha virt. eigenvalues --    3.08143   3.08766   3.09532   3.09763   3.10434
 Alpha virt. eigenvalues --    3.11026   3.11414   3.11914   3.12575   3.13072
 Alpha virt. eigenvalues --    3.14129   3.15015   3.15083   3.16316   3.17517
 Alpha virt. eigenvalues --    3.18213   3.18556   3.18940   3.19929   3.20375
 Alpha virt. eigenvalues --    3.21071   3.21362   3.22221   3.22590   3.23604
 Alpha virt. eigenvalues --    3.24528   3.25177   3.26752   3.27111   3.27644
 Alpha virt. eigenvalues --    3.28379   3.28399   3.30088   3.30446   3.31303
 Alpha virt. eigenvalues --    3.31839   3.32546   3.33073   3.33527   3.34129
 Alpha virt. eigenvalues --    3.34664   3.35159   3.35596   3.36004   3.37104
 Alpha virt. eigenvalues --    3.37993   3.38778   3.39694   3.40858   3.41781
 Alpha virt. eigenvalues --    3.42600   3.43693   3.45249   3.47266   3.47826
 Alpha virt. eigenvalues --    3.48477   3.48994   3.50041   3.51205   3.52296
 Alpha virt. eigenvalues --    3.52814   3.53729   3.54013   3.57218   3.57665
 Alpha virt. eigenvalues --    3.59034   3.63393   3.64892   3.65962   3.67799
 Alpha virt. eigenvalues --    3.68479   3.71562   3.72221   3.73958   3.75076
 Alpha virt. eigenvalues --    3.76367   3.76891   3.77383   3.77821   3.82239
 Alpha virt. eigenvalues --    3.87495   3.87716   3.88298   3.90522   3.90766
 Alpha virt. eigenvalues --    3.92079   3.93197   3.93291   3.93330   3.95313
 Alpha virt. eigenvalues --    3.96316   3.96901   3.97303   3.97607   3.98161
 Alpha virt. eigenvalues --    3.98388   3.99557   4.01051   4.01673   4.04155
 Alpha virt. eigenvalues --    4.05038   4.06068   4.11881   4.13035   4.13660
 Alpha virt. eigenvalues --    4.15726   4.15967   4.16827   4.19079   4.20620
 Alpha virt. eigenvalues --    4.23160   4.24185   4.25955   4.27237   4.27554
 Alpha virt. eigenvalues --    4.28730   4.29654   4.29809   4.31689   4.32522
 Alpha virt. eigenvalues --    4.33596   4.34787   4.36498   4.38795   4.43559
 Alpha virt. eigenvalues --    4.44585   4.47131   4.48039   4.51075   4.52333
 Alpha virt. eigenvalues --    4.54562   4.72476   4.88953   4.95960   4.97091
 Alpha virt. eigenvalues --    5.00424   5.33636   5.38701   5.39789   5.40985
 Alpha virt. eigenvalues --    5.43438   5.44428   5.49347   5.53291   5.56133
 Alpha virt. eigenvalues --    5.59363   5.62770   5.69192   5.70915   5.73781
 Alpha virt. eigenvalues --    5.78780   5.79926   5.81135   5.88447   7.67443
 Alpha virt. eigenvalues --   14.34917  14.36909  14.50172  14.97904  23.78809
 Alpha virt. eigenvalues --   23.85186  23.93005  23.99017  24.01663  24.02336
 Alpha virt. eigenvalues --   24.04127  24.04259  24.05079  24.06423  24.10763
 Alpha virt. eigenvalues --   24.11443  24.12499  24.12618  24.13045  24.13679
 Alpha virt. eigenvalues --   24.14086  24.14614  24.14971  24.16168  24.17056
 Alpha virt. eigenvalues --   24.17718  24.19047  24.20037  24.20811  24.22098
 Alpha virt. eigenvalues --   24.22748  24.23841  24.24357  24.33036  24.33486
 Alpha virt. eigenvalues --   35.77600  50.15438  50.16028  50.19377  50.22000
 Alpha virt. eigenvalues --   50.23193  50.25311 163.92209
          Condensed to atoms (all electrons):
 Mulliken charges:
               1
     1  C    0.109837
     2  C   -0.275194
     3  H   -0.293347
     4  C   -0.570919
     5  H    0.189807
     6  H    0.211957
     7  H    0.217679
     8  C   -0.446719
     9  H    0.234047
    10  H    0.254439
    11  H    0.268728
    12  B    0.343992
    13  C   -0.810200
    14  H    0.274551
    15  H    0.221401
    16  H    0.206597
    17  O   -0.091742
    18  O    0.001558
    19  C    0.242042
    20  C   -0.475127
    21  C   -0.814311
    22  H    0.190057
    23  H    0.182028
    24  H    0.201180
    25  C   -0.482565
    26  H    0.210964
    27  H    0.038310
    28  H    0.230955
    29  C   -0.532263
    30  H    0.232003
    31  H    0.232910
    32  H    0.200366
    33  C   -0.722561
    34  H    0.210128
    35  H    0.249001
    36  H    0.213620
    37  P    0.311396
    38  O   -0.324607
    39  O   -0.058020
    40  N   -0.338531
    41  H    0.406315
    42  H    0.453637
    43  Li   0.052618
    44  C   -0.026493
    45  O    0.055014
    46  C    0.057632
    47  C   -0.456904
    48  C   -0.559478
    49  H   -0.329314
    50  H    0.256522
    51  H    0.262770
    52  H    0.154482
    53  H    0.255928
    54  H    0.150019
    55  H    0.244794
    56  H    0.157291
    57  C   -0.027511
    58  O    0.010500
    59  C   -0.126264
    60  C   -0.391090
    61  C   -0.746281
    62  H    0.035757
    63  H    0.168628
    64  H    0.209677
    65  H    0.196710
    66  H    0.255015
    67  H    0.157576
    68  H    0.235962
    69  H    0.190842
    70  C    0.030833
    71  C    0.583325
    72  C   -0.247484
    73  C   -0.330766
    74  H   -0.217962
    75  C   -0.666753
    76  H    0.237104
    77  C   -0.618539
    78  H    0.292346
    79  H    0.270918
    80  H    0.260796
    81  C   -0.474692
    82  C    0.228155
    83  C    0.025744
    84  C   -0.116651
    85  H   -0.084893
    86  C   -0.390259
    87  H    0.313852
    88  C   -0.450461
    89  H    0.277012
    90  H    0.265018
    91  H    0.265549
 Sum of Mulliken charges =  -0.00000
 Mulliken charges with hydrogens summed into heavy atoms:
               1
     1  C    0.109837
     2  C   -0.568541
     4  C    0.048525
     8  C    0.310496
    12  B    0.343992
    13  C   -0.107651
    17  O   -0.091742
    18  O    0.001558
    19  C    0.242042
    20  C   -0.475127
    21  C   -0.241046
    25  C   -0.002336
    29  C    0.133017
    33  C   -0.049813
    37  P    0.311396
    38  O   -0.324607
    39  O   -0.058020
    40  N    0.521422
    43  Li   0.052618
    44  C   -0.099285
    45  O    0.055014
    46  C    0.474884
    47  C   -0.050957
    48  C   -0.157393
    57  C    0.176873
    58  O    0.010500
    59  C    0.280123
    60  C    0.021500
    61  C   -0.319477
    70  C    0.030833
    71  C    0.365364
    72  C   -0.010380
    73  C   -0.038420
    75  C   -0.395834
    77  C   -0.357743
    81  C   -0.474692
    82  C    0.143262
    83  C    0.339597
    84  C    0.160362
    86  C   -0.125241
    88  C   -0.184911
 Electronic spatial extent (au):  <R**2>=          19918.9868
 Charge=             -0.0000 electrons
 Dipole moment (field-independent basis, Debye):
    X=             -3.7012    Y=             15.0847    Z=              0.1610  Tot=             15.5329
 Quadrupole moment (field-independent basis, Debye-Ang):
   XX=           -248.4555   YY=           -258.0766   ZZ=           -217.0583
   XY=              4.4956   XZ=            -19.8259   YZ=             12.9359
 Traceless Quadrupole moment (field-independent basis, Debye-Ang):
   XX=             -7.2587   YY=            -16.8798   ZZ=             24.1385
   XY=              4.4956   XZ=            -19.8259   YZ=             12.9359
 Octapole moment (field-independent basis, Debye-Ang**2):
  XXX=            140.4900  YYY=            184.1083  ZZZ=            -39.7682  XYY=            -78.3642
  XXY=              8.2929  XXZ=             23.5392  XZZ=            -52.0083  YZZ=             68.2926
  YYZ=             19.9726  XYZ=            -15.1293
 Hexadecapole moment (field-independent basis, Debye-Ang**3):
 XXXX=         -12590.9297 YYYY=          -6337.8655 ZZZZ=          -7743.8613 XXXY=            366.0755
 XXXZ=           1220.8547 YYYX=            778.3178 YYYZ=           -684.9049 ZZZX=           1159.9632
 ZZZY=           -627.7997 XXYY=          -2952.9827 XXZZ=          -3125.5636 YYZZ=          -2351.3178
 XXYZ=            -16.6955 YYXZ=            333.6206 ZZXY=            139.4333
 N-N= 5.730467693247D+03 E-N=-1.635424037398D+04  KE= 2.083071300830D+03
 Unable to Open any file for archive entry.
 1\1\GINC-NODE05\SP\RwB97XD\6-311++G(d,p)\C31H50B1Li1N1O6P1\WHUGHES2\08
 -Oct-2025\0\\# wb97xd/6-311++g** nosymm int=ultrafine scrf=(smd,solven
 t=tetrahydrofuran)\\openTS-phos-full-unfrz-c9_tzpop-sp\\0,1\C,0,-2.936
 5,1.8433,2.1009\C,0,-1.5479,2.1847,2.5177\H,0,-0.8283,1.8942,1.7476\C,
 0,-1.2562,3.5853,3.0269\H,0,-1.8745,3.8361,3.8955\H,0,-0.2064,3.6534,3
 .3283\H,0,-1.4436,4.3326,2.2488\C,0,-4.0643,2.6141,2.6769\H,0,-5.0255,
 2.1346,2.4822\H,0,-3.9329,2.7609,3.7557\H,0,-4.0668,3.6235,2.2388\B,0,
 -3.199,0.7875,0.9458\C,0,-3.2688,1.9556,-0.2567\H,0,-2.5015,2.7359,-0.
 2794\H,0,-3.1636,1.3621,-1.1749\H,0,-4.2509,2.4415,-0.2677\O,0,-2.113,
 -0.2013,0.7892\O,0,-4.4376,0.0378,0.9709\C,0,-4.1292,-1.2771,1.4095\C,
 0,-2.6939,-1.5232,0.8156\C,0,-5.191,-2.2347,0.8768\H,0,-6.1536,-2.0181
 ,1.3543\H,0,-5.3197,-2.1289,-0.2036\H,0,-4.9297,-3.2762,1.099\C,0,-4.1
 68,-1.317,2.9443\H,0,-4.0033,-2.3286,3.331\H,0,-3.4223,-0.6563,3.3955\
 H,0,-5.1558,-0.9797,3.2777\C,0,-2.7374,-2.0454,-0.6211\H,0,-1.7162,-2.
 0816,-1.0098\H,0,-3.1481,-3.0599,-0.6682\H,0,-3.3386,-1.3911,-1.2609\C
 ,0,-1.8158,-2.4375,1.6606\H,0,-1.6478,-2.0302,2.6626\H,0,-2.283,-3.424
 2,1.7681\H,0,-0.8442,-2.5733,1.1769\P,0,1.762,-1.9551,-0.1676\O,0,0.49
 35,-1.2939,-0.7032\O,0,1.7038,-3.3562,0.3944\N,0,-1.4344,1.1935,3.597\
 H,0,-2.1229,1.3016,4.3371\H,0,-1.4342,0.2389,3.247\Li,0,-0.7159,0.1324
 ,-0.6319\C,0,1.6929,1.8566,-1.0208\O,0,0.3443,2.012,-0.5677\C,0,0.2147
 ,3.4088,-0.3118\C,0,1.4946,3.7812,0.4342\C,0,2.5361,2.8006,-0.1517\H,0
 ,1.9535,0.8076,-0.9187\H,0,1.7423,2.1401,-2.0818\H,0,0.1407,3.9469,-1.
 2697\H,0,-0.7007,3.5789,0.2527\H,0,1.7607,4.8314,0.2854\H,0,1.3642,3.6
 096,1.5072\H,0,3.2949,3.3102,-0.7522\H,0,3.0461,2.2467,0.6406\C,0,-1.0
 843,-0.8443,-3.4372\O,0,-1.2964,0.2879,-2.5743\C,0,-1.2093,1.4784,-3.3
 543\C,0,-0.1473,1.1671,-4.3986\C,0,-0.4564,-0.2993,-4.7332\H,0,-0.4305
 ,-1.5302,-2.8951\H,0,-2.0473,-1.334,-3.6227\H,0,-2.1824,1.685,-3.8252\
 H,0,-0.9569,2.2976,-2.6792\H,0,-0.2051,1.827,-5.2691\H,0,0.8495,1.2633
 ,-3.9543\H,0,-1.1707,-0.3587,-5.5608\H,0,0.4367,-0.8624,-5.018\C,0,2.3
 995,-0.8127,1.1275\C,0,1.4663,-0.1082,1.8988\C,0,3.7593,-0.6529,1.4134
 \C,0,1.8779,0.7273,2.9347\H,0,0.4056,-0.2117,1.6789\C,0,4.1772,0.1888,
 2.445\H,0,4.5069,-1.1814,0.827\C,0,3.2372,0.8786,3.2098\H,0,1.1323,1.2
 561,3.5235\H,0,5.2384,0.3052,2.6502\H,0,3.5623,1.5335,4.0142\C,0,2.982
 3,-1.9053,-1.5379\C,0,2.7268,-1.1427,-2.6832\C,0,4.1632,-2.6553,-1.479
 7\C,0,3.6357,-1.1139,-3.74\H,0,1.7987,-0.5816,-2.7485\C,0,5.0784,-2.62
 45,-2.5308\H,0,4.3616,-3.2778,-0.6107\C,0,4.8174,-1.8504,-3.6621\H,0,3
 .4195,-0.521,-4.6255\H,0,5.9917,-3.211,-2.4714\H,0,5.5285,-1.8296,-4.4
 84\\Version=AS64L-G16RevC.01\HF=-2091.4398674\RMSD=7.894e-09\Dipole=-1
 .4561565,5.9347603,0.0633433\Quadrupole=-5.3966646,-12.5497067,17.9463
 712,3.3423339,-14.7401045,9.6175166\PG=C01 [X(C31H50B1Li1N1O6P1)]\\@
 The archive entry for this job was punched.


 Standing in the middle of the road is very dangerous;
 you get knocked down by the traffic from both sides.
                                -- Margaret Thatcher
 Job cpu time:       0 days 10 hours  2 minutes 25.1 seconds.
 Elapsed time:       0 days  2 hours 31 minutes 58.0 seconds.
 File lengths (MBytes):  RWF=   1330 Int=      0 D2E=      0 Chk=     95 Scr=      1
 Normal termination of Gaussian 16 at Wed Oct  8 17:59:44 2025.
