Job Start Time: Wed Oct  8 15:27:45 MDT 2025
SLURM Job ID: 768184
SLURM Job Name: openTS-phos-full-unfrz-c3_tzpop-sp
 Entering Gaussian System, Link 0=/opt/apps/Gaussian/G16C/g16/g16
 Initial command:
 /opt/apps/Gaussian/G16C/g16/l1.exe "/tmp/768184/Gau-4069723.inp" -scrdir="/tmp/768184/"
 Entering Link 1 = /opt/apps/Gaussian/G16C/g16/l1.exe PID=   4069727.
  
 Copyright (c) 1988-2019, Gaussian, Inc.  All Rights Reserved.
  
 This is part of the Gaussian(R) 16 program.  It is based on
 the Gaussian(R) 09 system (copyright 2009, Gaussian, Inc.),
 the Gaussian(R) 03 system (copyright 2003, Gaussian, Inc.),
 the Gaussian(R) 98 system (copyright 1998, Gaussian, Inc.),
 the Gaussian(R) 94 system (copyright 1995, Gaussian, Inc.),
 the Gaussian 92(TM) system (copyright 1992, Gaussian, Inc.),
 the Gaussian 90(TM) system (copyright 1990, Gaussian, Inc.),
 the Gaussian 88(TM) system (copyright 1988, Gaussian, Inc.),
 the Gaussian 86(TM) system (copyright 1986, Carnegie Mellon
 University), and the Gaussian 82(TM) system (copyright 1983,
 Carnegie Mellon University). Gaussian is a federally registered
 trademark of Gaussian, Inc.
  
 This software contains proprietary and confidential information,
 including trade secrets, belonging to Gaussian, Inc.
  
 This software is provided under written license and may be
 used, copied, transmitted, or stored only in accord with that
 written license.
  
 The following legend is applicable only to US Government
 contracts under FAR:
  
                    RESTRICTED RIGHTS LEGEND
  
 Use, reproduction and disclosure by the US Government is
 subject to restrictions as set forth in subparagraphs (a)
 and (c) of the Commercial Computer Software - Restricted
 Rights clause in FAR 52.227-19.
  
 Gaussian, Inc.
 340 Quinnipiac St., Bldg. 40, Wallingford CT 06492
  
  
 ---------------------------------------------------------------
 Warning -- This program may not be used in any manner that
 competes with the business of Gaussian, Inc. or will provide
 assistance to any competitor of Gaussian, Inc.  The licensee
 of this program is prohibited from giving any competitor of
 Gaussian, Inc. access to this program.  By using this program,
 the user acknowledges that Gaussian, Inc. is engaged in the
 business of creating and licensing software in the field of
 computational chemistry and represents and warrants to the
 licensee that it is not a competitor of Gaussian, Inc. and that
 it will not use this program in any manner prohibited above.
 ---------------------------------------------------------------
  

 Cite this work as:
 Gaussian 16, Revision C.01,
 M. J. Frisch, G. W. Trucks, H. B. Schlegel, G. E. Scuseria, 
 M. A. Robb, J. R. Cheeseman, G. Scalmani, V. Barone, 
 G. A. Petersson, H. Nakatsuji, X. Li, M. Caricato, A. V. Marenich, 
 J. Bloino, B. G. Janesko, R. Gomperts, B. Mennucci, H. P. Hratchian, 
 J. V. Ortiz, A. F. Izmaylov, J. L. Sonnenberg, D. Williams-Young, 
 F. Ding, F. Lipparini, F. Egidi, J. Goings, B. Peng, A. Petrone, 
 T. Henderson, D. Ranasinghe, V. G. Zakrzewski, J. Gao, N. Rega, 
 G. Zheng, W. Liang, M. Hada, M. Ehara, K. Toyota, R. Fukuda, 
 J. Hasegawa, M. Ishida, T. Nakajima, Y. Honda, O. Kitao, H. Nakai, 
 T. Vreven, K. Throssell, J. A. Montgomery, Jr., J. E. Peralta, 
 F. Ogliaro, M. J. Bearpark, J. J. Heyd, E. N. Brothers, K. N. Kudin, 
 V. N. Staroverov, T. A. Keith, R. Kobayashi, J. Normand, 
 K. Raghavachari, A. P. Rendell, J. C. Burant, S. S. Iyengar, 
 J. Tomasi, M. Cossi, J. M. Millam, M. Klene, C. Adamo, R. Cammi, 
 J. W. Ochterski, R. L. Martin, K. Morokuma, O. Farkas, 
 J. B. Foresman, and D. J. Fox, Gaussian, Inc., Wallingford CT, 2019.
 
 ******************************************
 Gaussian 16:  AS64L-G16RevC.01  3-Jul-2019
                 8-Oct-2025 
 ******************************************
 %chk=openTS-phos-full-unfrz-c3_tzpop-sp.chk
 %nprocshared=4
 Will use up to    4 processors via shared memory.
 %mem=8GB
 ----------------------------------------------------------------------
 # wb97xd/6-311++g** nosymm int=ultrafine scrf=(smd,solvent=tetrahydrof
 uran)
 ----------------------------------------------------------------------
 1/38=1,172=1/1;
 2/12=2,15=1,17=6,18=5,40=1/2;
 3/5=4,6=6,7=1111,11=2,25=1,30=1,70=32201,72=20,74=-58,75=-5/1,2,3;
 4//1;
 5/5=2,38=5,53=20/2;
 6/7=2,8=2,9=2,10=2,28=1/1;
 99/5=1,9=1/99;
 ----------------------------------
 openTS-phos-full-unfrz-c3_tzpop-sp
 ----------------------------------
 Symbolic Z-matrix:
 Charge =  0 Multiplicity = 1
 C                    -2.1999   -2.4176    0.381 
 C                    -1.2062   -2.3697   -0.7192 
 H                    -0.5317   -1.5188   -0.5927 
 C                    -0.4072   -3.6164   -1.049 
 H                     0.2673   -3.4069   -1.8857 
 H                     0.1997   -3.9173   -0.1895 
 H                    -1.0522   -4.4569   -1.3294 
 C                    -2.7761   -3.7312    0.7622 
 H                    -3.0666   -4.3045   -0.1266 
 H                    -1.9979   -4.3295    1.2589 
 H                    -3.6322   -3.6237    1.4307 
 B                    -2.5141   -1.1375    1.2692 
 C                    -1.2988   -1.4633    2.3721 
 H                    -1.5492   -2.2923    3.0452 
 H                    -0.3026   -1.6319    1.9484 
 H                    -1.25     -0.5414    2.9687 
 O                    -2.378     0.1575    0.5608 
 O                    -3.815    -1.0954    1.9218 
 C                    -4.6025   -0.129     1.2447 
 C                    -3.5405    0.9493    0.8476 
 C                    -5.686     0.3807    2.1891 
 H                    -5.2636    0.701     3.1453 
 H                    -6.2311    1.2228    1.7459 
 H                    -6.4068   -0.4202    2.3905 
 C                    -5.2727   -0.7758    0.0238 
 H                    -4.5387   -1.1215   -0.7105 
 H                    -5.8501   -1.6452    0.3577 
 H                    -5.9577   -0.0833   -0.4785 
 C                    -3.2144    1.8901    2.0098 
 H                    -2.9674    1.3301    2.9173 
 H                    -2.3537    2.504     1.7349 
 H                    -4.0506    2.5633    2.2304 
 C                    -3.8937    1.7702   -0.3859 
 H                    -3.1255    2.5333   -0.5527 
 H                    -3.9566    1.1452   -1.2813 
 H                    -4.8526    2.2841   -0.2484 
 P                     2.271     0.1297   -0.2711 
 O                     0.7839    0.0465    0.0772 
 O                     2.7471    1.1529   -1.2767 
 N                    -2.1692   -2.0348   -1.782 
 H                    -2.5139   -1.0807   -1.7043 
 H                    -2.9337   -2.6965   -1.8872 
 Li                   -0.8009    0.9505   -0.3071 
 C                     0.1878    3.0288    1.4295 
 O                    -0.4446    2.8903    0.1417 
 C                     0.3295    3.5796   -0.8595 
 C                     1.2652    4.5029   -0.0912 
 C                     1.5397    3.6841    1.1724 
 H                    -0.45      3.6626    2.0583 
 H                     0.2644    2.0356    1.8811 
 H                     0.8941    2.8369   -1.4337 
 H                    -0.3676    4.1121   -1.5126 
 H                     2.1714    4.7302   -0.6594 
 H                     0.7615    5.4447    0.1579 
 H                     2.3023    2.9267    0.9703 
 H                     1.8665    4.2908    2.0217 
 C                    -1.6234    1.8894   -3.1562 
 O                    -1.1189    0.8417   -2.3249 
 C                    -0.2206    0.0886   -3.1461 
 C                     0.5619    1.1439   -3.9168 
 C                    -0.4762    2.2713   -4.112 
 H                    -2.4948    1.5126   -3.7096 
 H                    -1.9491    2.7034   -2.5066 
 H                     0.3866   -0.5321   -2.488 
 H                    -0.8059   -0.5589   -3.8141 
 H                     1.4042    1.4782   -3.3038 
 H                     0.9478    0.7556   -4.8641 
 H                    -0.0539    3.2481   -3.8605 
 H                    -0.8381    2.3195   -5.1434 
 C                     2.7748   -1.5403   -0.8452 
 C                     2.8766   -2.621     0.0377 
 C                     3.0213   -1.7547   -2.2051 
 C                     3.2157   -3.8899   -0.4279 
 H                     2.6936   -2.4739    1.1003 
 C                     3.3477   -3.0259   -2.6772 
 H                     2.9636   -0.9149   -2.8933 
 C                     3.4463   -4.0961   -1.7882 
 H                     3.2959   -4.7194    0.2703 
 H                     3.5335   -3.1791   -3.7374 
 H                     3.708    -5.0861   -2.1528 
 C                     3.1588    0.3489    1.3153 
 C                     4.5142    0.6969    1.3242 
 C                     2.491     0.1897    2.5333 
 C                     5.1896    0.8841    2.5287 
 H                     5.0404    0.8309    0.3821 
 C                     3.1628    0.3789    3.7411 
 H                     1.4368   -0.0745    2.5278 
 C                     4.5133    0.7266    3.7398 
 H                     6.2417    1.1572    2.524 
 H                     2.632     0.2564    4.6819 
 H                     5.0386    0.8758    4.6797 
 
 Symmetry turned off by external request.
 Stoichiometry    C31H50BLiNO6P
 Framework group  C1[X(C31H50BLiNO6P)]
 Deg. of freedom   267
 Full point group                 C1      NOp   1
                          Input orientation:                          
 ---------------------------------------------------------------------
 Center     Atomic      Atomic             Coordinates (Angstroms)
 Number     Number       Type             X           Y           Z
 ---------------------------------------------------------------------
      1          6           0       -2.199900   -2.417600    0.381000
      2          6           0       -1.206200   -2.369700   -0.719200
      3          1           0       -0.531700   -1.518800   -0.592700
      4          6           0       -0.407200   -3.616400   -1.049000
      5          1           0        0.267300   -3.406900   -1.885700
      6          1           0        0.199700   -3.917300   -0.189500
      7          1           0       -1.052200   -4.456900   -1.329400
      8          6           0       -2.776100   -3.731200    0.762200
      9          1           0       -3.066600   -4.304500   -0.126600
     10          1           0       -1.997900   -4.329500    1.258900
     11          1           0       -3.632200   -3.623700    1.430700
     12          5           0       -2.514100   -1.137500    1.269200
     13          6           0       -1.298800   -1.463300    2.372100
     14          1           0       -1.549200   -2.292300    3.045200
     15          1           0       -0.302600   -1.631900    1.948400
     16          1           0       -1.250000   -0.541400    2.968700
     17          8           0       -2.378000    0.157500    0.560800
     18          8           0       -3.815000   -1.095400    1.921800
     19          6           0       -4.602500   -0.129000    1.244700
     20          6           0       -3.540500    0.949300    0.847600
     21          6           0       -5.686000    0.380700    2.189100
     22          1           0       -5.263600    0.701000    3.145300
     23          1           0       -6.231100    1.222800    1.745900
     24          1           0       -6.406800   -0.420200    2.390500
     25          6           0       -5.272700   -0.775800    0.023800
     26          1           0       -4.538700   -1.121500   -0.710500
     27          1           0       -5.850100   -1.645200    0.357700
     28          1           0       -5.957700   -0.083300   -0.478500
     29          6           0       -3.214400    1.890100    2.009800
     30          1           0       -2.967400    1.330100    2.917300
     31          1           0       -2.353700    2.504000    1.734900
     32          1           0       -4.050600    2.563300    2.230400
     33          6           0       -3.893700    1.770200   -0.385900
     34          1           0       -3.125500    2.533300   -0.552700
     35          1           0       -3.956600    1.145200   -1.281300
     36          1           0       -4.852600    2.284100   -0.248400
     37         15           0        2.271000    0.129700   -0.271100
     38          8           0        0.783900    0.046500    0.077200
     39          8           0        2.747100    1.152900   -1.276700
     40          7           0       -2.169200   -2.034800   -1.782000
     41          1           0       -2.513900   -1.080700   -1.704300
     42          1           0       -2.933700   -2.696500   -1.887200
     43          3           0       -0.800900    0.950500   -0.307100
     44          6           0        0.187800    3.028800    1.429500
     45          8           0       -0.444600    2.890300    0.141700
     46          6           0        0.329500    3.579600   -0.859500
     47          6           0        1.265200    4.502900   -0.091200
     48          6           0        1.539700    3.684100    1.172400
     49          1           0       -0.450000    3.662600    2.058300
     50          1           0        0.264400    2.035600    1.881100
     51          1           0        0.894100    2.836900   -1.433700
     52          1           0       -0.367600    4.112100   -1.512600
     53          1           0        2.171400    4.730200   -0.659400
     54          1           0        0.761500    5.444700    0.157900
     55          1           0        2.302300    2.926700    0.970300
     56          1           0        1.866500    4.290800    2.021700
     57          6           0       -1.623400    1.889400   -3.156200
     58          8           0       -1.118900    0.841700   -2.324900
     59          6           0       -0.220600    0.088600   -3.146100
     60          6           0        0.561900    1.143900   -3.916800
     61          6           0       -0.476200    2.271300   -4.112000
     62          1           0       -2.494800    1.512600   -3.709600
     63          1           0       -1.949100    2.703400   -2.506600
     64          1           0        0.386600   -0.532100   -2.488000
     65          1           0       -0.805900   -0.558900   -3.814100
     66          1           0        1.404200    1.478200   -3.303800
     67          1           0        0.947800    0.755600   -4.864100
     68          1           0       -0.053900    3.248100   -3.860500
     69          1           0       -0.838100    2.319500   -5.143400
     70          6           0        2.774800   -1.540300   -0.845200
     71          6           0        2.876600   -2.621000    0.037700
     72          6           0        3.021300   -1.754700   -2.205100
     73          6           0        3.215700   -3.889900   -0.427900
     74          1           0        2.693600   -2.473900    1.100300
     75          6           0        3.347700   -3.025900   -2.677200
     76          1           0        2.963600   -0.914900   -2.893300
     77          6           0        3.446300   -4.096100   -1.788200
     78          1           0        3.295900   -4.719400    0.270300
     79          1           0        3.533500   -3.179100   -3.737400
     80          1           0        3.708000   -5.086100   -2.152800
     81          6           0        3.158800    0.348900    1.315300
     82          6           0        4.514200    0.696900    1.324200
     83          6           0        2.491000    0.189700    2.533300
     84          6           0        5.189600    0.884100    2.528700
     85          1           0        5.040400    0.830900    0.382100
     86          6           0        3.162800    0.378900    3.741100
     87          1           0        1.436800   -0.074500    2.527800
     88          6           0        4.513300    0.726600    3.739800
     89          1           0        6.241700    1.157200    2.524000
     90          1           0        2.632000    0.256400    4.681900
     91          1           0        5.038600    0.875800    4.679700
 ---------------------------------------------------------------------
 Rotational constants (GHZ):           0.1043211           0.0727949           0.0668076
 Standard basis: 6-311++G(d,p) (5D, 7F)
  1260 basis functions,  1940 primitive gaussians,  1301 cartesian basis functions
   157 alpha electrons      157 beta electrons
       nuclear repulsion energy      5731.9175071809 Hartrees.
 NAtoms=   91 NActive=   91 NUniq=   91 SFac= 1.00D+00 NAtFMM=   60 NAOKFM=T Big=T
 Integral buffers will be    131072 words long.
 Raffenetti 2 integral format.
 Two-electron integral symmetry is turned off.
 Nuclear repulsion after empirical dispersion term =     5731.7984661771 Hartrees.
 ------------------------------------------------------------------------------
 Polarizable Continuum Model (PCM)
 =================================
 Model                : PCM.
 Atomic radii         : SMD-Coulomb.
 Polarization charges : Total charges.
 Charge compensation  : None.
 Solution method      : On-the-fly selection.
 Cavity type          : VdW (van der Waals Surface) (Alpha=1.000).
 Cavity algorithm     : GePol (No added spheres)
                        Default sphere list used, NSphG=   91.
                        Lebedev-Laikov grids with approx.  5.0 points / Ang**2.
                        Smoothing algorithm: York/Karplus (Gamma=1.0000).
                        Polarization charges: spherical gaussians, with
                                              point-specific exponents (IZeta= 3).
                        Self-potential: point-specific (ISelfS= 7).
                        Self-field    : sphere-specific E.n sum rule (ISelfD= 2).
 Solvent              : TetraHydroFuran, Eps=   7.425700 Eps(inf)=   1.974025
 ------------------------------------------------------------------------------
 ------------------------------------------------------------------------------
 Atomic radii for non-electrostatic terms: SMD-CDS.
 ------------------------------------------------------------------------------
 Nuclear repulsion after PCM non-electrostatic terms =     5731.7894822010 Hartrees.
 One-electron integrals computed using PRISM.
 NBasis=  1260 RedAO= T EigKep=  1.06D-06  NBF=  1260
 NBsUse=  1251 1.00D-06 EigRej=  9.66D-07 NBFU=  1251
 ExpMin= 7.40D-03 ExpMax= 7.75D+04 ExpMxC= 2.65D+03 IAcc=3 IRadAn=         5 AccDes= 0.00D+00
 Harris functional with IExCor= 4639 and IRadAn=       5 diagonalized for initial guess.
 HarFok:  IExCor= 4639 AccDes= 0.00D+00 IRadAn=         5 IDoV= 1 UseB2=F ITyADJ=14
 ICtDFT=  3500011 ScaDFX=  1.000000  1.000000  1.000000  1.000000
 FoFCou: FMM=F IPFlag=           0 FMFlag=      100000 FMFlg1=        2001
         NFxFlg=           0 DoJE=T BraDBF=F KetDBF=T FulRan=T
         wScrn=  0.000000 ICntrl=       500 IOpCl=  0 I1Cent=   200000004 NGrid=           0
         NMat0=    1 NMatS0=      1 NMatT0=    0 NMatD0=    1 NMtDS0=    0 NMtDT0=    0
 Symmetry not used in FoFCou.
 Requested convergence on RMS density matrix=1.00D-08 within 128 cycles.
 Requested convergence on MAX density matrix=1.00D-06.
 Requested convergence on             energy=1.00D-06.
 No special actions if energy rises.
 Inv3:  Mode=1 IEnd=    90882048.
 Iteration    1 A*A^-1 deviation from unit magnitude is 6.00D-15 for   5504.
 Iteration    1 A*A^-1 deviation from orthogonality  is 2.39D-15 for   4533   1404.
 Iteration    1 A^-1*A deviation from unit magnitude is 6.00D-15 for   5504.
 Iteration    1 A^-1*A deviation from orthogonality  is 6.39D-14 for   2855   2830.
 Error on total polarization charges =  0.07525
 SCF Done:  E(RwB97XD) =  -2091.44730397     A.U. after   18 cycles
            NFock= 18  Conv=0.23D-08     -V/T= 2.0040
 SMD-CDS (non-electrostatic) energy       (kcal/mol) =      -5.64
 (included in total energy above)

 **********************************************************************

            Population analysis using the SCF Density.

 **********************************************************************

 Alpha  occ. eigenvalues --  -77.25900 -19.25862 -19.25065 -19.21519 -19.19905
 Alpha  occ. eigenvalues --  -19.17412 -19.16343 -14.43858 -10.33979 -10.32766
 Alpha  occ. eigenvalues --  -10.32369 -10.32358 -10.31873 -10.31768 -10.31621
 Alpha  occ. eigenvalues --  -10.31443 -10.28710 -10.28676 -10.28639 -10.28562
 Alpha  occ. eigenvalues --  -10.28547 -10.28517 -10.28495 -10.28475 -10.28474
 Alpha  occ. eigenvalues --  -10.28418 -10.28401 -10.28166 -10.28034 -10.27427
 Alpha  occ. eigenvalues --  -10.27227 -10.26965 -10.26750 -10.26669 -10.26094
 Alpha  occ. eigenvalues --  -10.25807 -10.25755 -10.25418 -10.23987  -6.83498
 Alpha  occ. eigenvalues --   -6.70210  -4.84923  -4.84917  -4.84880  -1.98330
 Alpha  occ. eigenvalues --   -1.14861  -1.13654  -1.12442  -1.06426  -1.05649
 Alpha  occ. eigenvalues --   -1.01675  -1.00291  -0.95501  -0.95349  -0.89108
 Alpha  occ. eigenvalues --   -0.87843  -0.87700  -0.87248  -0.84969  -0.84302
 Alpha  occ. eigenvalues --   -0.84221  -0.83923  -0.83299  -0.83149  -0.82854
 Alpha  occ. eigenvalues --   -0.82616  -0.78840  -0.77473  -0.76177  -0.74184
 Alpha  occ. eigenvalues --   -0.71202  -0.69571  -0.69400  -0.69271  -0.68835
 Alpha  occ. eigenvalues --   -0.68671  -0.68141  -0.67886  -0.67722  -0.64973
 Alpha  occ. eigenvalues --   -0.63311  -0.62182  -0.61645  -0.60645  -0.59897
 Alpha  occ. eigenvalues --   -0.59264  -0.58801  -0.57851  -0.57813  -0.57342
 Alpha  occ. eigenvalues --   -0.56034  -0.54465  -0.54007  -0.53904  -0.53500
 Alpha  occ. eigenvalues --   -0.53438  -0.53302  -0.53036  -0.52430  -0.52398
 Alpha  occ. eigenvalues --   -0.51606  -0.51343  -0.50942  -0.50648  -0.50227
 Alpha  occ. eigenvalues --   -0.50111  -0.49927  -0.49868  -0.49660  -0.49146
 Alpha  occ. eigenvalues --   -0.48299  -0.48174  -0.47742  -0.47565  -0.47238
 Alpha  occ. eigenvalues --   -0.46955  -0.46676  -0.46112  -0.45760  -0.45639
 Alpha  occ. eigenvalues --   -0.45595  -0.44950  -0.44561  -0.44079  -0.43981
 Alpha  occ. eigenvalues --   -0.43486  -0.43359  -0.43031  -0.42870  -0.42775
 Alpha  occ. eigenvalues --   -0.42537  -0.42338  -0.42129  -0.41761  -0.41731
 Alpha  occ. eigenvalues --   -0.41613  -0.41308  -0.41161  -0.40766  -0.40333
 Alpha  occ. eigenvalues --   -0.39827  -0.39601  -0.38998  -0.36496  -0.36434
 Alpha  occ. eigenvalues --   -0.35526  -0.35034  -0.34350  -0.33599  -0.33453
 Alpha  occ. eigenvalues --   -0.33328  -0.32895  -0.32747  -0.32444  -0.32092
 Alpha  occ. eigenvalues --   -0.31237  -0.29905
 Alpha virt. eigenvalues --   -0.00152   0.02239   0.02469   0.02596   0.02718
 Alpha virt. eigenvalues --    0.03954   0.05093   0.05357   0.05392   0.05714
 Alpha virt. eigenvalues --    0.05793   0.05830   0.06135   0.06174   0.06906
 Alpha virt. eigenvalues --    0.07013   0.07114   0.07214   0.07433   0.07472
 Alpha virt. eigenvalues --    0.07548   0.07761   0.07897   0.07955   0.08112
 Alpha virt. eigenvalues --    0.08754   0.08974   0.09129   0.09272   0.09471
 Alpha virt. eigenvalues --    0.09849   0.09957   0.10198   0.10313   0.10688
 Alpha virt. eigenvalues --    0.11127   0.11524   0.11654   0.12008   0.12045
 Alpha virt. eigenvalues --    0.12494   0.12809   0.12891   0.13111   0.13340
 Alpha virt. eigenvalues --    0.13438   0.13590   0.13784   0.14039   0.14294
 Alpha virt. eigenvalues --    0.14426   0.14575   0.15011   0.15371   0.15472
 Alpha virt. eigenvalues --    0.15683   0.15923   0.16000   0.16234   0.16458
 Alpha virt. eigenvalues --    0.16605   0.16735   0.16770   0.16929   0.16996
 Alpha virt. eigenvalues --    0.17141   0.17261   0.17432   0.17585   0.17844
 Alpha virt. eigenvalues --    0.17926   0.17988   0.18138   0.18319   0.18466
 Alpha virt. eigenvalues --    0.18546   0.18706   0.18850   0.18940   0.19044
 Alpha virt. eigenvalues --    0.19091   0.19319   0.19356   0.19452   0.19659
 Alpha virt. eigenvalues --    0.19820   0.20051   0.20093   0.20354   0.20530
 Alpha virt. eigenvalues --    0.20583   0.20768   0.20840   0.21003   0.21186
 Alpha virt. eigenvalues --    0.21299   0.21398   0.21509   0.21630   0.21736
 Alpha virt. eigenvalues --    0.21882   0.21983   0.22097   0.22195   0.22318
 Alpha virt. eigenvalues --    0.22595   0.22674   0.22838   0.22974   0.23116
 Alpha virt. eigenvalues --    0.23156   0.23320   0.23430   0.23480   0.23630
 Alpha virt. eigenvalues --    0.23840   0.23865   0.24012   0.24145   0.24209
 Alpha virt. eigenvalues --    0.24449   0.24596   0.24694   0.24790   0.24905
 Alpha virt. eigenvalues --    0.25029   0.25139   0.25236   0.25527   0.25668
 Alpha virt. eigenvalues --    0.25724   0.25947   0.25990   0.26108   0.26321
 Alpha virt. eigenvalues --    0.26514   0.26692   0.26755   0.26942   0.26953
 Alpha virt. eigenvalues --    0.27125   0.27350   0.27472   0.27582   0.27732
 Alpha virt. eigenvalues --    0.27803   0.28003   0.28046   0.28236   0.28388
 Alpha virt. eigenvalues --    0.28516   0.28756   0.28837   0.29142   0.29276
 Alpha virt. eigenvalues --    0.29311   0.29644   0.29744   0.29894   0.30035
 Alpha virt. eigenvalues --    0.30110   0.30357   0.30495   0.30634   0.30883
 Alpha virt. eigenvalues --    0.30966   0.31158   0.31310   0.31341   0.31497
 Alpha virt. eigenvalues --    0.31766   0.31838   0.31916   0.32054   0.32155
 Alpha virt. eigenvalues --    0.32522   0.32643   0.32784   0.32956   0.33153
 Alpha virt. eigenvalues --    0.33289   0.33588   0.33615   0.33781   0.33925
 Alpha virt. eigenvalues --    0.34093   0.34266   0.34565   0.34659   0.34787
 Alpha virt. eigenvalues --    0.34838   0.34896   0.35165   0.35285   0.35590
 Alpha virt. eigenvalues --    0.35771   0.35837   0.36056   0.36276   0.36485
 Alpha virt. eigenvalues --    0.36590   0.36812   0.37108   0.37321   0.37425
 Alpha virt. eigenvalues --    0.37657   0.37727   0.38028   0.38041   0.38262
 Alpha virt. eigenvalues --    0.38381   0.38557   0.38827   0.39019   0.39080
 Alpha virt. eigenvalues --    0.39279   0.39366   0.39457   0.39765   0.39793
 Alpha virt. eigenvalues --    0.40017   0.40139   0.40260   0.40334   0.40691
 Alpha virt. eigenvalues --    0.40774   0.40838   0.40917   0.41233   0.41379
 Alpha virt. eigenvalues --    0.41684   0.41856   0.41996   0.42269   0.42430
 Alpha virt. eigenvalues --    0.42495   0.42748   0.42915   0.43031   0.43116
 Alpha virt. eigenvalues --    0.43341   0.43538   0.43709   0.43886   0.43923
 Alpha virt. eigenvalues --    0.44273   0.44482   0.44760   0.44866   0.44950
 Alpha virt. eigenvalues --    0.45011   0.45313   0.45487   0.45654   0.45724
 Alpha virt. eigenvalues --    0.45943   0.46422   0.46730   0.46974   0.47203
 Alpha virt. eigenvalues --    0.47370   0.47527   0.47769   0.48088   0.48311
 Alpha virt. eigenvalues --    0.48516   0.48733   0.48976   0.49381   0.49654
 Alpha virt. eigenvalues --    0.49901   0.50160   0.50695   0.50837   0.51129
 Alpha virt. eigenvalues --    0.51471   0.51768   0.52048   0.52589   0.53052
 Alpha virt. eigenvalues --    0.53217   0.53485   0.53718   0.54030   0.54369
 Alpha virt. eigenvalues --    0.54653   0.54847   0.55443   0.55688   0.56325
 Alpha virt. eigenvalues --    0.56627   0.56842   0.57231   0.57667   0.57931
 Alpha virt. eigenvalues --    0.58256   0.58519   0.58792   0.58904   0.59320
 Alpha virt. eigenvalues --    0.59735   0.59938   0.60386   0.61306   0.61715
 Alpha virt. eigenvalues --    0.61891   0.62070   0.62335   0.62820   0.63274
 Alpha virt. eigenvalues --    0.63528   0.63970   0.64214   0.64418   0.64647
 Alpha virt. eigenvalues --    0.64972   0.65267   0.65469   0.65815   0.66141
 Alpha virt. eigenvalues --    0.66474   0.66630   0.66718   0.67502   0.67628
 Alpha virt. eigenvalues --    0.67914   0.68121   0.68315   0.68549   0.68824
 Alpha virt. eigenvalues --    0.69020   0.69135   0.69366   0.69793   0.69884
 Alpha virt. eigenvalues --    0.70056   0.70743   0.70795   0.71140   0.71654
 Alpha virt. eigenvalues --    0.71722   0.71916   0.72244   0.72382   0.72951
 Alpha virt. eigenvalues --    0.73216   0.73323   0.73577   0.74052   0.74304
 Alpha virt. eigenvalues --    0.74450   0.74579   0.75042   0.75108   0.75295
 Alpha virt. eigenvalues --    0.75783   0.76283   0.76335   0.76612   0.76853
 Alpha virt. eigenvalues --    0.76958   0.77518   0.77666   0.78049   0.78186
 Alpha virt. eigenvalues --    0.78385   0.78829   0.79090   0.79605   0.79735
 Alpha virt. eigenvalues --    0.79828   0.80002   0.80456   0.80749   0.80911
 Alpha virt. eigenvalues --    0.81245   0.81431   0.81771   0.81884   0.82198
 Alpha virt. eigenvalues --    0.82249   0.82513   0.82583   0.82972   0.83240
 Alpha virt. eigenvalues --    0.83556   0.83617   0.83885   0.84132   0.84313
 Alpha virt. eigenvalues --    0.84366   0.84441   0.84826   0.84942   0.85301
 Alpha virt. eigenvalues --    0.85489   0.85641   0.86089   0.86234   0.86555
 Alpha virt. eigenvalues --    0.86785   0.86907   0.87362   0.87559   0.87833
 Alpha virt. eigenvalues --    0.88277   0.88468   0.88650   0.88786   0.88975
 Alpha virt. eigenvalues --    0.89227   0.89385   0.89466   0.89682   0.90172
 Alpha virt. eigenvalues --    0.90347   0.90480   0.90983   0.91118   0.91317
 Alpha virt. eigenvalues --    0.91726   0.91833   0.92091   0.92327   0.92889
 Alpha virt. eigenvalues --    0.93220   0.93577   0.93650   0.93997   0.94404
 Alpha virt. eigenvalues --    0.94642   0.94834   0.94950   0.95226   0.95390
 Alpha virt. eigenvalues --    0.95917   0.96037   0.96414   0.96533   0.96816
 Alpha virt. eigenvalues --    0.97006   0.97325   0.97542   0.97891   0.98259
 Alpha virt. eigenvalues --    0.98854   0.99231   0.99626   0.99669   1.00194
 Alpha virt. eigenvalues --    1.00489   1.00921   1.01491   1.01865   1.02266
 Alpha virt. eigenvalues --    1.02768   1.03216   1.03474   1.03709   1.04250
 Alpha virt. eigenvalues --    1.05336   1.05625   1.06017   1.06163   1.06919
 Alpha virt. eigenvalues --    1.07296   1.07550   1.08732   1.09067   1.09585
 Alpha virt. eigenvalues --    1.09997   1.10541   1.11230   1.11341   1.11428
 Alpha virt. eigenvalues --    1.11756   1.12286   1.12477   1.13386   1.13579
 Alpha virt. eigenvalues --    1.13949   1.15257   1.15592   1.15903   1.16267
 Alpha virt. eigenvalues --    1.16725   1.16993   1.17586   1.17904   1.18447
 Alpha virt. eigenvalues --    1.19039   1.19803   1.20143   1.20369   1.20778
 Alpha virt. eigenvalues --    1.21671   1.22053   1.22458   1.22848   1.23141
 Alpha virt. eigenvalues --    1.23457   1.23737   1.24595   1.24945   1.25524
 Alpha virt. eigenvalues --    1.25697   1.26696   1.26930   1.27348   1.27717
 Alpha virt. eigenvalues --    1.28431   1.28562   1.29839   1.30273   1.30654
 Alpha virt. eigenvalues --    1.31255   1.31517   1.31686   1.32785   1.33246
 Alpha virt. eigenvalues --    1.33569   1.33908   1.34624   1.34995   1.35684
 Alpha virt. eigenvalues --    1.36295   1.37434   1.37558   1.38268   1.38727
 Alpha virt. eigenvalues --    1.39429   1.39662   1.39834   1.41290   1.41564
 Alpha virt. eigenvalues --    1.41953   1.42858   1.43505   1.43812   1.44516
 Alpha virt. eigenvalues --    1.44880   1.45583   1.45816   1.46379   1.46564
 Alpha virt. eigenvalues --    1.47963   1.48888   1.49099   1.49835   1.50166
 Alpha virt. eigenvalues --    1.50655   1.51567   1.51868   1.52760   1.53198
 Alpha virt. eigenvalues --    1.53852   1.54980   1.55193   1.55358   1.56167
 Alpha virt. eigenvalues --    1.56537   1.56871   1.57943   1.58385   1.59406
 Alpha virt. eigenvalues --    1.60076   1.60221   1.61237   1.61585   1.61755
 Alpha virt. eigenvalues --    1.62306   1.62635   1.63038   1.63201   1.63478
 Alpha virt. eigenvalues --    1.64198   1.64514   1.64572   1.65169   1.65270
 Alpha virt. eigenvalues --    1.65560   1.65972   1.66163   1.66451   1.66742
 Alpha virt. eigenvalues --    1.67265   1.67462   1.67688   1.68110   1.68489
 Alpha virt. eigenvalues --    1.68531   1.68927   1.69378   1.69656   1.69876
 Alpha virt. eigenvalues --    1.69909   1.70503   1.70865   1.71195   1.71700
 Alpha virt. eigenvalues --    1.71734   1.72277   1.72621   1.72728   1.73248
 Alpha virt. eigenvalues --    1.73774   1.74306   1.74477   1.74563   1.75044
 Alpha virt. eigenvalues --    1.75430   1.75862   1.76473   1.76562   1.76782
 Alpha virt. eigenvalues --    1.77249   1.77439   1.77626   1.77765   1.77930
 Alpha virt. eigenvalues --    1.78227   1.78791   1.78824   1.79029   1.79369
 Alpha virt. eigenvalues --    1.79808   1.80120   1.80568   1.80751   1.81509
 Alpha virt. eigenvalues --    1.81634   1.82082   1.82335   1.82815   1.83069
 Alpha virt. eigenvalues --    1.83220   1.83682   1.84033   1.84281   1.84674
 Alpha virt. eigenvalues --    1.85040   1.85210   1.85558   1.86209   1.86486
 Alpha virt. eigenvalues --    1.86762   1.86908   1.87484   1.87949   1.88183
 Alpha virt. eigenvalues --    1.88629   1.88923   1.89212   1.89436   1.89915
 Alpha virt. eigenvalues --    1.90441   1.90575   1.90934   1.91103   1.91657
 Alpha virt. eigenvalues --    1.91936   1.92093   1.92770   1.92938   1.93772
 Alpha virt. eigenvalues --    1.94032   1.94498   1.94639   1.95756   1.96069
 Alpha virt. eigenvalues --    1.96687   1.96999   1.97270   1.97377   1.98172
 Alpha virt. eigenvalues --    1.98361   1.99067   1.99314   1.99726   2.00171
 Alpha virt. eigenvalues --    2.00380   2.00533   2.01398   2.01841   2.02287
 Alpha virt. eigenvalues --    2.02716   2.02883   2.03152   2.03523   2.03882
 Alpha virt. eigenvalues --    2.04196   2.04701   2.05502   2.05855   2.05986
 Alpha virt. eigenvalues --    2.06601   2.06718   2.06783   2.07135   2.07386
 Alpha virt. eigenvalues --    2.07602   2.07989   2.08350   2.08760   2.09414
 Alpha virt. eigenvalues --    2.10228   2.10398   2.10799   2.11223   2.11512
 Alpha virt. eigenvalues --    2.11762   2.12249   2.12703   2.12966   2.13336
 Alpha virt. eigenvalues --    2.14053   2.14123   2.14939   2.15194   2.15941
 Alpha virt. eigenvalues --    2.16101   2.16908   2.17105   2.17628   2.18386
 Alpha virt. eigenvalues --    2.18690   2.19224   2.19606   2.20923   2.21276
 Alpha virt. eigenvalues --    2.21829   2.22086   2.22454   2.22737   2.23656
 Alpha virt. eigenvalues --    2.24346   2.24540   2.25340   2.25724   2.26660
 Alpha virt. eigenvalues --    2.27140   2.27949   2.28066   2.28850   2.29618
 Alpha virt. eigenvalues --    2.30906   2.31446   2.31625   2.32115   2.32979
 Alpha virt. eigenvalues --    2.33475   2.34334   2.35149   2.35730   2.36041
 Alpha virt. eigenvalues --    2.37619   2.38517   2.38958   2.39596   2.40057
 Alpha virt. eigenvalues --    2.40674   2.41147   2.41743   2.42064   2.42598
 Alpha virt. eigenvalues --    2.42888   2.43243   2.43479   2.43622   2.44748
 Alpha virt. eigenvalues --    2.44969   2.45952   2.46725   2.48009   2.48270
 Alpha virt. eigenvalues --    2.48659   2.49185   2.49810   2.50389   2.50556
 Alpha virt. eigenvalues --    2.52471   2.53705   2.53852   2.54303   2.54847
 Alpha virt. eigenvalues --    2.54989   2.55524   2.58996   2.59058   2.59935
 Alpha virt. eigenvalues --    2.60790   2.60849   2.61140   2.61545   2.61988
 Alpha virt. eigenvalues --    2.62404   2.62821   2.63586   2.64103   2.64269
 Alpha virt. eigenvalues --    2.64593   2.65178   2.65770   2.66081   2.66464
 Alpha virt. eigenvalues --    2.66840   2.67478   2.67889   2.68022   2.68456
 Alpha virt. eigenvalues --    2.68704   2.69659   2.70194   2.70976   2.71162
 Alpha virt. eigenvalues --    2.71625   2.72273   2.72420   2.72929   2.73475
 Alpha virt. eigenvalues --    2.74096   2.74544   2.74687   2.75426   2.75989
 Alpha virt. eigenvalues --    2.76572   2.76724   2.77134   2.77366   2.77677
 Alpha virt. eigenvalues --    2.78554   2.78758   2.79718   2.80761   2.81173
 Alpha virt. eigenvalues --    2.81289   2.81632   2.82147   2.82403   2.82751
 Alpha virt. eigenvalues --    2.83706   2.84388   2.84717   2.85319   2.85697
 Alpha virt. eigenvalues --    2.86519   2.86902   2.87031   2.87784   2.88068
 Alpha virt. eigenvalues --    2.88484   2.88920   2.89246   2.89402   2.90251
 Alpha virt. eigenvalues --    2.90882   2.91806   2.92182   2.93071   2.93185
 Alpha virt. eigenvalues --    2.93687   2.93877   2.94290   2.94622   2.94852
 Alpha virt. eigenvalues --    2.95264   2.95635   2.95872   2.96000   2.96553
 Alpha virt. eigenvalues --    2.96998   2.97527   2.97676   2.98316   2.98660
 Alpha virt. eigenvalues --    2.98837   2.99672   3.00314   3.00628   3.00912
 Alpha virt. eigenvalues --    3.01413   3.01650   3.02174   3.02832   3.03118
 Alpha virt. eigenvalues --    3.03523   3.03704   3.04621   3.05192   3.05361
 Alpha virt. eigenvalues --    3.05673   3.06417   3.06564   3.06989   3.07202
 Alpha virt. eigenvalues --    3.07985   3.08396   3.08467   3.09110   3.09824
 Alpha virt. eigenvalues --    3.10161   3.10862   3.11369   3.12331   3.13009
 Alpha virt. eigenvalues --    3.13688   3.14238   3.14516   3.15985   3.16453
 Alpha virt. eigenvalues --    3.17044   3.18140   3.18333   3.19003   3.19504
 Alpha virt. eigenvalues --    3.19611   3.20221   3.21343   3.21433   3.21978
 Alpha virt. eigenvalues --    3.23121   3.24426   3.25031   3.25669   3.25829
 Alpha virt. eigenvalues --    3.26718   3.27478   3.28213   3.29039   3.29568
 Alpha virt. eigenvalues --    3.30148   3.30599   3.31604   3.32276   3.32762
 Alpha virt. eigenvalues --    3.33108   3.33955   3.35197   3.35482   3.36746
 Alpha virt. eigenvalues --    3.37227   3.38761   3.39092   3.40270   3.41612
 Alpha virt. eigenvalues --    3.42620   3.43091   3.44363   3.45315   3.46451
 Alpha virt. eigenvalues --    3.47062   3.47902   3.49512   3.49714   3.50352
 Alpha virt. eigenvalues --    3.52194   3.52933   3.53143   3.54507   3.55921
 Alpha virt. eigenvalues --    3.57668   3.60089   3.63500   3.64414   3.65640
 Alpha virt. eigenvalues --    3.66573   3.69216   3.70126   3.71381   3.74193
 Alpha virt. eigenvalues --    3.74875   3.75572   3.78638   3.79027   3.80149
 Alpha virt. eigenvalues --    3.82292   3.87861   3.88213   3.88737   3.90348
 Alpha virt. eigenvalues --    3.90962   3.91560   3.92253   3.93769   3.94132
 Alpha virt. eigenvalues --    3.94824   3.95280   3.95926   3.96443   3.97586
 Alpha virt. eigenvalues --    3.97828   3.98609   3.99577   4.00656   4.01289
 Alpha virt. eigenvalues --    4.04366   4.04512   4.05011   4.10278   4.12044
 Alpha virt. eigenvalues --    4.12174   4.15487   4.15851   4.15928   4.18202
 Alpha virt. eigenvalues --    4.19805   4.22818   4.24702   4.25693   4.27014
 Alpha virt. eigenvalues --    4.27986   4.28290   4.28855   4.30222   4.30671
 Alpha virt. eigenvalues --    4.32103   4.33224   4.34145   4.36474   4.40116
 Alpha virt. eigenvalues --    4.42599   4.44636   4.45502   4.46935   4.50474
 Alpha virt. eigenvalues --    4.52623   4.55329   4.69916   4.90471   4.95621
 Alpha virt. eigenvalues --    4.96387   5.02115   5.37579   5.40372   5.41127
 Alpha virt. eigenvalues --    5.42972   5.44478   5.48015   5.50970   5.53655
 Alpha virt. eigenvalues --    5.56854   5.58938   5.64267   5.68032   5.70056
 Alpha virt. eigenvalues --    5.76381   5.77120   5.79506   5.82818   5.89605
 Alpha virt. eigenvalues --    7.70956  14.40069  14.42219  14.50361  14.98454
 Alpha virt. eigenvalues --   23.79731  23.82361  23.93463  23.98481  24.02609
 Alpha virt. eigenvalues --   24.03078  24.03434  24.05633  24.06026  24.06879
 Alpha virt. eigenvalues --   24.11206  24.11783  24.12414  24.12799  24.13369
 Alpha virt. eigenvalues --   24.13569  24.14351  24.14493  24.14710  24.15776
 Alpha virt. eigenvalues --   24.16325  24.17301  24.17875  24.19220  24.21406
 Alpha virt. eigenvalues --   24.21943  24.22211  24.23701  24.23847  24.33073
 Alpha virt. eigenvalues --   24.33115  35.77690  50.14500  50.17890  50.20243
 Alpha virt. eigenvalues --   50.22007  50.23723  50.25073 163.96255
          Condensed to atoms (all electrons):
 Mulliken charges:
               1
     1  C    0.098246
     2  C   -0.346208
     3  H    0.020057
     4  C   -0.598988
     5  H    0.236948
     6  H    0.177037
     7  H    0.203768
     8  C   -0.393036
     9  H    0.248842
    10  H    0.267914
    11  H    0.231089
    12  B    0.815761
    13  C   -0.904523
    14  H    0.197556
    15  H    0.271729
    16  H    0.143961
    17  O    0.063324
    18  O   -0.017431
    19  C   -0.041971
    20  C   -0.321090
    21  C   -0.861071
    22  H    0.198094
    23  H    0.192679
    24  H    0.188398
    25  C   -0.551570
    26  H    0.024776
    27  H    0.229973
    28  H    0.206075
    29  C   -0.382633
    30  H    0.187878
    31  H    0.098318
    32  H    0.217308
    33  C   -0.823704
    34  H    0.232258
    35  H    0.200187
    36  H    0.251618
    37  P   -0.063828
    38  O    0.101782
    39  O   -0.067854
    40  N   -0.390851
    41  H    0.636026
    42  H    0.411939
    43  Li  -0.629748
    44  C    0.102942
    45  O    0.098503
    46  C   -0.065424
    47  C   -0.825799
    48  C   -0.609029
    49  H    0.214417
    50  H    0.201954
    51  H    0.038764
    52  H    0.147565
    53  H    0.228700
    54  H    0.202957
    55  H    0.166742
    56  H    0.260216
    57  C    0.040295
    58  O    0.036709
    59  C    0.030386
    60  C   -0.576672
    61  C   -0.753691
    62  H    0.261050
    63  H    0.183559
    64  H    0.110951
    65  H    0.255846
    66  H    0.223403
    67  H    0.229558
    68  H    0.181173
    69  H    0.227893
    70  C   -0.238322
    71  C   -0.200399
    72  C    0.009390
    73  C   -0.388645
    74  H    0.269894
    75  C   -0.467624
    76  H    0.299308
    77  C   -0.488450
    78  H    0.275355
    79  H    0.275506
    80  H    0.251965
    81  C    0.066982
    82  C   -0.039885
    83  C    0.148496
    84  C   -0.575890
    85  H    0.287174
    86  C   -0.315117
    87  H    0.093313
    88  C   -0.655172
    89  H    0.276656
    90  H    0.290843
    91  H    0.252620
 Sum of Mulliken charges =  -0.00000
 Mulliken charges with hydrogens summed into heavy atoms:
               1
     1  C    0.098246
     2  C   -0.326152
     4  C    0.018765
     8  C    0.354808
    12  B    0.815761
    13  C   -0.291277
    17  O    0.063324
    18  O   -0.017431
    19  C   -0.041971
    20  C   -0.321090
    21  C   -0.281900
    25  C   -0.090746
    29  C    0.120872
    33  C   -0.139642
    37  P   -0.063828
    38  O    0.101782
    39  O   -0.067854
    40  N    0.657114
    43  Li  -0.629748
    44  C    0.519314
    45  O    0.098503
    46  C    0.120905
    47  C   -0.394142
    48  C   -0.182070
    57  C    0.484904
    58  O    0.036709
    59  C    0.397184
    60  C   -0.123711
    61  C   -0.344625
    70  C   -0.238322
    71  C    0.069495
    72  C    0.308698
    73  C   -0.113289
    75  C   -0.192118
    77  C   -0.236485
    81  C    0.066982
    82  C    0.247289
    83  C    0.241809
    84  C   -0.299234
    86  C   -0.024273
    88  C   -0.402552
 Electronic spatial extent (au):  <R**2>=          19859.2727
 Charge=              0.0000 electrons
 Dipole moment (field-independent basis, Debye):
    X=             -5.9700    Y=             -1.6024    Z=             -2.7473  Tot=              6.7643
 Quadrupole moment (field-independent basis, Debye-Ang):
   XX=           -258.5871   YY=           -222.2808   ZZ=           -242.3844
   XY=             -1.2632   XZ=             20.9839   YZ=              5.3252
 Traceless Quadrupole moment (field-independent basis, Debye-Ang):
   XX=            -17.5030   YY=             18.8033   ZZ=             -1.3003
   XY=             -1.2632   XZ=             20.9839   YZ=              5.3252
 Octapole moment (field-independent basis, Debye-Ang**2):
  XXX=            -63.0603  YYY=            -46.4305  ZZZ=            -34.5006  XYY=            -34.8644
  XXY=              3.1202  XXZ=             -6.9647  XZZ=             34.4156  YZZ=             26.4407
  YYZ=            -15.0721  XYZ=             13.0487
 Hexadecapole moment (field-independent basis, Debye-Ang**3):
 XXXX=         -13203.9064 YYYY=          -6975.7813 ZZZZ=          -5884.5930 XXXY=            251.4567
 XXXZ=            442.6783 YYYX=            169.3475 YYYZ=           -245.9054 ZZZX=            250.2747
 ZZZY=           -210.4305 XXYY=          -3368.3390 XXZZ=          -3226.4241 YYZZ=          -2267.1806
 XXYZ=             96.9074 YYXZ=              9.4691 ZZXY=            -30.0947
 N-N= 5.731789482201D+03 E-N=-1.635830341108D+04  KE= 2.083095532171D+03
 Unable to Open any file for archive entry.
 1\1\GINC-NODE02\SP\RwB97XD\6-311++G(d,p)\C31H50B1Li1N1O6P1\WHUGHES2\08
 -Oct-2025\0\\# wb97xd/6-311++g** nosymm int=ultrafine scrf=(smd,solven
 t=tetrahydrofuran)\\openTS-phos-full-unfrz-c3_tzpop-sp\\0,1\C,0,-2.199
 9,-2.4176,0.381\C,0,-1.2062,-2.3697,-0.7192\H,0,-0.5317,-1.5188,-0.592
 7\C,0,-0.4072,-3.6164,-1.049\H,0,0.2673,-3.4069,-1.8857\H,0,0.1997,-3.
 9173,-0.1895\H,0,-1.0522,-4.4569,-1.3294\C,0,-2.7761,-3.7312,0.7622\H,
 0,-3.0666,-4.3045,-0.1266\H,0,-1.9979,-4.3295,1.2589\H,0,-3.6322,-3.62
 37,1.4307\B,0,-2.5141,-1.1375,1.2692\C,0,-1.2988,-1.4633,2.3721\H,0,-1
 .5492,-2.2923,3.0452\H,0,-0.3026,-1.6319,1.9484\H,0,-1.25,-0.5414,2.96
 87\O,0,-2.378,0.1575,0.5608\O,0,-3.815,-1.0954,1.9218\C,0,-4.6025,-0.1
 29,1.2447\C,0,-3.5405,0.9493,0.8476\C,0,-5.686,0.3807,2.1891\H,0,-5.26
 36,0.701,3.1453\H,0,-6.2311,1.2228,1.7459\H,0,-6.4068,-0.4202,2.3905\C
 ,0,-5.2727,-0.7758,0.0238\H,0,-4.5387,-1.1215,-0.7105\H,0,-5.8501,-1.6
 452,0.3577\H,0,-5.9577,-0.0833,-0.4785\C,0,-3.2144,1.8901,2.0098\H,0,-
 2.9674,1.3301,2.9173\H,0,-2.3537,2.504,1.7349\H,0,-4.0506,2.5633,2.230
 4\C,0,-3.8937,1.7702,-0.3859\H,0,-3.1255,2.5333,-0.5527\H,0,-3.9566,1.
 1452,-1.2813\H,0,-4.8526,2.2841,-0.2484\P,0,2.271,0.1297,-0.2711\O,0,0
 .7839,0.0465,0.0772\O,0,2.7471,1.1529,-1.2767\N,0,-2.1692,-2.0348,-1.7
 82\H,0,-2.5139,-1.0807,-1.7043\H,0,-2.9337,-2.6965,-1.8872\Li,0,-0.800
 9,0.9505,-0.3071\C,0,0.1878,3.0288,1.4295\O,0,-0.4446,2.8903,0.1417\C,
 0,0.3295,3.5796,-0.8595\C,0,1.2652,4.5029,-0.0912\C,0,1.5397,3.6841,1.
 1724\H,0,-0.45,3.6626,2.0583\H,0,0.2644,2.0356,1.8811\H,0,0.8941,2.836
 9,-1.4337\H,0,-0.3676,4.1121,-1.5126\H,0,2.1714,4.7302,-0.6594\H,0,0.7
 615,5.4447,0.1579\H,0,2.3023,2.9267,0.9703\H,0,1.8665,4.2908,2.0217\C,
 0,-1.6234,1.8894,-3.1562\O,0,-1.1189,0.8417,-2.3249\C,0,-0.2206,0.0886
 ,-3.1461\C,0,0.5619,1.1439,-3.9168\C,0,-0.4762,2.2713,-4.112\H,0,-2.49
 48,1.5126,-3.7096\H,0,-1.9491,2.7034,-2.5066\H,0,0.3866,-0.5321,-2.488
 \H,0,-0.8059,-0.5589,-3.8141\H,0,1.4042,1.4782,-3.3038\H,0,0.9478,0.75
 56,-4.8641\H,0,-0.0539,3.2481,-3.8605\H,0,-0.8381,2.3195,-5.1434\C,0,2
 .7748,-1.5403,-0.8452\C,0,2.8766,-2.621,0.0377\C,0,3.0213,-1.7547,-2.2
 051\C,0,3.2157,-3.8899,-0.4279\H,0,2.6936,-2.4739,1.1003\C,0,3.3477,-3
 .0259,-2.6772\H,0,2.9636,-0.9149,-2.8933\C,0,3.4463,-4.0961,-1.7882\H,
 0,3.2959,-4.7194,0.2703\H,0,3.5335,-3.1791,-3.7374\H,0,3.708,-5.0861,-
 2.1528\C,0,3.1588,0.3489,1.3153\C,0,4.5142,0.6969,1.3242\C,0,2.491,0.1
 897,2.5333\C,0,5.1896,0.8841,2.5287\H,0,5.0404,0.8309,0.3821\C,0,3.162
 8,0.3789,3.7411\H,0,1.4368,-0.0745,2.5278\C,0,4.5133,0.7266,3.7398\H,0
 ,6.2417,1.1572,2.524\H,0,2.632,0.2564,4.6819\H,0,5.0386,0.8758,4.6797\
 \Version=AS64L-G16RevC.01\HF=-2091.447304\RMSD=2.301e-09\Dipole=-2.348
 7881,-0.6304212,-1.0808577\Quadrupole=-13.0130591,13.9798135,-0.966754
 4,-0.9391743,15.6010494,3.9591593\PG=C01 [X(C31H50B1Li1N1O6P1)]\\@
 The archive entry for this job was punched.


 A MAN IS NEVER SO BRILLIANT AS WHEN HE TAKES THE WORDS RIGHT OUT
 OF YOUR MOUTH. -- ARNOT SHEPPARD, JR.
 Job cpu time:       0 days 10 hours 26 minutes 17.4 seconds.
 Elapsed time:       0 days  2 hours 37 minutes 55.0 seconds.
 File lengths (MBytes):  RWF=   1330 Int=      0 D2E=      0 Chk=     95 Scr=      1
 Normal termination of Gaussian 16 at Wed Oct  8 18:05:41 2025.
