Job Start Time: Wed Oct  8 15:27:45 MDT 2025
SLURM Job ID: 768183
SLURM Job Name: openTS-phos-full-unfrz-c11_tzpop-sp
 Entering Gaussian System, Link 0=/opt/apps/Gaussian/G16C/g16/g16
 Initial command:
 /opt/apps/Gaussian/G16C/g16/l1.exe "/tmp/768183/Gau-4069715.inp" -scrdir="/tmp/768183/"
 Entering Link 1 = /opt/apps/Gaussian/G16C/g16/l1.exe PID=   4069719.
  
 Copyright (c) 1988-2019, Gaussian, Inc.  All Rights Reserved.
  
 This is part of the Gaussian(R) 16 program.  It is based on
 the Gaussian(R) 09 system (copyright 2009, Gaussian, Inc.),
 the Gaussian(R) 03 system (copyright 2003, Gaussian, Inc.),
 the Gaussian(R) 98 system (copyright 1998, Gaussian, Inc.),
 the Gaussian(R) 94 system (copyright 1995, Gaussian, Inc.),
 the Gaussian 92(TM) system (copyright 1992, Gaussian, Inc.),
 the Gaussian 90(TM) system (copyright 1990, Gaussian, Inc.),
 the Gaussian 88(TM) system (copyright 1988, Gaussian, Inc.),
 the Gaussian 86(TM) system (copyright 1986, Carnegie Mellon
 University), and the Gaussian 82(TM) system (copyright 1983,
 Carnegie Mellon University). Gaussian is a federally registered
 trademark of Gaussian, Inc.
  
 This software contains proprietary and confidential information,
 including trade secrets, belonging to Gaussian, Inc.
  
 This software is provided under written license and may be
 used, copied, transmitted, or stored only in accord with that
 written license.
  
 The following legend is applicable only to US Government
 contracts under FAR:
  
                    RESTRICTED RIGHTS LEGEND
  
 Use, reproduction and disclosure by the US Government is
 subject to restrictions as set forth in subparagraphs (a)
 and (c) of the Commercial Computer Software - Restricted
 Rights clause in FAR 52.227-19.
  
 Gaussian, Inc.
 340 Quinnipiac St., Bldg. 40, Wallingford CT 06492
  
  
 ---------------------------------------------------------------
 Warning -- This program may not be used in any manner that
 competes with the business of Gaussian, Inc. or will provide
 assistance to any competitor of Gaussian, Inc.  The licensee
 of this program is prohibited from giving any competitor of
 Gaussian, Inc. access to this program.  By using this program,
 the user acknowledges that Gaussian, Inc. is engaged in the
 business of creating and licensing software in the field of
 computational chemistry and represents and warrants to the
 licensee that it is not a competitor of Gaussian, Inc. and that
 it will not use this program in any manner prohibited above.
 ---------------------------------------------------------------
  

 Cite this work as:
 Gaussian 16, Revision C.01,
 M. J. Frisch, G. W. Trucks, H. B. Schlegel, G. E. Scuseria, 
 M. A. Robb, J. R. Cheeseman, G. Scalmani, V. Barone, 
 G. A. Petersson, H. Nakatsuji, X. Li, M. Caricato, A. V. Marenich, 
 J. Bloino, B. G. Janesko, R. Gomperts, B. Mennucci, H. P. Hratchian, 
 J. V. Ortiz, A. F. Izmaylov, J. L. Sonnenberg, D. Williams-Young, 
 F. Ding, F. Lipparini, F. Egidi, J. Goings, B. Peng, A. Petrone, 
 T. Henderson, D. Ranasinghe, V. G. Zakrzewski, J. Gao, N. Rega, 
 G. Zheng, W. Liang, M. Hada, M. Ehara, K. Toyota, R. Fukuda, 
 J. Hasegawa, M. Ishida, T. Nakajima, Y. Honda, O. Kitao, H. Nakai, 
 T. Vreven, K. Throssell, J. A. Montgomery, Jr., J. E. Peralta, 
 F. Ogliaro, M. J. Bearpark, J. J. Heyd, E. N. Brothers, K. N. Kudin, 
 V. N. Staroverov, T. A. Keith, R. Kobayashi, J. Normand, 
 K. Raghavachari, A. P. Rendell, J. C. Burant, S. S. Iyengar, 
 J. Tomasi, M. Cossi, J. M. Millam, M. Klene, C. Adamo, R. Cammi, 
 J. W. Ochterski, R. L. Martin, K. Morokuma, O. Farkas, 
 J. B. Foresman, and D. J. Fox, Gaussian, Inc., Wallingford CT, 2019.
 
 ******************************************
 Gaussian 16:  AS64L-G16RevC.01  3-Jul-2019
                 8-Oct-2025 
 ******************************************
 %chk=openTS-phos-full-unfrz-c11_tzpop-sp.chk
 %nprocshared=4
 Will use up to    4 processors via shared memory.
 %mem=8GB
 ----------------------------------------------------------------------
 # wb97xd/6-311++g** nosymm int=ultrafine scrf=(smd,solvent=tetrahydrof
 uran)
 ----------------------------------------------------------------------
 1/38=1,172=1/1;
 2/12=2,15=1,17=6,18=5,40=1/2;
 3/5=4,6=6,7=1111,11=2,25=1,30=1,70=32201,72=20,74=-58,75=-5/1,2,3;
 4//1;
 5/5=2,38=5,53=20/2;
 6/7=2,8=2,9=2,10=2,28=1/1;
 99/5=1,9=1/99;
 -----------------------------------
 openTS-phos-full-unfrz-c11_tzpop-sp
 -----------------------------------
 Symbolic Z-matrix:
 Charge =  0 Multiplicity = 1
 C                    -2.3753   -1.1575    2.3167 
 C                    -0.9897   -1.6678    2.166 
 H                    -0.4107   -1.0287    1.4941 
 C                    -0.1865   -1.9932    3.4105 
 H                     0.0126   -1.0791    3.9795 
 H                    -0.7054   -2.7027    4.0651 
 H                     0.7738   -2.4312    3.1217 
 C                    -3.1126   -1.4338    3.5723 
 H                    -4.1589   -1.1304    3.506 
 H                    -3.055    -2.5015    3.8215 
 H                    -2.6248   -0.9085    4.4062 
 B                    -3.0021   -0.1883    1.2128 
 C                    -2.4049    1.2171    1.8692 
 H                    -2.815     2.0028    1.2197 
 H                    -2.7603    1.4227    2.8873 
 H                    -1.3128    1.2979    1.8569 
 O                    -2.5264   -0.4835   -0.1672 
 O                    -4.4543   -0.1457    1.1273 
 C                    -4.8445   -0.8977   -0.0073 
 C                    -3.6735   -0.6363   -1.02 
 C                    -6.2028   -0.3984   -0.4909 
 H                    -6.9702   -0.6407    0.2533 
 H                    -6.2023    0.6857   -0.6322 
 H                    -6.4862   -0.876    -1.4366 
 C                    -4.9794   -2.3778    0.3843 
 H                    -5.3663   -2.986    -0.441 
 H                    -4.0265   -2.8099    0.7052 
 H                    -5.681    -2.4545    1.2223 
 C                    -3.8544    0.6655   -1.8034 
 H                    -2.937     0.8863   -2.3585 
 H                    -4.6789    0.5952   -2.5219 
 H                    -4.0473    1.5069   -1.1298 
 C                    -3.4352   -1.7857   -1.9926 
 H                    -4.3426   -1.9919   -2.573 
 H                    -2.6345   -1.5238   -2.6894 
 H                    -3.1459   -2.7029   -1.4708 
 P                     1.7391    1.0557    1.0069 
 O                     0.5756    0.3864    0.2781 
 O                     1.489     2.2209    1.9346 
 N                    -1.3545   -2.8826    1.4108 
 H                    -1.7651   -2.6527    0.5079 
 H                    -1.9561   -3.5243    1.9217 
 Li                   -0.8801    0.4041   -0.8788 
 C                    -0.0984   -0.9721   -3.756 
 O                    -0.2772   -0.8561   -2.3496 
 C                     0.2182   -2.0704   -1.7827 
 C                     1.4327   -2.4655   -2.6421 
 C                     1.2882   -1.5963   -3.9138 
 H                    -0.878    -1.6289   -4.1721 
 H                    -0.2035    0.0215   -4.1957 
 H                     0.4532   -1.8623   -0.7376 
 H                    -0.5699   -2.8346   -1.8344 
 H                     2.372    -2.2517   -2.1237 
 H                     1.4149   -3.5346   -2.8713 
 H                     2.0514   -0.8122   -3.9357 
 H                     1.3712   -2.1764   -4.837 
 C                    -1.0346    3.3108   -0.7796 
 O                    -0.9326    2.2247   -1.7187 
 C                     0.0556    2.525    -2.7175 
 C                     0.7486    3.8037   -2.2593 
 C                    -0.3537    4.4953   -1.4526 
 H                    -2.0956    3.4731   -0.5708 
 H                    -0.5212    3.0244    0.1459 
 H                     0.7365    1.674    -2.7951 
 H                    -0.4593    2.6625   -3.6773 
 H                     1.5991    3.5637   -1.6122 
 H                     1.1097    4.3999   -3.102 
 H                     0.033     5.2128   -0.7238 
 H                    -1.0528    5.0146   -2.1187 
 C                     2.9504    1.535    -0.2804 
 C                     2.953     0.8861   -1.5189 
 C                     3.885     2.5478   -0.0432 
 C                     3.8683    1.2436   -2.507 
 H                     2.2114    0.1152   -1.71 
 C                     4.8009    2.9113   -1.0297 
 H                     3.8833    3.0625    0.9144 
 C                     4.7933    2.2595   -2.2636 
 H                     3.8573    0.7359   -3.4686 
 H                     5.5179    3.7056   -0.8385 
 H                     5.5055    2.5437   -3.034 
 C                     2.5956   -0.2822    1.9237 
 C                     2.8445   -1.5153    1.3088 
 C                     2.9954   -0.0949    3.2485 
 C                     3.4777   -2.542     2.0045 
 H                     2.5353   -1.6756    0.2784 
 C                     3.6236   -1.1234    3.9529 
 H                     2.8013    0.8605    3.7292 
 C                     3.8662   -2.3476    3.3318 
 H                     3.6635   -3.4952    1.5158 
 H                     3.9236   -0.9681    4.9862 
 H                     4.3566   -3.149     3.8783 
 
 Symmetry turned off by external request.
 Stoichiometry    C31H50BLiNO6P
 Framework group  C1[X(C31H50BLiNO6P)]
 Deg. of freedom   267
 Full point group                 C1      NOp   1
                          Input orientation:                          
 ---------------------------------------------------------------------
 Center     Atomic      Atomic             Coordinates (Angstroms)
 Number     Number       Type             X           Y           Z
 ---------------------------------------------------------------------
      1          6           0       -2.375300   -1.157500    2.316700
      2          6           0       -0.989700   -1.667800    2.166000
      3          1           0       -0.410700   -1.028700    1.494100
      4          6           0       -0.186500   -1.993200    3.410500
      5          1           0        0.012600   -1.079100    3.979500
      6          1           0       -0.705400   -2.702700    4.065100
      7          1           0        0.773800   -2.431200    3.121700
      8          6           0       -3.112600   -1.433800    3.572300
      9          1           0       -4.158900   -1.130400    3.506000
     10          1           0       -3.055000   -2.501500    3.821500
     11          1           0       -2.624800   -0.908500    4.406200
     12          5           0       -3.002100   -0.188300    1.212800
     13          6           0       -2.404900    1.217100    1.869200
     14          1           0       -2.815000    2.002800    1.219700
     15          1           0       -2.760300    1.422700    2.887300
     16          1           0       -1.312800    1.297900    1.856900
     17          8           0       -2.526400   -0.483500   -0.167200
     18          8           0       -4.454300   -0.145700    1.127300
     19          6           0       -4.844500   -0.897700   -0.007300
     20          6           0       -3.673500   -0.636300   -1.020000
     21          6           0       -6.202800   -0.398400   -0.490900
     22          1           0       -6.970200   -0.640700    0.253300
     23          1           0       -6.202300    0.685700   -0.632200
     24          1           0       -6.486200   -0.876000   -1.436600
     25          6           0       -4.979400   -2.377800    0.384300
     26          1           0       -5.366300   -2.986000   -0.441000
     27          1           0       -4.026500   -2.809900    0.705200
     28          1           0       -5.681000   -2.454500    1.222300
     29          6           0       -3.854400    0.665500   -1.803400
     30          1           0       -2.937000    0.886300   -2.358500
     31          1           0       -4.678900    0.595200   -2.521900
     32          1           0       -4.047300    1.506900   -1.129800
     33          6           0       -3.435200   -1.785700   -1.992600
     34          1           0       -4.342600   -1.991900   -2.573000
     35          1           0       -2.634500   -1.523800   -2.689400
     36          1           0       -3.145900   -2.702900   -1.470800
     37         15           0        1.739100    1.055700    1.006900
     38          8           0        0.575600    0.386400    0.278100
     39          8           0        1.489000    2.220900    1.934600
     40          7           0       -1.354500   -2.882600    1.410800
     41          1           0       -1.765100   -2.652700    0.507900
     42          1           0       -1.956100   -3.524300    1.921700
     43          3           0       -0.880100    0.404100   -0.878800
     44          6           0       -0.098400   -0.972100   -3.756000
     45          8           0       -0.277200   -0.856100   -2.349600
     46          6           0        0.218200   -2.070400   -1.782700
     47          6           0        1.432700   -2.465500   -2.642100
     48          6           0        1.288200   -1.596300   -3.913800
     49          1           0       -0.878000   -1.628900   -4.172100
     50          1           0       -0.203500    0.021500   -4.195700
     51          1           0        0.453200   -1.862300   -0.737600
     52          1           0       -0.569900   -2.834600   -1.834400
     53          1           0        2.372000   -2.251700   -2.123700
     54          1           0        1.414900   -3.534600   -2.871300
     55          1           0        2.051400   -0.812200   -3.935700
     56          1           0        1.371200   -2.176400   -4.837000
     57          6           0       -1.034600    3.310800   -0.779600
     58          8           0       -0.932600    2.224700   -1.718700
     59          6           0        0.055600    2.525000   -2.717500
     60          6           0        0.748600    3.803700   -2.259300
     61          6           0       -0.353700    4.495300   -1.452600
     62          1           0       -2.095600    3.473100   -0.570800
     63          1           0       -0.521200    3.024400    0.145900
     64          1           0        0.736500    1.674000   -2.795100
     65          1           0       -0.459300    2.662500   -3.677300
     66          1           0        1.599100    3.563700   -1.612200
     67          1           0        1.109700    4.399900   -3.102000
     68          1           0        0.033000    5.212800   -0.723800
     69          1           0       -1.052800    5.014600   -2.118700
     70          6           0        2.950400    1.535000   -0.280400
     71          6           0        2.953000    0.886100   -1.518900
     72          6           0        3.885000    2.547800   -0.043200
     73          6           0        3.868300    1.243600   -2.507000
     74          1           0        2.211400    0.115200   -1.710000
     75          6           0        4.800900    2.911300   -1.029700
     76          1           0        3.883300    3.062500    0.914400
     77          6           0        4.793300    2.259500   -2.263600
     78          1           0        3.857300    0.735900   -3.468600
     79          1           0        5.517900    3.705600   -0.838500
     80          1           0        5.505500    2.543700   -3.034000
     81          6           0        2.595600   -0.282200    1.923700
     82          6           0        2.844500   -1.515300    1.308800
     83          6           0        2.995400   -0.094900    3.248500
     84          6           0        3.477700   -2.542000    2.004500
     85          1           0        2.535300   -1.675600    0.278400
     86          6           0        3.623600   -1.123400    3.952900
     87          1           0        2.801300    0.860500    3.729200
     88          6           0        3.866200   -2.347600    3.331800
     89          1           0        3.663500   -3.495200    1.515800
     90          1           0        3.923600   -0.968100    4.986200
     91          1           0        4.356600   -3.149000    3.878300
 ---------------------------------------------------------------------
 Rotational constants (GHZ):           0.1101333           0.0752225           0.0615369
 Standard basis: 6-311++G(d,p) (5D, 7F)
  1260 basis functions,  1940 primitive gaussians,  1301 cartesian basis functions
   157 alpha electrons      157 beta electrons
       nuclear repulsion energy      5722.7391284704 Hartrees.
 NAtoms=   91 NActive=   91 NUniq=   91 SFac= 1.00D+00 NAtFMM=   60 NAOKFM=T Big=T
 Integral buffers will be    131072 words long.
 Raffenetti 2 integral format.
 Two-electron integral symmetry is turned off.
 Nuclear repulsion after empirical dispersion term =     5722.6195222022 Hartrees.
 ------------------------------------------------------------------------------
 Polarizable Continuum Model (PCM)
 =================================
 Model                : PCM.
 Atomic radii         : SMD-Coulomb.
 Polarization charges : Total charges.
 Charge compensation  : None.
 Solution method      : On-the-fly selection.
 Cavity type          : VdW (van der Waals Surface) (Alpha=1.000).
 Cavity algorithm     : GePol (No added spheres)
                        Default sphere list used, NSphG=   91.
                        Lebedev-Laikov grids with approx.  5.0 points / Ang**2.
                        Smoothing algorithm: York/Karplus (Gamma=1.0000).
                        Polarization charges: spherical gaussians, with
                                              point-specific exponents (IZeta= 3).
                        Self-potential: point-specific (ISelfS= 7).
                        Self-field    : sphere-specific E.n sum rule (ISelfD= 2).
 Solvent              : TetraHydroFuran, Eps=   7.425700 Eps(inf)=   1.974025
 ------------------------------------------------------------------------------
 ------------------------------------------------------------------------------
 Atomic radii for non-electrostatic terms: SMD-CDS.
 ------------------------------------------------------------------------------
 Nuclear repulsion after PCM non-electrostatic terms =     5722.6110071363 Hartrees.
 One-electron integrals computed using PRISM.
 NBasis=  1260 RedAO= T EigKep=  1.04D-06  NBF=  1260
 NBsUse=  1251 1.00D-06 EigRej=  8.29D-07 NBFU=  1251
 ExpMin= 7.40D-03 ExpMax= 7.75D+04 ExpMxC= 2.65D+03 IAcc=3 IRadAn=         5 AccDes= 0.00D+00
 Harris functional with IExCor= 4639 and IRadAn=       5 diagonalized for initial guess.
 HarFok:  IExCor= 4639 AccDes= 0.00D+00 IRadAn=         5 IDoV= 1 UseB2=F ITyADJ=14
 ICtDFT=  3500011 ScaDFX=  1.000000  1.000000  1.000000  1.000000
 FoFCou: FMM=F IPFlag=           0 FMFlag=      100000 FMFlg1=        2001
         NFxFlg=           0 DoJE=T BraDBF=F KetDBF=T FulRan=T
         wScrn=  0.000000 ICntrl=       500 IOpCl=  0 I1Cent=   200000004 NGrid=           0
         NMat0=    1 NMatS0=      1 NMatT0=    0 NMatD0=    1 NMtDS0=    0 NMtDT0=    0
 Symmetry not used in FoFCou.
 Requested convergence on RMS density matrix=1.00D-08 within 128 cycles.
 Requested convergence on MAX density matrix=1.00D-06.
 Requested convergence on             energy=1.00D-06.
 No special actions if energy rises.
 Inv3:  Mode=1 IEnd=    96004947.
 Iteration    1 A*A^-1 deviation from unit magnitude is 1.03D-14 for   5656.
 Iteration    1 A*A^-1 deviation from orthogonality  is 8.06D-15 for   5656   1208.
 Iteration    1 A^-1*A deviation from unit magnitude is 1.03D-14 for   5656.
 Iteration    1 A^-1*A deviation from orthogonality  is 5.18D-15 for   5647    598.
 Error on total polarization charges =  0.07488
 SCF Done:  E(RwB97XD) =  -2091.44563842     A.U. after   18 cycles
            NFock= 18  Conv=0.34D-08     -V/T= 2.0040
 SMD-CDS (non-electrostatic) energy       (kcal/mol) =      -5.34
 (included in total energy above)

 **********************************************************************

            Population analysis using the SCF Density.

 **********************************************************************

 Alpha  occ. eigenvalues --  -77.25780 -19.26009 -19.25032 -19.21576 -19.19818
 Alpha  occ. eigenvalues --  -19.17320 -19.16283 -14.44036 -10.34092 -10.32818
 Alpha  occ. eigenvalues --  -10.32683 -10.32388 -10.32146 -10.31971 -10.31614
 Alpha  occ. eigenvalues --  -10.31524 -10.28798 -10.28678 -10.28627 -10.28607
 Alpha  occ. eigenvalues --  -10.28552 -10.28512 -10.28509 -10.28494 -10.28456
 Alpha  occ. eigenvalues --  -10.28372 -10.28349 -10.28001 -10.27961 -10.27914
 Alpha  occ. eigenvalues --  -10.27816 -10.27306 -10.27228 -10.26604 -10.26024
 Alpha  occ. eigenvalues --  -10.25843 -10.25728 -10.25491 -10.23393  -6.83289
 Alpha  occ. eigenvalues --   -6.70089  -4.84812  -4.84790  -4.84759  -1.98498
 Alpha  occ. eigenvalues --   -1.15350  -1.13824  -1.12299  -1.06378  -1.05650
 Alpha  occ. eigenvalues --   -1.01671  -1.00275  -0.95507  -0.95353  -0.89056
 Alpha  occ. eigenvalues --   -0.87871  -0.87808  -0.87794  -0.84904  -0.84336
 Alpha  occ. eigenvalues --   -0.84207  -0.83947  -0.83689  -0.83138  -0.82997
 Alpha  occ. eigenvalues --   -0.82502  -0.78888  -0.77263  -0.76119  -0.74053
 Alpha  occ. eigenvalues --   -0.71166  -0.69596  -0.69495  -0.69236  -0.69131
 Alpha  occ. eigenvalues --   -0.68714  -0.68500  -0.68242  -0.67812  -0.64820
 Alpha  occ. eigenvalues --   -0.63304  -0.62077  -0.61427  -0.60665  -0.60108
 Alpha  occ. eigenvalues --   -0.59558  -0.58788  -0.58273  -0.58041  -0.57623
 Alpha  occ. eigenvalues --   -0.56125  -0.54453  -0.54144  -0.53976  -0.53759
 Alpha  occ. eigenvalues --   -0.53468  -0.53210  -0.53023  -0.52583  -0.52329
 Alpha  occ. eigenvalues --   -0.51642  -0.51185  -0.50826  -0.50685  -0.50501
 Alpha  occ. eigenvalues --   -0.50162  -0.50044  -0.49749  -0.49736  -0.49508
 Alpha  occ. eigenvalues --   -0.48414  -0.48167  -0.47884  -0.47417  -0.47242
 Alpha  occ. eigenvalues --   -0.47075  -0.46587  -0.46254  -0.45786  -0.45586
 Alpha  occ. eigenvalues --   -0.45139  -0.44756  -0.44643  -0.44168  -0.44015
 Alpha  occ. eigenvalues --   -0.43908  -0.43436  -0.43166  -0.42960  -0.42805
 Alpha  occ. eigenvalues --   -0.42593  -0.42428  -0.42230  -0.41868  -0.41759
 Alpha  occ. eigenvalues --   -0.41720  -0.41580  -0.41104  -0.40662  -0.40353
 Alpha  occ. eigenvalues --   -0.40278  -0.39677  -0.38793  -0.36300  -0.36203
 Alpha  occ. eigenvalues --   -0.35512  -0.34962  -0.34107  -0.33965  -0.33651
 Alpha  occ. eigenvalues --   -0.33264  -0.32891  -0.32612  -0.32495  -0.32164
 Alpha  occ. eigenvalues --   -0.31327  -0.30003
 Alpha virt. eigenvalues --   -0.00470   0.02230   0.02471   0.02604   0.02781
 Alpha virt. eigenvalues --    0.03350   0.04957   0.05368   0.05661   0.05856
 Alpha virt. eigenvalues --    0.05973   0.06026   0.06139   0.06298   0.06864
 Alpha virt. eigenvalues --    0.07032   0.07088   0.07291   0.07355   0.07439
 Alpha virt. eigenvalues --    0.07571   0.07742   0.07857   0.08014   0.08150
 Alpha virt. eigenvalues --    0.08719   0.09053   0.09174   0.09390   0.09595
 Alpha virt. eigenvalues --    0.09859   0.09938   0.09969   0.10229   0.10807
 Alpha virt. eigenvalues --    0.11001   0.11580   0.11893   0.12188   0.12369
 Alpha virt. eigenvalues --    0.12382   0.12485   0.12803   0.12871   0.13102
 Alpha virt. eigenvalues --    0.13358   0.13882   0.13949   0.14093   0.14267
 Alpha virt. eigenvalues --    0.14495   0.14766   0.15057   0.15215   0.15303
 Alpha virt. eigenvalues --    0.15526   0.15569   0.15723   0.16046   0.16147
 Alpha virt. eigenvalues --    0.16347   0.16561   0.16652   0.16891   0.17020
 Alpha virt. eigenvalues --    0.17334   0.17393   0.17537   0.17633   0.17735
 Alpha virt. eigenvalues --    0.17908   0.18045   0.18287   0.18354   0.18416
 Alpha virt. eigenvalues --    0.18671   0.18755   0.18845   0.19012   0.19046
 Alpha virt. eigenvalues --    0.19113   0.19297   0.19457   0.19523   0.19713
 Alpha virt. eigenvalues --    0.19950   0.20011   0.20133   0.20268   0.20298
 Alpha virt. eigenvalues --    0.20494   0.20502   0.20819   0.20953   0.21064
 Alpha virt. eigenvalues --    0.21223   0.21311   0.21452   0.21524   0.21742
 Alpha virt. eigenvalues --    0.21830   0.22087   0.22161   0.22199   0.22447
 Alpha virt. eigenvalues --    0.22514   0.22583   0.22771   0.22986   0.23059
 Alpha virt. eigenvalues --    0.23089   0.23237   0.23392   0.23520   0.23746
 Alpha virt. eigenvalues --    0.23878   0.24078   0.24177   0.24194   0.24303
 Alpha virt. eigenvalues --    0.24388   0.24476   0.24644   0.24799   0.24926
 Alpha virt. eigenvalues --    0.25064   0.25176   0.25420   0.25507   0.25701
 Alpha virt. eigenvalues --    0.25767   0.25899   0.25985   0.26175   0.26430
 Alpha virt. eigenvalues --    0.26440   0.26506   0.26722   0.26922   0.26997
 Alpha virt. eigenvalues --    0.27181   0.27294   0.27438   0.27640   0.27715
 Alpha virt. eigenvalues --    0.27840   0.28028   0.28173   0.28264   0.28436
 Alpha virt. eigenvalues --    0.28590   0.28676   0.28794   0.29080   0.29294
 Alpha virt. eigenvalues --    0.29412   0.29499   0.29631   0.29815   0.30000
 Alpha virt. eigenvalues --    0.30088   0.30280   0.30485   0.30574   0.30691
 Alpha virt. eigenvalues --    0.30757   0.31016   0.31122   0.31182   0.31311
 Alpha virt. eigenvalues --    0.31500   0.31744   0.31916   0.32169   0.32345
 Alpha virt. eigenvalues --    0.32653   0.32709   0.32778   0.32952   0.33072
 Alpha virt. eigenvalues --    0.33255   0.33544   0.33716   0.34010   0.34109
 Alpha virt. eigenvalues --    0.34167   0.34359   0.34481   0.34534   0.34751
 Alpha virt. eigenvalues --    0.34848   0.34910   0.35094   0.35331   0.35400
 Alpha virt. eigenvalues --    0.35707   0.35797   0.36016   0.36165   0.36333
 Alpha virt. eigenvalues --    0.36387   0.36574   0.36841   0.36934   0.37135
 Alpha virt. eigenvalues --    0.37322   0.37410   0.37630   0.37786   0.37912
 Alpha virt. eigenvalues --    0.38256   0.38427   0.38489   0.38885   0.39088
 Alpha virt. eigenvalues --    0.39195   0.39402   0.39536   0.39627   0.39791
 Alpha virt. eigenvalues --    0.39944   0.40072   0.40292   0.40455   0.40544
 Alpha virt. eigenvalues --    0.40615   0.40907   0.41126   0.41350   0.41516
 Alpha virt. eigenvalues --    0.41587   0.41777   0.41941   0.42173   0.42389
 Alpha virt. eigenvalues --    0.42552   0.42745   0.42961   0.43023   0.43598
 Alpha virt. eigenvalues --    0.43744   0.43790   0.44038   0.44290   0.44446
 Alpha virt. eigenvalues --    0.44651   0.44757   0.44843   0.44900   0.45357
 Alpha virt. eigenvalues --    0.45541   0.45659   0.45782   0.45862   0.46042
 Alpha virt. eigenvalues --    0.46522   0.46634   0.46870   0.47172   0.47321
 Alpha virt. eigenvalues --    0.47515   0.47691   0.48128   0.48232   0.48448
 Alpha virt. eigenvalues --    0.48484   0.48736   0.49097   0.49278   0.49595
 Alpha virt. eigenvalues --    0.49931   0.50425   0.50575   0.50818   0.51051
 Alpha virt. eigenvalues --    0.51334   0.51817   0.51864   0.52317   0.52750
 Alpha virt. eigenvalues --    0.53176   0.53424   0.53642   0.54072   0.54231
 Alpha virt. eigenvalues --    0.54592   0.54923   0.55296   0.55749   0.56237
 Alpha virt. eigenvalues --    0.56328   0.56443   0.57314   0.57375   0.57570
 Alpha virt. eigenvalues --    0.57952   0.58433   0.58927   0.59123   0.59371
 Alpha virt. eigenvalues --    0.59756   0.60140   0.60454   0.60785   0.61197
 Alpha virt. eigenvalues --    0.61388   0.61931   0.62256   0.62572   0.63033
 Alpha virt. eigenvalues --    0.63481   0.63835   0.64256   0.64454   0.64864
 Alpha virt. eigenvalues --    0.65016   0.65270   0.65470   0.65660   0.66121
 Alpha virt. eigenvalues --    0.66401   0.66584   0.66869   0.67122   0.67255
 Alpha virt. eigenvalues --    0.67584   0.67915   0.68066   0.68300   0.68734
 Alpha virt. eigenvalues --    0.69040   0.69329   0.69454   0.69851   0.70329
 Alpha virt. eigenvalues --    0.70369   0.70784   0.70884   0.71127   0.71382
 Alpha virt. eigenvalues --    0.71536   0.71977   0.72244   0.72380   0.72757
 Alpha virt. eigenvalues --    0.73095   0.73452   0.73689   0.73805   0.74140
 Alpha virt. eigenvalues --    0.74391   0.74666   0.74791   0.75178   0.75342
 Alpha virt. eigenvalues --    0.75538   0.75874   0.76381   0.76461   0.76735
 Alpha virt. eigenvalues --    0.76777   0.77137   0.77371   0.77555   0.77801
 Alpha virt. eigenvalues --    0.78098   0.78547   0.78830   0.79201   0.79489
 Alpha virt. eigenvalues --    0.79593   0.79794   0.80232   0.80262   0.80537
 Alpha virt. eigenvalues --    0.80859   0.81258   0.81478   0.81695   0.81977
 Alpha virt. eigenvalues --    0.82383   0.82558   0.82819   0.82897   0.83423
 Alpha virt. eigenvalues --    0.83497   0.83646   0.83835   0.83994   0.84107
 Alpha virt. eigenvalues --    0.84161   0.84656   0.84876   0.85079   0.85267
 Alpha virt. eigenvalues --    0.85832   0.85885   0.86354   0.86546   0.86641
 Alpha virt. eigenvalues --    0.86775   0.87033   0.87209   0.87603   0.87888
 Alpha virt. eigenvalues --    0.88302   0.88366   0.88540   0.88680   0.88872
 Alpha virt. eigenvalues --    0.89007   0.89341   0.89570   0.90148   0.90446
 Alpha virt. eigenvalues --    0.90480   0.90604   0.91109   0.91314   0.91528
 Alpha virt. eigenvalues --    0.91687   0.92023   0.92118   0.92480   0.92814
 Alpha virt. eigenvalues --    0.93592   0.93861   0.93954   0.94129   0.94415
 Alpha virt. eigenvalues --    0.94829   0.95178   0.95544   0.95949   0.96339
 Alpha virt. eigenvalues --    0.96398   0.96790   0.96993   0.97280   0.97576
 Alpha virt. eigenvalues --    0.97727   0.97943   0.98069   0.98341   0.98427
 Alpha virt. eigenvalues --    0.98885   0.99138   0.99435   0.99807   0.99970
 Alpha virt. eigenvalues --    1.00832   1.01271   1.01519   1.01544   1.02323
 Alpha virt. eigenvalues --    1.02941   1.03143   1.04004   1.04633   1.04896
 Alpha virt. eigenvalues --    1.05168   1.05469   1.06063   1.06206   1.06431
 Alpha virt. eigenvalues --    1.07543   1.07704   1.08752   1.08826   1.09474
 Alpha virt. eigenvalues --    1.09727   1.10558   1.11068   1.11207   1.11463
 Alpha virt. eigenvalues --    1.12050   1.12499   1.12604   1.13805   1.13993
 Alpha virt. eigenvalues --    1.14854   1.14968   1.15583   1.15908   1.16243
 Alpha virt. eigenvalues --    1.17068   1.18042   1.18107   1.18511   1.18972
 Alpha virt. eigenvalues --    1.19131   1.19762   1.20210   1.21036   1.21260
 Alpha virt. eigenvalues --    1.21723   1.21942   1.22615   1.23075   1.23235
 Alpha virt. eigenvalues --    1.23908   1.24362   1.24870   1.25260   1.25653
 Alpha virt. eigenvalues --    1.26259   1.26857   1.27060   1.27384   1.28042
 Alpha virt. eigenvalues --    1.28704   1.29039   1.29816   1.30007   1.30465
 Alpha virt. eigenvalues --    1.30705   1.31482   1.32465   1.33226   1.33773
 Alpha virt. eigenvalues --    1.34202   1.34875   1.35201   1.35432   1.35609
 Alpha virt. eigenvalues --    1.36609   1.36923   1.37684   1.38341   1.38533
 Alpha virt. eigenvalues --    1.38868   1.39380   1.40579   1.40796   1.41188
 Alpha virt. eigenvalues --    1.41663   1.42922   1.43208   1.43500   1.44055
 Alpha virt. eigenvalues --    1.44644   1.45237   1.45320   1.46366   1.46606
 Alpha virt. eigenvalues --    1.47273   1.48150   1.48829   1.49399   1.49727
 Alpha virt. eigenvalues --    1.51123   1.51767   1.51850   1.52902   1.53380
 Alpha virt. eigenvalues --    1.53652   1.54561   1.54813   1.55194   1.55929
 Alpha virt. eigenvalues --    1.57025   1.57492   1.57604   1.58419   1.59525
 Alpha virt. eigenvalues --    1.59574   1.59885   1.60394   1.60757   1.61060
 Alpha virt. eigenvalues --    1.61613   1.62296   1.62993   1.63076   1.63467
 Alpha virt. eigenvalues --    1.63824   1.64336   1.64697   1.64809   1.64971
 Alpha virt. eigenvalues --    1.65270   1.65710   1.66173   1.66427   1.66783
 Alpha virt. eigenvalues --    1.66856   1.67137   1.67388   1.67631   1.68207
 Alpha virt. eigenvalues --    1.68413   1.68733   1.69011   1.69202   1.69592
 Alpha virt. eigenvalues --    1.70139   1.70367   1.71063   1.71585   1.71750
 Alpha virt. eigenvalues --    1.71840   1.72475   1.72784   1.72945   1.73465
 Alpha virt. eigenvalues --    1.73523   1.73912   1.74137   1.74672   1.75151
 Alpha virt. eigenvalues --    1.75442   1.75734   1.75934   1.76288   1.76433
 Alpha virt. eigenvalues --    1.76610   1.76945   1.77247   1.77549   1.77702
 Alpha virt. eigenvalues --    1.78176   1.78457   1.78689   1.79219   1.79681
 Alpha virt. eigenvalues --    1.79802   1.80137   1.80242   1.80731   1.80908
 Alpha virt. eigenvalues --    1.81161   1.81765   1.82247   1.82489   1.82889
 Alpha virt. eigenvalues --    1.82931   1.83296   1.84032   1.84127   1.84542
 Alpha virt. eigenvalues --    1.84908   1.85211   1.85379   1.85791   1.86127
 Alpha virt. eigenvalues --    1.86606   1.87195   1.87301   1.87858   1.88054
 Alpha virt. eigenvalues --    1.88175   1.88467   1.88827   1.89130   1.89395
 Alpha virt. eigenvalues --    1.90074   1.90426   1.90743   1.91209   1.92138
 Alpha virt. eigenvalues --    1.92378   1.93011   1.93464   1.93904   1.94227
 Alpha virt. eigenvalues --    1.94404   1.94614   1.94890   1.95203   1.95957
 Alpha virt. eigenvalues --    1.96251   1.96517   1.97013   1.97944   1.98158
 Alpha virt. eigenvalues --    1.98635   1.98843   1.99142   1.99603   1.99778
 Alpha virt. eigenvalues --    2.00354   2.00753   2.01036   2.01690   2.01824
 Alpha virt. eigenvalues --    2.02127   2.02489   2.02789   2.03205   2.03711
 Alpha virt. eigenvalues --    2.03855   2.04337   2.04639   2.04923   2.05521
 Alpha virt. eigenvalues --    2.05901   2.06087   2.06516   2.06913   2.07249
 Alpha virt. eigenvalues --    2.07519   2.08253   2.08654   2.08936   2.09190
 Alpha virt. eigenvalues --    2.09741   2.10574   2.10807   2.11089   2.11666
 Alpha virt. eigenvalues --    2.11842   2.12151   2.12481   2.12600   2.13541
 Alpha virt. eigenvalues --    2.13613   2.14211   2.14618   2.15699   2.16019
 Alpha virt. eigenvalues --    2.16605   2.16812   2.17238   2.17426   2.18119
 Alpha virt. eigenvalues --    2.18816   2.18966   2.19789   2.20004   2.20635
 Alpha virt. eigenvalues --    2.21190   2.21820   2.22270   2.23053   2.23504
 Alpha virt. eigenvalues --    2.24765   2.24952   2.25674   2.26112   2.26606
 Alpha virt. eigenvalues --    2.27233   2.27629   2.28731   2.29629   2.29998
 Alpha virt. eigenvalues --    2.30560   2.30993   2.31844   2.32314   2.33215
 Alpha virt. eigenvalues --    2.33666   2.34222   2.34319   2.35448   2.36239
 Alpha virt. eigenvalues --    2.36458   2.37809   2.39109   2.39921   2.40580
 Alpha virt. eigenvalues --    2.40960   2.41213   2.41453   2.41664   2.42428
 Alpha virt. eigenvalues --    2.42914   2.43354   2.43437   2.43991   2.44833
 Alpha virt. eigenvalues --    2.45166   2.45651   2.45682   2.46827   2.47871
 Alpha virt. eigenvalues --    2.47987   2.49030   2.49189   2.50498   2.51125
 Alpha virt. eigenvalues --    2.52353   2.52689   2.54101   2.54407   2.54637
 Alpha virt. eigenvalues --    2.55279   2.56000   2.58855   2.59840   2.60153
 Alpha virt. eigenvalues --    2.60433   2.61176   2.61318   2.61782   2.62075
 Alpha virt. eigenvalues --    2.62610   2.63197   2.63327   2.63709   2.64175
 Alpha virt. eigenvalues --    2.64564   2.65321   2.65712   2.65887   2.66692
 Alpha virt. eigenvalues --    2.66996   2.67237   2.67476   2.68383   2.68609
 Alpha virt. eigenvalues --    2.69153   2.69745   2.70185   2.70726   2.70934
 Alpha virt. eigenvalues --    2.71246   2.71951   2.72474   2.72945   2.73392
 Alpha virt. eigenvalues --    2.73832   2.74153   2.74673   2.74914   2.76059
 Alpha virt. eigenvalues --    2.76295   2.76426   2.76938   2.76962   2.77713
 Alpha virt. eigenvalues --    2.78194   2.78569   2.79476   2.79624   2.80442
 Alpha virt. eigenvalues --    2.80788   2.81354   2.81887   2.82819   2.83405
 Alpha virt. eigenvalues --    2.83583   2.84473   2.85193   2.85655   2.86011
 Alpha virt. eigenvalues --    2.86890   2.87100   2.87748   2.87943   2.88185
 Alpha virt. eigenvalues --    2.88795   2.89184   2.89782   2.90055   2.90272
 Alpha virt. eigenvalues --    2.91198   2.91773   2.92141   2.92373   2.92926
 Alpha virt. eigenvalues --    2.93287   2.93932   2.94485   2.94689   2.94990
 Alpha virt. eigenvalues --    2.95196   2.95504   2.96191   2.96256   2.96570
 Alpha virt. eigenvalues --    2.97116   2.97716   2.98351   2.98537   2.98985
 Alpha virt. eigenvalues --    2.99279   2.99862   3.00325   3.00425   3.01120
 Alpha virt. eigenvalues --    3.01207   3.01742   3.02384   3.02610   3.03509
 Alpha virt. eigenvalues --    3.03639   3.03947   3.04370   3.04818   3.05546
 Alpha virt. eigenvalues --    3.05610   3.06203   3.06922   3.07070   3.07314
 Alpha virt. eigenvalues --    3.07743   3.08316   3.08760   3.09089   3.09742
 Alpha virt. eigenvalues --    3.10534   3.11085   3.11347   3.11649   3.12563
 Alpha virt. eigenvalues --    3.13643   3.14008   3.14363   3.15717   3.16360
 Alpha virt. eigenvalues --    3.16486   3.17593   3.18077   3.19170   3.19381
 Alpha virt. eigenvalues --    3.19939   3.20411   3.21367   3.21791   3.22268
 Alpha virt. eigenvalues --    3.22742   3.23884   3.25474   3.25849   3.26229
 Alpha virt. eigenvalues --    3.26494   3.27008   3.28046   3.28858   3.29287
 Alpha virt. eigenvalues --    3.30259   3.30765   3.31350   3.31764   3.33360
 Alpha virt. eigenvalues --    3.33654   3.34413   3.34942   3.35650   3.36702
 Alpha virt. eigenvalues --    3.37046   3.38453   3.39360   3.39620   3.40805
 Alpha virt. eigenvalues --    3.42192   3.43592   3.43971   3.44635   3.45981
 Alpha virt. eigenvalues --    3.47506   3.48142   3.49376   3.50779   3.51114
 Alpha virt. eigenvalues --    3.51733   3.52555   3.53349   3.54160   3.55275
 Alpha virt. eigenvalues --    3.57166   3.60411   3.63911   3.65442   3.66703
 Alpha virt. eigenvalues --    3.67529   3.69263   3.70968   3.72161   3.74468
 Alpha virt. eigenvalues --    3.75242   3.76449   3.78063   3.78598   3.79139
 Alpha virt. eigenvalues --    3.82013   3.87055   3.88221   3.88740   3.90522
 Alpha virt. eigenvalues --    3.90855   3.92011   3.92851   3.93474   3.94488
 Alpha virt. eigenvalues --    3.95023   3.95417   3.96156   3.96287   3.98023
 Alpha virt. eigenvalues --    3.99008   3.99150   3.99590   4.00736   4.01328
 Alpha virt. eigenvalues --    4.04152   4.05066   4.06408   4.09976   4.12017
 Alpha virt. eigenvalues --    4.12786   4.15278   4.15807   4.15934   4.17998
 Alpha virt. eigenvalues --    4.20538   4.21568   4.24128   4.25601   4.26172
 Alpha virt. eigenvalues --    4.26212   4.28737   4.29828   4.30992   4.31513
 Alpha virt. eigenvalues --    4.32160   4.33721   4.35023   4.35653   4.39941
 Alpha virt. eigenvalues --    4.40201   4.43734   4.44445   4.47287   4.49819
 Alpha virt. eigenvalues --    4.51718   4.54911   4.68679   4.89767   4.95993
 Alpha virt. eigenvalues --    4.96616   5.00990   5.35684   5.38075   5.41636
 Alpha virt. eigenvalues --    5.43816   5.44030   5.44957   5.53307   5.54902
 Alpha virt. eigenvalues --    5.58990   5.61284   5.64554   5.67646   5.69931
 Alpha virt. eigenvalues --    5.72934   5.77182   5.79948   5.81994   5.89175
 Alpha virt. eigenvalues --    7.70784  14.36328  14.40028  14.52100  14.97102
 Alpha virt. eigenvalues --   23.79844  23.85189  23.93192  23.98478  24.01990
 Alpha virt. eigenvalues --   24.02900  24.03198  24.05106  24.06241  24.06503
 Alpha virt. eigenvalues --   24.10442  24.10861  24.12084  24.12812  24.13152
 Alpha virt. eigenvalues --   24.13510  24.14218  24.14308  24.15147  24.15945
 Alpha virt. eigenvalues --   24.16646  24.17700  24.18514  24.20170  24.21448
 Alpha virt. eigenvalues --   24.21982  24.22559  24.23785  24.24418  24.33046
 Alpha virt. eigenvalues --   24.33470  35.77312  50.15460  50.16664  50.18994
 Alpha virt. eigenvalues --   50.22513  50.23724  50.24671 163.96150
          Condensed to atoms (all electrons):
 Mulliken charges:
               1
     1  C   -0.084053
     2  C    0.022392
     3  H    0.060863
     4  C   -0.613445
     5  H    0.239791
     6  H    0.190882
     7  H    0.218183
     8  C   -0.405301
     9  H    0.219320
    10  H    0.269732
    11  H    0.270442
    12  B    0.645391
    13  C   -0.852692
    14  H    0.146646
    15  H    0.192549
    16  H    0.300865
    17  O    0.087789
    18  O   -0.034277
    19  C    0.273718
    20  C   -0.647288
    21  C   -0.861429
    22  H    0.191096
    23  H    0.188559
    24  H    0.192287
    25  C   -0.528537
    26  H    0.201017
    27  H    0.075194
    28  H    0.232277
    29  C   -0.699575
    30  H    0.281748
    31  H    0.221639
    32  H    0.270601
    33  C   -0.557000
    34  H    0.255749
    35  H    0.049085
    36  H    0.180871
    37  P   -0.213634
    38  O   -0.019041
    39  O   -0.014380
    40  N   -0.356754
    41  H    0.411000
    42  H    0.397948
    43  Li  -0.558765
    44  C   -0.175149
    45  O    0.213304
    46  C   -0.087003
    47  C   -0.574971
    48  C   -0.387356
    49  H    0.193273
    50  H    0.228322
    51  H   -0.104253
    52  H    0.234456
    53  H    0.219072
    54  H    0.248524
    55  H    0.113121
    56  H    0.270958
    57  C    0.227695
    58  O    0.129321
    59  C    0.095647
    60  C   -0.580612
    61  C   -1.062337
    62  H    0.171127
    63  H    0.046674
    64  H    0.144503
    65  H    0.241592
    66  H    0.167955
    67  H    0.256799
    68  H    0.241681
    69  H    0.191915
    70  C    0.632912
    71  C    0.162310
    72  C   -0.223708
    73  C   -0.205810
    74  H   -0.596487
    75  C   -0.718374
    76  H    0.305298
    77  C   -0.446279
    78  H    0.277402
    79  H    0.269739
    80  H    0.265632
    81  C    0.347797
    82  C   -0.136802
    83  C   -0.291216
    84  C   -0.487314
    85  H    0.298447
    86  C   -0.413068
    87  H    0.275308
    88  C   -0.624852
    89  H    0.275602
    90  H    0.274410
    91  H    0.253333
 Sum of Mulliken charges =  -0.00000
 Mulliken charges with hydrogens summed into heavy atoms:
               1
     1  C   -0.084053
     2  C    0.083255
     4  C    0.035412
     8  C    0.354193
    12  B    0.645391
    13  C   -0.212632
    17  O    0.087789
    18  O   -0.034277
    19  C    0.273718
    20  C   -0.647288
    21  C   -0.289487
    25  C   -0.020050
    29  C    0.074413
    33  C   -0.071295
    37  P   -0.213634
    38  O   -0.019041
    39  O   -0.014380
    40  N    0.452195
    43  Li  -0.558765
    44  C    0.246446
    45  O    0.213304
    46  C    0.043199
    47  C   -0.107375
    48  C   -0.003276
    57  C    0.445495
    58  O    0.129321
    59  C    0.481742
    60  C   -0.155858
    61  C   -0.628741
    70  C    0.632912
    71  C   -0.434176
    72  C    0.081590
    73  C    0.071592
    75  C   -0.448635
    77  C   -0.180647
    81  C    0.347797
    82  C    0.161645
    83  C   -0.015908
    84  C   -0.211711
    86  C   -0.138658
    88  C   -0.371520
 Electronic spatial extent (au):  <R**2>=          20040.5599
 Charge=              0.0000 electrons
 Dipole moment (field-independent basis, Debye):
    X=             -2.3873    Y=             -7.2927    Z=             -6.3176  Tot=              9.9396
 Quadrupole moment (field-independent basis, Debye-Ang):
   XX=           -259.3900   YY=           -238.6773   ZZ=           -223.2932
   XY=              7.6770   XZ=             -8.9852   YZ=            -18.9972
 Traceless Quadrupole moment (field-independent basis, Debye-Ang):
   XX=            -18.9365   YY=              1.7762   ZZ=             17.1603
   XY=              7.6770   XZ=             -8.9852   YZ=            -18.9972
 Octapole moment (field-independent basis, Debye-Ang**2):
  XXX=             71.3283  YYY=            -47.2501  ZZZ=             -3.4014  XYY=              4.5724
  XXY=            -41.0038  XXZ=            -32.9530  XZZ=             18.6211  YZZ=            -72.9296
  YYZ=            -30.7354  XYZ=              0.0710
 Hexadecapole moment (field-independent basis, Debye-Ang**3):
 XXXX=         -14197.5701 YYYY=          -6013.0078 ZZZZ=          -6808.4337 XXXY=           -687.2835
 XXXZ=            -46.2990 YYYX=           -998.3602 YYYZ=            754.2413 ZZZX=           -182.7207
 ZZZY=            779.3243 XXYY=          -3068.2060 XXZZ=          -3289.1138 YYZZ=          -2169.0463
 XXYZ=            130.8093 YYXZ=            -89.4754 ZZXY=           -294.1945
 N-N= 5.722611007136D+03 E-N=-1.633964267057D+04  KE= 2.083093305063D+03
 Unable to Open any file for archive entry.
 1\1\GINC-NODE02\SP\RwB97XD\6-311++G(d,p)\C31H50B1Li1N1O6P1\WHUGHES2\08
 -Oct-2025\0\\# wb97xd/6-311++g** nosymm int=ultrafine scrf=(smd,solven
 t=tetrahydrofuran)\\openTS-phos-full-unfrz-c11_tzpop-sp\\0,1\C,0,-2.37
 53,-1.1575,2.3167\C,0,-0.9897,-1.6678,2.166\H,0,-0.4107,-1.0287,1.4941
 \C,0,-0.1865,-1.9932,3.4105\H,0,0.0126,-1.0791,3.9795\H,0,-0.7054,-2.7
 027,4.0651\H,0,0.7738,-2.4312,3.1217\C,0,-3.1126,-1.4338,3.5723\H,0,-4
 .1589,-1.1304,3.506\H,0,-3.055,-2.5015,3.8215\H,0,-2.6248,-0.9085,4.40
 62\B,0,-3.0021,-0.1883,1.2128\C,0,-2.4049,1.2171,1.8692\H,0,-2.815,2.0
 028,1.2197\H,0,-2.7603,1.4227,2.8873\H,0,-1.3128,1.2979,1.8569\O,0,-2.
 5264,-0.4835,-0.1672\O,0,-4.4543,-0.1457,1.1273\C,0,-4.8445,-0.8977,-0
 .0073\C,0,-3.6735,-0.6363,-1.02\C,0,-6.2028,-0.3984,-0.4909\H,0,-6.970
 2,-0.6407,0.2533\H,0,-6.2023,0.6857,-0.6322\H,0,-6.4862,-0.876,-1.4366
 \C,0,-4.9794,-2.3778,0.3843\H,0,-5.3663,-2.986,-0.441\H,0,-4.0265,-2.8
 099,0.7052\H,0,-5.681,-2.4545,1.2223\C,0,-3.8544,0.6655,-1.8034\H,0,-2
 .937,0.8863,-2.3585\H,0,-4.6789,0.5952,-2.5219\H,0,-4.0473,1.5069,-1.1
 298\C,0,-3.4352,-1.7857,-1.9926\H,0,-4.3426,-1.9919,-2.573\H,0,-2.6345
 ,-1.5238,-2.6894\H,0,-3.1459,-2.7029,-1.4708\P,0,1.7391,1.0557,1.0069\
 O,0,0.5756,0.3864,0.2781\O,0,1.489,2.2209,1.9346\N,0,-1.3545,-2.8826,1
 .4108\H,0,-1.7651,-2.6527,0.5079\H,0,-1.9561,-3.5243,1.9217\Li,0,-0.88
 01,0.4041,-0.8788\C,0,-0.0984,-0.9721,-3.756\O,0,-0.2772,-0.8561,-2.34
 96\C,0,0.2182,-2.0704,-1.7827\C,0,1.4327,-2.4655,-2.6421\C,0,1.2882,-1
 .5963,-3.9138\H,0,-0.878,-1.6289,-4.1721\H,0,-0.2035,0.0215,-4.1957\H,
 0,0.4532,-1.8623,-0.7376\H,0,-0.5699,-2.8346,-1.8344\H,0,2.372,-2.2517
 ,-2.1237\H,0,1.4149,-3.5346,-2.8713\H,0,2.0514,-0.8122,-3.9357\H,0,1.3
 712,-2.1764,-4.837\C,0,-1.0346,3.3108,-0.7796\O,0,-0.9326,2.2247,-1.71
 87\C,0,0.0556,2.525,-2.7175\C,0,0.7486,3.8037,-2.2593\C,0,-0.3537,4.49
 53,-1.4526\H,0,-2.0956,3.4731,-0.5708\H,0,-0.5212,3.0244,0.1459\H,0,0.
 7365,1.674,-2.7951\H,0,-0.4593,2.6625,-3.6773\H,0,1.5991,3.5637,-1.612
 2\H,0,1.1097,4.3999,-3.102\H,0,0.033,5.2128,-0.7238\H,0,-1.0528,5.0146
 ,-2.1187\C,0,2.9504,1.535,-0.2804\C,0,2.953,0.8861,-1.5189\C,0,3.885,2
 .5478,-0.0432\C,0,3.8683,1.2436,-2.507\H,0,2.2114,0.1152,-1.71\C,0,4.8
 009,2.9113,-1.0297\H,0,3.8833,3.0625,0.9144\C,0,4.7933,2.2595,-2.2636\
 H,0,3.8573,0.7359,-3.4686\H,0,5.5179,3.7056,-0.8385\H,0,5.5055,2.5437,
 -3.034\C,0,2.5956,-0.2822,1.9237\C,0,2.8445,-1.5153,1.3088\C,0,2.9954,
 -0.0949,3.2485\C,0,3.4777,-2.542,2.0045\H,0,2.5353,-1.6756,0.2784\C,0,
 3.6236,-1.1234,3.9529\H,0,2.8013,0.8605,3.7292\C,0,3.8662,-2.3476,3.33
 18\H,0,3.6635,-3.4952,1.5158\H,0,3.9236,-0.9681,4.9862\H,0,4.3566,-3.1
 49,3.8783\\Version=AS64L-G16RevC.01\HF=-2091.4456384\RMSD=3.371e-09\Di
 pole=-0.9392382,-2.8691858,-2.4855223\Quadrupole=-14.0788179,1.3205874
 ,12.7582304,5.7076823,-6.6802904,-14.1239615\PG=C01 [X(C31H50B1Li1N1O6
 P1)]\\@
 The archive entry for this job was punched.



 IN THIS SHORT LIFE

 THAT ONLY LASTS AN HOUR

 HOW MUCH, HOW LITTLE, IS WITHIN OUR POWER....


 EMILY DICKINSON BOLTS OF MELODY NO. 521
 Job cpu time:       0 days 10 hours 26 minutes 11.7 seconds.
 Elapsed time:       0 days  2 hours 37 minutes 52.7 seconds.
 File lengths (MBytes):  RWF=   1359 Int=      0 D2E=      0 Chk=     95 Scr=      1
 Normal termination of Gaussian 16 at Wed Oct  8 18:05:38 2025.
