Job Start Time: Wed Oct  8 15:27:45 MDT 2025
SLURM Job ID: 768188
SLURM Job Name: openTS-phos-full-unfrz-c8_tzpop-sp
 Entering Gaussian System, Link 0=/opt/apps/Gaussian/G16C/g16/g16
 Initial command:
 /opt/apps/Gaussian/G16C/g16/l1.exe "/tmp/768188/Gau-946016.inp" -scrdir="/tmp/768188/"
 Entering Link 1 = /opt/apps/Gaussian/G16C/g16/l1.exe PID=    946020.
  
 Copyright (c) 1988-2019, Gaussian, Inc.  All Rights Reserved.
  
 This is part of the Gaussian(R) 16 program.  It is based on
 the Gaussian(R) 09 system (copyright 2009, Gaussian, Inc.),
 the Gaussian(R) 03 system (copyright 2003, Gaussian, Inc.),
 the Gaussian(R) 98 system (copyright 1998, Gaussian, Inc.),
 the Gaussian(R) 94 system (copyright 1995, Gaussian, Inc.),
 the Gaussian 92(TM) system (copyright 1992, Gaussian, Inc.),
 the Gaussian 90(TM) system (copyright 1990, Gaussian, Inc.),
 the Gaussian 88(TM) system (copyright 1988, Gaussian, Inc.),
 the Gaussian 86(TM) system (copyright 1986, Carnegie Mellon
 University), and the Gaussian 82(TM) system (copyright 1983,
 Carnegie Mellon University). Gaussian is a federally registered
 trademark of Gaussian, Inc.
  
 This software contains proprietary and confidential information,
 including trade secrets, belonging to Gaussian, Inc.
  
 This software is provided under written license and may be
 used, copied, transmitted, or stored only in accord with that
 written license.
  
 The following legend is applicable only to US Government
 contracts under FAR:
  
                    RESTRICTED RIGHTS LEGEND
  
 Use, reproduction and disclosure by the US Government is
 subject to restrictions as set forth in subparagraphs (a)
 and (c) of the Commercial Computer Software - Restricted
 Rights clause in FAR 52.227-19.
  
 Gaussian, Inc.
 340 Quinnipiac St., Bldg. 40, Wallingford CT 06492
  
  
 ---------------------------------------------------------------
 Warning -- This program may not be used in any manner that
 competes with the business of Gaussian, Inc. or will provide
 assistance to any competitor of Gaussian, Inc.  The licensee
 of this program is prohibited from giving any competitor of
 Gaussian, Inc. access to this program.  By using this program,
 the user acknowledges that Gaussian, Inc. is engaged in the
 business of creating and licensing software in the field of
 computational chemistry and represents and warrants to the
 licensee that it is not a competitor of Gaussian, Inc. and that
 it will not use this program in any manner prohibited above.
 ---------------------------------------------------------------
  

 Cite this work as:
 Gaussian 16, Revision C.01,
 M. J. Frisch, G. W. Trucks, H. B. Schlegel, G. E. Scuseria, 
 M. A. Robb, J. R. Cheeseman, G. Scalmani, V. Barone, 
 G. A. Petersson, H. Nakatsuji, X. Li, M. Caricato, A. V. Marenich, 
 J. Bloino, B. G. Janesko, R. Gomperts, B. Mennucci, H. P. Hratchian, 
 J. V. Ortiz, A. F. Izmaylov, J. L. Sonnenberg, D. Williams-Young, 
 F. Ding, F. Lipparini, F. Egidi, J. Goings, B. Peng, A. Petrone, 
 T. Henderson, D. Ranasinghe, V. G. Zakrzewski, J. Gao, N. Rega, 
 G. Zheng, W. Liang, M. Hada, M. Ehara, K. Toyota, R. Fukuda, 
 J. Hasegawa, M. Ishida, T. Nakajima, Y. Honda, O. Kitao, H. Nakai, 
 T. Vreven, K. Throssell, J. A. Montgomery, Jr., J. E. Peralta, 
 F. Ogliaro, M. J. Bearpark, J. J. Heyd, E. N. Brothers, K. N. Kudin, 
 V. N. Staroverov, T. A. Keith, R. Kobayashi, J. Normand, 
 K. Raghavachari, A. P. Rendell, J. C. Burant, S. S. Iyengar, 
 J. Tomasi, M. Cossi, J. M. Millam, M. Klene, C. Adamo, R. Cammi, 
 J. W. Ochterski, R. L. Martin, K. Morokuma, O. Farkas, 
 J. B. Foresman, and D. J. Fox, Gaussian, Inc., Wallingford CT, 2019.
 
 ******************************************
 Gaussian 16:  AS64L-G16RevC.01  3-Jul-2019
                 8-Oct-2025 
 ******************************************
 %chk=openTS-phos-full-unfrz-c8_tzpop-sp.chk
 %nprocshared=4
 Will use up to    4 processors via shared memory.
 %mem=8GB
 ----------------------------------------------------------------------
 # wb97xd/6-311++g** nosymm int=ultrafine scrf=(smd,solvent=tetrahydrof
 uran)
 ----------------------------------------------------------------------
 1/38=1,172=1/1;
 2/12=2,15=1,17=6,18=5,40=1/2;
 3/5=4,6=6,7=1111,11=2,25=1,30=1,70=32201,72=20,74=-58,75=-5/1,2,3;
 4//1;
 5/5=2,38=5,53=20/2;
 6/7=2,8=2,9=2,10=2,28=1/1;
 99/5=1,9=1/99;
 ----------------------------------
 openTS-phos-full-unfrz-c8_tzpop-sp
 ----------------------------------
 Symbolic Z-matrix:
 Charge =  0 Multiplicity = 1
 C                    -2.8748   -0.4998    1.9112 
 C                    -2.0157    0.5722    2.4674 
 H                    -1.8648    1.359     1.724 
 C                    -2.3868    1.1934    3.8018 
 H                    -3.3431    1.7229    3.726 
 H                    -2.4699    0.4392    4.5913 
 H                    -1.6131    1.9084    4.0981 
 C                    -3.6237   -1.3643    2.8619 
 H                    -4.4295   -0.7783    3.327 
 H                    -4.0536   -2.2344    2.3626 
 H                    -2.9824   -1.692     3.6889 
 B                    -3.183    -0.6041    0.3633 
 C                    -4.4634    0.4889    0.4794 
 H                    -4.7942    0.5596   -0.5657 
 H                    -5.3149    0.1364    1.0729 
 H                    -4.1942    1.4977    0.8148 
 O                    -2.1147   -0.1736   -0.5618 
 O                    -3.649    -1.8931   -0.1161 
 C                    -2.6154   -2.4281   -0.9298 
 C                    -2.0533   -1.1482   -1.6242 
 C                    -3.2125   -3.4538   -1.8853 
 H                    -3.547    -4.3327   -1.3221 
 H                    -4.0761   -3.0468   -2.4186 
 H                    -2.4701   -3.7866   -2.6206 
 C                    -1.5655   -3.1071   -0.0394 
 H                    -0.7983   -3.6176   -0.6324 
 H                    -1.0651   -2.385     0.6129 
 H                    -2.0618   -3.8525    0.5923 
 C                    -2.947    -0.6864   -2.7778 
 H                    -2.872    -1.3674   -3.6334 
 H                    -3.9968   -0.6245   -2.475 
 H                    -2.6189    0.3013   -3.1075 
 C                    -0.6197   -1.2843   -2.1154 
 H                    -0.3276   -0.3861   -2.6697 
 H                     0.0779   -1.4066   -1.285 
 H                    -0.528    -2.1405   -2.7943 
 P                     2.3843    0.1296    0.6576 
 O                     0.9619    0.3942    0.157 
 O                     3.1377    1.2106    1.3952 
 N                    -0.7739   -0.2028    2.5363 
 H                    -0.8149   -1.066     3.0691 
 H                    -0.3052   -0.3244    1.6378 
 Li                   -0.5859    1.1768   -0.4913 
 C                     0.0633    3.115     1.8718 
 O                    -0.3801    3.067     0.4987 
 C                     0.501     3.8593   -0.311 
 C                     1.1523    4.8468    0.6445 
 C                     1.3162    3.9884    1.9 
 H                    -0.7552    3.5421    2.4642 
 H                     0.2697    2.0969    2.2113 
 H                     1.2492    3.2044   -0.778 
 H                    -0.095     4.3364   -1.092 
 H                     2.101     5.2298    0.2574 
 H                     0.4819    5.6948    0.83 
 H                     2.2007    3.3495    1.8129 
 H                     1.3848    4.5762    2.8202 
 C                    -0.2016    2.4198   -3.3906 
 O                    -0.9631    2.0881   -2.2344 
 C                    -2.2085    2.787    -2.3208 
 C                    -2.4942    2.9712   -3.8251 
 C                    -1.2263    2.431    -4.5192 
 H                     0.2639    3.408    -3.2595 
 H                     0.5859    1.6705   -3.4995 
 H                    -2.95      2.1811   -1.7947 
 H                    -2.1158    3.7531   -1.8082 
 H                    -3.3874    2.4222   -4.1358 
 H                    -2.6536    4.0282   -4.0564 
 H                    -1.3874    1.4111   -4.8834 
 H                    -0.9069    3.0503   -5.3618 
 C                     3.3526   -0.4259   -0.7958 
 C                     2.8483   -0.2636   -2.0883 
 C                     4.6243   -0.988    -0.6314 
 C                     3.5975   -0.6505   -3.1998 
 H                     1.8591    0.1653   -2.2178 
 C                     5.3733   -1.383    -1.7376 
 H                     5.0317   -1.1227    0.3686 
 C                     4.8609   -1.2131   -3.0254 
 H                     3.1928   -0.5171   -4.2001 
 H                     6.3576   -1.8221   -1.5969 
 H                     5.4456   -1.52     -3.8887 
 C                     2.2638   -1.3603    1.7202 
 C                     1.7728   -2.5647    1.2039 
 C                     2.5778   -1.2839    3.0792 
 C                     1.5881   -3.6702    2.0308 
 H                     1.5268   -2.6391    0.1468 
 C                     2.3927   -2.3879    3.9125 
 H                     2.9605   -0.3497    3.4817 
 C                     1.8952   -3.5813    3.39 
 H                     1.2014   -4.5983    1.6175 
 H                     2.6368   -2.3159    4.9694 
 H                     1.7503   -4.4419    4.0381 
 
 Symmetry turned off by external request.
 Stoichiometry    C31H50BLiNO6P
 Framework group  C1[X(C31H50BLiNO6P)]
 Deg. of freedom   267
 Full point group                 C1      NOp   1
                          Input orientation:                          
 ---------------------------------------------------------------------
 Center     Atomic      Atomic             Coordinates (Angstroms)
 Number     Number       Type             X           Y           Z
 ---------------------------------------------------------------------
      1          6           0       -2.874800   -0.499800    1.911200
      2          6           0       -2.015700    0.572200    2.467400
      3          1           0       -1.864800    1.359000    1.724000
      4          6           0       -2.386800    1.193400    3.801800
      5          1           0       -3.343100    1.722900    3.726000
      6          1           0       -2.469900    0.439200    4.591300
      7          1           0       -1.613100    1.908400    4.098100
      8          6           0       -3.623700   -1.364300    2.861900
      9          1           0       -4.429500   -0.778300    3.327000
     10          1           0       -4.053600   -2.234400    2.362600
     11          1           0       -2.982400   -1.692000    3.688900
     12          5           0       -3.183000   -0.604100    0.363300
     13          6           0       -4.463400    0.488900    0.479400
     14          1           0       -4.794200    0.559600   -0.565700
     15          1           0       -5.314900    0.136400    1.072900
     16          1           0       -4.194200    1.497700    0.814800
     17          8           0       -2.114700   -0.173600   -0.561800
     18          8           0       -3.649000   -1.893100   -0.116100
     19          6           0       -2.615400   -2.428100   -0.929800
     20          6           0       -2.053300   -1.148200   -1.624200
     21          6           0       -3.212500   -3.453800   -1.885300
     22          1           0       -3.547000   -4.332700   -1.322100
     23          1           0       -4.076100   -3.046800   -2.418600
     24          1           0       -2.470100   -3.786600   -2.620600
     25          6           0       -1.565500   -3.107100   -0.039400
     26          1           0       -0.798300   -3.617600   -0.632400
     27          1           0       -1.065100   -2.385000    0.612900
     28          1           0       -2.061800   -3.852500    0.592300
     29          6           0       -2.947000   -0.686400   -2.777800
     30          1           0       -2.872000   -1.367400   -3.633400
     31          1           0       -3.996800   -0.624500   -2.475000
     32          1           0       -2.618900    0.301300   -3.107500
     33          6           0       -0.619700   -1.284300   -2.115400
     34          1           0       -0.327600   -0.386100   -2.669700
     35          1           0        0.077900   -1.406600   -1.285000
     36          1           0       -0.528000   -2.140500   -2.794300
     37         15           0        2.384300    0.129600    0.657600
     38          8           0        0.961900    0.394200    0.157000
     39          8           0        3.137700    1.210600    1.395200
     40          7           0       -0.773900   -0.202800    2.536300
     41          1           0       -0.814900   -1.066000    3.069100
     42          1           0       -0.305200   -0.324400    1.637800
     43          3           0       -0.585900    1.176800   -0.491300
     44          6           0        0.063300    3.115000    1.871800
     45          8           0       -0.380100    3.067000    0.498700
     46          6           0        0.501000    3.859300   -0.311000
     47          6           0        1.152300    4.846800    0.644500
     48          6           0        1.316200    3.988400    1.900000
     49          1           0       -0.755200    3.542100    2.464200
     50          1           0        0.269700    2.096900    2.211300
     51          1           0        1.249200    3.204400   -0.778000
     52          1           0       -0.095000    4.336400   -1.092000
     53          1           0        2.101000    5.229800    0.257400
     54          1           0        0.481900    5.694800    0.830000
     55          1           0        2.200700    3.349500    1.812900
     56          1           0        1.384800    4.576200    2.820200
     57          6           0       -0.201600    2.419800   -3.390600
     58          8           0       -0.963100    2.088100   -2.234400
     59          6           0       -2.208500    2.787000   -2.320800
     60          6           0       -2.494200    2.971200   -3.825100
     61          6           0       -1.226300    2.431000   -4.519200
     62          1           0        0.263900    3.408000   -3.259500
     63          1           0        0.585900    1.670500   -3.499500
     64          1           0       -2.950000    2.181100   -1.794700
     65          1           0       -2.115800    3.753100   -1.808200
     66          1           0       -3.387400    2.422200   -4.135800
     67          1           0       -2.653600    4.028200   -4.056400
     68          1           0       -1.387400    1.411100   -4.883400
     69          1           0       -0.906900    3.050300   -5.361800
     70          6           0        3.352600   -0.425900   -0.795800
     71          6           0        2.848300   -0.263600   -2.088300
     72          6           0        4.624300   -0.988000   -0.631400
     73          6           0        3.597500   -0.650500   -3.199800
     74          1           0        1.859100    0.165300   -2.217800
     75          6           0        5.373300   -1.383000   -1.737600
     76          1           0        5.031700   -1.122700    0.368600
     77          6           0        4.860900   -1.213100   -3.025400
     78          1           0        3.192800   -0.517100   -4.200100
     79          1           0        6.357600   -1.822100   -1.596900
     80          1           0        5.445600   -1.520000   -3.888700
     81          6           0        2.263800   -1.360300    1.720200
     82          6           0        1.772800   -2.564700    1.203900
     83          6           0        2.577800   -1.283900    3.079200
     84          6           0        1.588100   -3.670200    2.030800
     85          1           0        1.526800   -2.639100    0.146800
     86          6           0        2.392700   -2.387900    3.912500
     87          1           0        2.960500   -0.349700    3.481700
     88          6           0        1.895200   -3.581300    3.390000
     89          1           0        1.201400   -4.598300    1.617500
     90          1           0        2.636800   -2.315900    4.969400
     91          1           0        1.750300   -4.441900    4.038100
 ---------------------------------------------------------------------
 Rotational constants (GHZ):           0.0910284           0.0793382           0.0698015
 Standard basis: 6-311++G(d,p) (5D, 7F)
  1260 basis functions,  1940 primitive gaussians,  1301 cartesian basis functions
   157 alpha electrons      157 beta electrons
       nuclear repulsion energy      5709.2608471278 Hartrees.
 NAtoms=   91 NActive=   91 NUniq=   91 SFac= 1.00D+00 NAtFMM=   60 NAOKFM=T Big=T
 Integral buffers will be    131072 words long.
 Raffenetti 2 integral format.
 Two-electron integral symmetry is turned off.
 Nuclear repulsion after empirical dispersion term =     5709.1441656449 Hartrees.
 ------------------------------------------------------------------------------
 Polarizable Continuum Model (PCM)
 =================================
 Model                : PCM.
 Atomic radii         : SMD-Coulomb.
 Polarization charges : Total charges.
 Charge compensation  : None.
 Solution method      : On-the-fly selection.
 Cavity type          : VdW (van der Waals Surface) (Alpha=1.000).
 Cavity algorithm     : GePol (No added spheres)
                        Default sphere list used, NSphG=   91.
                        Lebedev-Laikov grids with approx.  5.0 points / Ang**2.
                        Smoothing algorithm: York/Karplus (Gamma=1.0000).
                        Polarization charges: spherical gaussians, with
                                              point-specific exponents (IZeta= 3).
                        Self-potential: point-specific (ISelfS= 7).
                        Self-field    : sphere-specific E.n sum rule (ISelfD= 2).
 Solvent              : TetraHydroFuran, Eps=   7.425700 Eps(inf)=   1.974025
 ------------------------------------------------------------------------------
 ------------------------------------------------------------------------------
 Atomic radii for non-electrostatic terms: SMD-CDS.
 ------------------------------------------------------------------------------
 Nuclear repulsion after PCM non-electrostatic terms =     5709.1344804365 Hartrees.
 One-electron integrals computed using PRISM.
 NBasis=  1260 RedAO= T EigKep=  1.01D-06  NBF=  1260
 NBsUse=  1251 1.00D-06 EigRej=  9.40D-07 NBFU=  1251
 ExpMin= 7.40D-03 ExpMax= 7.75D+04 ExpMxC= 2.65D+03 IAcc=3 IRadAn=         5 AccDes= 0.00D+00
 Harris functional with IExCor= 4639 and IRadAn=       5 diagonalized for initial guess.
 HarFok:  IExCor= 4639 AccDes= 0.00D+00 IRadAn=         5 IDoV= 1 UseB2=F ITyADJ=14
 ICtDFT=  3500011 ScaDFX=  1.000000  1.000000  1.000000  1.000000
 FoFCou: FMM=F IPFlag=           0 FMFlag=      100000 FMFlg1=        2001
         NFxFlg=           0 DoJE=T BraDBF=F KetDBF=T FulRan=T
         wScrn=  0.000000 ICntrl=       500 IOpCl=  0 I1Cent=   200000004 NGrid=           0
         NMat0=    1 NMatS0=      1 NMatT0=    0 NMatD0=    1 NMtDS0=    0 NMtDT0=    0
 Symmetry not used in FoFCou.
 Requested convergence on RMS density matrix=1.00D-08 within 128 cycles.
 Requested convergence on MAX density matrix=1.00D-06.
 Requested convergence on             energy=1.00D-06.
 No special actions if energy rises.
 Inv3:  Mode=1 IEnd=    92740800.
 Iteration    1 A*A^-1 deviation from unit magnitude is 4.88D-15 for   5553.
 Iteration    1 A*A^-1 deviation from orthogonality  is 2.60D-15 for   2368    446.
 Iteration    1 A^-1*A deviation from unit magnitude is 5.77D-15 for   5553.
 Iteration    1 A^-1*A deviation from orthogonality  is 1.30D-13 for   3343   3302.
 Error on total polarization charges =  0.07630
 SCF Done:  E(RwB97XD) =  -2091.43964764     A.U. after   17 cycles
            NFock= 17  Conv=0.60D-08     -V/T= 2.0040
 SMD-CDS (non-electrostatic) energy       (kcal/mol) =      -6.08
 (included in total energy above)

 **********************************************************************

            Population analysis using the SCF Density.

 **********************************************************************

 Alpha  occ. eigenvalues --  -77.26121 -19.26127 -19.24792 -19.21626 -19.19951
 Alpha  occ. eigenvalues --  -19.17817 -19.16407 -14.43247 -10.34014 -10.32791
 Alpha  occ. eigenvalues --  -10.32716 -10.32676 -10.32474 -10.32210 -10.31673
 Alpha  occ. eigenvalues --  -10.31159 -10.28802 -10.28739 -10.28731 -10.28690
 Alpha  occ. eigenvalues --  -10.28620 -10.28604 -10.28564 -10.28547 -10.28534
 Alpha  occ. eigenvalues --  -10.28479 -10.28355 -10.28214 -10.28134 -10.27941
 Alpha  occ. eigenvalues --  -10.27914 -10.27153 -10.27085 -10.26307 -10.25748
 Alpha  occ. eigenvalues --  -10.25517 -10.25486 -10.25459 -10.24782  -6.83802
 Alpha  occ. eigenvalues --   -6.70416  -4.85142  -4.85129  -4.85072  -1.99672
 Alpha  occ. eigenvalues --   -1.15427  -1.13333  -1.12439  -1.06638  -1.05596
 Alpha  occ. eigenvalues --   -1.01540  -1.00458  -0.95587  -0.95441  -0.89123
 Alpha  occ. eigenvalues --   -0.88012  -0.87796  -0.87381  -0.85071  -0.84361
 Alpha  occ. eigenvalues --   -0.84321  -0.84012  -0.83886  -0.83096  -0.82960
 Alpha  occ. eigenvalues --   -0.82587  -0.78702  -0.77934  -0.76090  -0.74520
 Alpha  occ. eigenvalues --   -0.71330  -0.69639  -0.69462  -0.69393  -0.69231
 Alpha  occ. eigenvalues --   -0.68727  -0.68627  -0.67947  -0.67501  -0.65208
 Alpha  occ. eigenvalues --   -0.63475  -0.62065  -0.61902  -0.60665  -0.60029
 Alpha  occ. eigenvalues --   -0.59187  -0.59145  -0.58399  -0.57940  -0.57114
 Alpha  occ. eigenvalues --   -0.55979  -0.54594  -0.54149  -0.54049  -0.53894
 Alpha  occ. eigenvalues --   -0.53600  -0.53384  -0.53044  -0.52513  -0.52419
 Alpha  occ. eigenvalues --   -0.51646  -0.51530  -0.50870  -0.50713  -0.50366
 Alpha  occ. eigenvalues --   -0.50236  -0.50107  -0.49921  -0.49766  -0.49276
 Alpha  occ. eigenvalues --   -0.48853  -0.48201  -0.47859  -0.47441  -0.46956
 Alpha  occ. eigenvalues --   -0.46872  -0.46621  -0.46161  -0.46020  -0.46000
 Alpha  occ. eigenvalues --   -0.45650  -0.45015  -0.44817  -0.44387  -0.43925
 Alpha  occ. eigenvalues --   -0.43770  -0.43494  -0.43178  -0.43032  -0.42819
 Alpha  occ. eigenvalues --   -0.42638  -0.42586  -0.42146  -0.41856  -0.41795
 Alpha  occ. eigenvalues --   -0.41676  -0.41564  -0.41422  -0.40542  -0.40415
 Alpha  occ. eigenvalues --   -0.39962  -0.39690  -0.39146  -0.36583  -0.36292
 Alpha  occ. eigenvalues --   -0.35994  -0.35115  -0.34319  -0.33922  -0.33362
 Alpha  occ. eigenvalues --   -0.33207  -0.33030  -0.32595  -0.32365  -0.32259
 Alpha  occ. eigenvalues --   -0.31176  -0.29945
 Alpha virt. eigenvalues --   -0.00158   0.02286   0.02479   0.02557   0.02786
 Alpha virt. eigenvalues --    0.04108   0.04982   0.05294   0.05390   0.05713
 Alpha virt. eigenvalues --    0.05777   0.05871   0.06090   0.06219   0.06840
 Alpha virt. eigenvalues --    0.07013   0.07137   0.07221   0.07280   0.07389
 Alpha virt. eigenvalues --    0.07532   0.07643   0.07860   0.07959   0.08273
 Alpha virt. eigenvalues --    0.08794   0.08874   0.09093   0.09284   0.09524
 Alpha virt. eigenvalues --    0.09646   0.10010   0.10194   0.10336   0.10757
 Alpha virt. eigenvalues --    0.10929   0.11217   0.11450   0.11868   0.12208
 Alpha virt. eigenvalues --    0.12311   0.12459   0.12847   0.12982   0.13171
 Alpha virt. eigenvalues --    0.13329   0.13410   0.13576   0.13863   0.14148
 Alpha virt. eigenvalues --    0.14397   0.14683   0.14898   0.14949   0.15290
 Alpha virt. eigenvalues --    0.15545   0.15745   0.16011   0.16246   0.16328
 Alpha virt. eigenvalues --    0.16453   0.16517   0.16702   0.16779   0.16964
 Alpha virt. eigenvalues --    0.17203   0.17357   0.17440   0.17558   0.17684
 Alpha virt. eigenvalues --    0.17836   0.18000   0.18171   0.18303   0.18418
 Alpha virt. eigenvalues --    0.18608   0.18636   0.18747   0.18785   0.18922
 Alpha virt. eigenvalues --    0.19057   0.19208   0.19345   0.19408   0.19591
 Alpha virt. eigenvalues --    0.19886   0.19955   0.20099   0.20177   0.20378
 Alpha virt. eigenvalues --    0.20427   0.20655   0.20849   0.20930   0.20999
 Alpha virt. eigenvalues --    0.21094   0.21246   0.21333   0.21449   0.21647
 Alpha virt. eigenvalues --    0.21834   0.21885   0.22071   0.22198   0.22406
 Alpha virt. eigenvalues --    0.22626   0.22638   0.22802   0.22831   0.22975
 Alpha virt. eigenvalues --    0.23062   0.23149   0.23399   0.23468   0.23741
 Alpha virt. eigenvalues --    0.23882   0.24002   0.24067   0.24154   0.24294
 Alpha virt. eigenvalues --    0.24402   0.24489   0.24542   0.24678   0.24751
 Alpha virt. eigenvalues --    0.24984   0.25085   0.25147   0.25329   0.25584
 Alpha virt. eigenvalues --    0.25812   0.25910   0.25965   0.26232   0.26260
 Alpha virt. eigenvalues --    0.26424   0.26578   0.26755   0.26808   0.26932
 Alpha virt. eigenvalues --    0.26994   0.27038   0.27271   0.27414   0.27715
 Alpha virt. eigenvalues --    0.27814   0.27940   0.28032   0.28077   0.28345
 Alpha virt. eigenvalues --    0.28497   0.28562   0.28618   0.28893   0.29083
 Alpha virt. eigenvalues --    0.29155   0.29335   0.29418   0.29833   0.29900
 Alpha virt. eigenvalues --    0.30066   0.30096   0.30163   0.30432   0.30533
 Alpha virt. eigenvalues --    0.30670   0.30897   0.30909   0.31162   0.31357
 Alpha virt. eigenvalues --    0.31570   0.31693   0.31952   0.31986   0.32252
 Alpha virt. eigenvalues --    0.32407   0.32587   0.32719   0.32799   0.33146
 Alpha virt. eigenvalues --    0.33355   0.33388   0.33554   0.33738   0.33955
 Alpha virt. eigenvalues --    0.34133   0.34308   0.34496   0.34744   0.34853
 Alpha virt. eigenvalues --    0.35001   0.35228   0.35366   0.35593   0.35729
 Alpha virt. eigenvalues --    0.35785   0.35869   0.36206   0.36355   0.36388
 Alpha virt. eigenvalues --    0.36643   0.36868   0.36939   0.37201   0.37293
 Alpha virt. eigenvalues --    0.37605   0.37659   0.37874   0.38137   0.38273
 Alpha virt. eigenvalues --    0.38336   0.38630   0.38907   0.38940   0.39141
 Alpha virt. eigenvalues --    0.39202   0.39386   0.39499   0.39675   0.39756
 Alpha virt. eigenvalues --    0.39935   0.40094   0.40151   0.40249   0.40444
 Alpha virt. eigenvalues --    0.40616   0.40767   0.40827   0.40968   0.41389
 Alpha virt. eigenvalues --    0.41524   0.41770   0.42060   0.42202   0.42296
 Alpha virt. eigenvalues --    0.42524   0.42839   0.42909   0.43249   0.43288
 Alpha virt. eigenvalues --    0.43405   0.43732   0.43790   0.44098   0.44348
 Alpha virt. eigenvalues --    0.44404   0.44655   0.44775   0.45079   0.45150
 Alpha virt. eigenvalues --    0.45404   0.45584   0.45784   0.45870   0.46012
 Alpha virt. eigenvalues --    0.46311   0.46511   0.46715   0.46861   0.47039
 Alpha virt. eigenvalues --    0.47321   0.47669   0.47737   0.47977   0.48018
 Alpha virt. eigenvalues --    0.48418   0.48686   0.49056   0.49277   0.49406
 Alpha virt. eigenvalues --    0.49766   0.50004   0.50339   0.50719   0.50976
 Alpha virt. eigenvalues --    0.51340   0.51596   0.51668   0.52250   0.52519
 Alpha virt. eigenvalues --    0.52754   0.53154   0.53358   0.53713   0.53876
 Alpha virt. eigenvalues --    0.54213   0.54507   0.55019   0.55078   0.55595
 Alpha virt. eigenvalues --    0.55917   0.56432   0.57036   0.57187   0.57330
 Alpha virt. eigenvalues --    0.57758   0.58256   0.58640   0.59063   0.59186
 Alpha virt. eigenvalues --    0.59410   0.60051   0.60197   0.60474   0.60735
 Alpha virt. eigenvalues --    0.61110   0.61544   0.61776   0.61967   0.62539
 Alpha virt. eigenvalues --    0.62933   0.63307   0.63870   0.64364   0.64408
 Alpha virt. eigenvalues --    0.64892   0.64968   0.65243   0.65585   0.65817
 Alpha virt. eigenvalues --    0.65908   0.66197   0.66334   0.66649   0.66774
 Alpha virt. eigenvalues --    0.67403   0.67757   0.67923   0.68432   0.68567
 Alpha virt. eigenvalues --    0.68701   0.69080   0.69322   0.69457   0.69508
 Alpha virt. eigenvalues --    0.69768   0.70148   0.70507   0.70817   0.70934
 Alpha virt. eigenvalues --    0.71015   0.71177   0.71824   0.72008   0.72151
 Alpha virt. eigenvalues --    0.72476   0.72976   0.73117   0.73301   0.73681
 Alpha virt. eigenvalues --    0.74234   0.74268   0.74716   0.74881   0.74981
 Alpha virt. eigenvalues --    0.75151   0.75668   0.75946   0.75951   0.76466
 Alpha virt. eigenvalues --    0.76692   0.76744   0.77106   0.77368   0.77763
 Alpha virt. eigenvalues --    0.77918   0.78050   0.78331   0.78748   0.78958
 Alpha virt. eigenvalues --    0.79059   0.79237   0.79659   0.79909   0.80071
 Alpha virt. eigenvalues --    0.80301   0.80474   0.80764   0.81450   0.81499
 Alpha virt. eigenvalues --    0.82019   0.82068   0.82273   0.82581   0.82658
 Alpha virt. eigenvalues --    0.82971   0.83243   0.83331   0.83748   0.84124
 Alpha virt. eigenvalues --    0.84613   0.84916   0.84993   0.85183   0.85409
 Alpha virt. eigenvalues --    0.85541   0.86043   0.86102   0.86449   0.86707
 Alpha virt. eigenvalues --    0.86920   0.87068   0.87140   0.87481   0.87669
 Alpha virt. eigenvalues --    0.87795   0.87916   0.88100   0.88586   0.88806
 Alpha virt. eigenvalues --    0.88982   0.89230   0.89333   0.89583   0.89793
 Alpha virt. eigenvalues --    0.90057   0.90360   0.90825   0.91129   0.91290
 Alpha virt. eigenvalues --    0.91404   0.91891   0.92004   0.92408   0.92567
 Alpha virt. eigenvalues --    0.92670   0.93038   0.93443   0.93719   0.94076
 Alpha virt. eigenvalues --    0.94332   0.94352   0.94744   0.94969   0.95100
 Alpha virt. eigenvalues --    0.95490   0.95693   0.96181   0.96343   0.96610
 Alpha virt. eigenvalues --    0.97214   0.97397   0.97524   0.97681   0.97985
 Alpha virt. eigenvalues --    0.98053   0.98411   0.98928   0.99275   0.99898
 Alpha virt. eigenvalues --    1.00207   1.00619   1.01013   1.01157   1.01470
 Alpha virt. eigenvalues --    1.02007   1.02749   1.03534   1.04164   1.04380
 Alpha virt. eigenvalues --    1.04628   1.05109   1.05660   1.05848   1.06361
 Alpha virt. eigenvalues --    1.07004   1.07628   1.08226   1.08668   1.09066
 Alpha virt. eigenvalues --    1.09304   1.10156   1.10357   1.11028   1.11356
 Alpha virt. eigenvalues --    1.12116   1.12376   1.13218   1.13421   1.13799
 Alpha virt. eigenvalues --    1.14642   1.15042   1.15121   1.16005   1.16354
 Alpha virt. eigenvalues --    1.16701   1.16980   1.17094   1.17944   1.18187
 Alpha virt. eigenvalues --    1.18686   1.19261   1.19541   1.20191   1.20452
 Alpha virt. eigenvalues --    1.20950   1.21220   1.22834   1.23008   1.23192
 Alpha virt. eigenvalues --    1.23847   1.23921   1.24440   1.25242   1.25587
 Alpha virt. eigenvalues --    1.26022   1.26190   1.26702   1.27130   1.27601
 Alpha virt. eigenvalues --    1.27827   1.28567   1.28904   1.29665   1.30430
 Alpha virt. eigenvalues --    1.31210   1.31353   1.31915   1.32121   1.32360
 Alpha virt. eigenvalues --    1.32873   1.33248   1.34200   1.34423   1.35091
 Alpha virt. eigenvalues --    1.35821   1.36735   1.37487   1.38038   1.38484
 Alpha virt. eigenvalues --    1.39056   1.39397   1.40227   1.40588   1.40893
 Alpha virt. eigenvalues --    1.42150   1.42271   1.42918   1.43567   1.44357
 Alpha virt. eigenvalues --    1.44720   1.45377   1.45648   1.46064   1.46707
 Alpha virt. eigenvalues --    1.47047   1.48033   1.48133   1.49098   1.49781
 Alpha virt. eigenvalues --    1.50709   1.51009   1.52083   1.52249   1.53188
 Alpha virt. eigenvalues --    1.53863   1.54064   1.54988   1.55511   1.55969
 Alpha virt. eigenvalues --    1.56639   1.56674   1.57147   1.57816   1.58090
 Alpha virt. eigenvalues --    1.58976   1.59537   1.60060   1.60526   1.61238
 Alpha virt. eigenvalues --    1.62105   1.62394   1.62639   1.62890   1.63231
 Alpha virt. eigenvalues --    1.63482   1.63858   1.63953   1.64619   1.65061
 Alpha virt. eigenvalues --    1.65415   1.65635   1.65697   1.66219   1.66286
 Alpha virt. eigenvalues --    1.66774   1.67357   1.67575   1.67715   1.67948
 Alpha virt. eigenvalues --    1.68186   1.68534   1.68683   1.69278   1.69434
 Alpha virt. eigenvalues --    1.69593   1.69961   1.70514   1.70769   1.70925
 Alpha virt. eigenvalues --    1.71506   1.71797   1.72098   1.72651   1.72685
 Alpha virt. eigenvalues --    1.73412   1.73536   1.73718   1.73895   1.75035
 Alpha virt. eigenvalues --    1.75275   1.75407   1.75823   1.75957   1.76109
 Alpha virt. eigenvalues --    1.76284   1.76714   1.77210   1.77371   1.77479
 Alpha virt. eigenvalues --    1.77916   1.78318   1.78484   1.78840   1.79018
 Alpha virt. eigenvalues --    1.79265   1.79636   1.80094   1.80487   1.80805
 Alpha virt. eigenvalues --    1.80938   1.81670   1.81898   1.82060   1.82626
 Alpha virt. eigenvalues --    1.83018   1.83164   1.83551   1.83769   1.84010
 Alpha virt. eigenvalues --    1.84214   1.84555   1.84796   1.85395   1.85637
 Alpha virt. eigenvalues --    1.86301   1.86536   1.86666   1.87101   1.87867
 Alpha virt. eigenvalues --    1.88373   1.88416   1.89032   1.89178   1.89873
 Alpha virt. eigenvalues --    1.90013   1.90459   1.90995   1.91230   1.91799
 Alpha virt. eigenvalues --    1.92081   1.92627   1.92845   1.93198   1.93495
 Alpha virt. eigenvalues --    1.93797   1.94469   1.94624   1.95150   1.95493
 Alpha virt. eigenvalues --    1.95741   1.96379   1.96942   1.97233   1.97817
 Alpha virt. eigenvalues --    1.98126   1.98373   1.98833   1.99141   1.99429
 Alpha virt. eigenvalues --    1.99783   1.99972   2.00406   2.00769   2.01691
 Alpha virt. eigenvalues --    2.02028   2.02298   2.02619   2.02710   2.03103
 Alpha virt. eigenvalues --    2.03480   2.04133   2.04383   2.04783   2.04982
 Alpha virt. eigenvalues --    2.05423   2.05669   2.06595   2.07175   2.07478
 Alpha virt. eigenvalues --    2.07670   2.07883   2.08780   2.09140   2.09427
 Alpha virt. eigenvalues --    2.09890   2.10415   2.10436   2.10718   2.11085
 Alpha virt. eigenvalues --    2.11276   2.11823   2.12585   2.13027   2.13525
 Alpha virt. eigenvalues --    2.13858   2.14195   2.14518   2.14681   2.15043
 Alpha virt. eigenvalues --    2.16291   2.16524   2.17105   2.17516   2.18422
 Alpha virt. eigenvalues --    2.18963   2.19054   2.19224   2.19913   2.20563
 Alpha virt. eigenvalues --    2.21318   2.22066   2.22700   2.23107   2.24367
 Alpha virt. eigenvalues --    2.24926   2.25333   2.26177   2.26665   2.27382
 Alpha virt. eigenvalues --    2.27858   2.28542   2.29105   2.29705   2.30263
 Alpha virt. eigenvalues --    2.30789   2.31097   2.31584   2.31776   2.32269
 Alpha virt. eigenvalues --    2.32620   2.33720   2.34864   2.35228   2.35931
 Alpha virt. eigenvalues --    2.36167   2.37561   2.38154   2.38920   2.39735
 Alpha virt. eigenvalues --    2.40142   2.40538   2.41668   2.42272   2.42637
 Alpha virt. eigenvalues --    2.43172   2.43286   2.43511   2.43593   2.44012
 Alpha virt. eigenvalues --    2.44567   2.44932   2.46316   2.47174   2.48050
 Alpha virt. eigenvalues --    2.48728   2.49012   2.49501   2.50328   2.51061
 Alpha virt. eigenvalues --    2.52236   2.52824   2.54079   2.54162   2.54376
 Alpha virt. eigenvalues --    2.55004   2.55109   2.57583   2.57661   2.59335
 Alpha virt. eigenvalues --    2.59746   2.60665   2.60709   2.61177   2.61273
 Alpha virt. eigenvalues --    2.62259   2.62519   2.63175   2.63874   2.64135
 Alpha virt. eigenvalues --    2.64566   2.64757   2.65602   2.65733   2.65876
 Alpha virt. eigenvalues --    2.66168   2.67772   2.68002   2.68626   2.69279
 Alpha virt. eigenvalues --    2.69473   2.69965   2.70407   2.70885   2.71577
 Alpha virt. eigenvalues --    2.71924   2.71992   2.72490   2.72804   2.73296
 Alpha virt. eigenvalues --    2.74117   2.74310   2.74463   2.75081   2.75558
 Alpha virt. eigenvalues --    2.75913   2.76358   2.76945   2.77077   2.77832
 Alpha virt. eigenvalues --    2.78259   2.78767   2.79353   2.80160   2.80540
 Alpha virt. eigenvalues --    2.81312   2.81742   2.82382   2.82435   2.82778
 Alpha virt. eigenvalues --    2.83115   2.83492   2.84009   2.84700   2.84988
 Alpha virt. eigenvalues --    2.85287   2.86348   2.86699   2.87081   2.87597
 Alpha virt. eigenvalues --    2.88149   2.88909   2.89172   2.89392   2.89888
 Alpha virt. eigenvalues --    2.90844   2.91072   2.91445   2.91692   2.91729
 Alpha virt. eigenvalues --    2.92179   2.92877   2.93212   2.93959   2.94504
 Alpha virt. eigenvalues --    2.94882   2.95026   2.95247   2.95762   2.96397
 Alpha virt. eigenvalues --    2.96964   2.97813   2.97860   2.98039   2.98447
 Alpha virt. eigenvalues --    2.98554   2.99057   2.99786   3.00258   3.00481
 Alpha virt. eigenvalues --    3.00666   3.01506   3.01840   3.02024   3.02484
 Alpha virt. eigenvalues --    3.03049   3.03297   3.03549   3.04048   3.04201
 Alpha virt. eigenvalues --    3.04551   3.05453   3.05986   3.06334   3.06800
 Alpha virt. eigenvalues --    3.06907   3.07306   3.07655   3.08274   3.08867
 Alpha virt. eigenvalues --    3.09920   3.10158   3.10397   3.11146   3.11525
 Alpha virt. eigenvalues --    3.12717   3.13221   3.13482   3.14853   3.15106
 Alpha virt. eigenvalues --    3.15732   3.16841   3.16956   3.17952   3.18505
 Alpha virt. eigenvalues --    3.19117   3.20094   3.20817   3.21364   3.22086
 Alpha virt. eigenvalues --    3.23073   3.23632   3.24160   3.24838   3.25594
 Alpha virt. eigenvalues --    3.25936   3.26867   3.27454   3.27669   3.29100
 Alpha virt. eigenvalues --    3.30242   3.31904   3.32297   3.32683   3.33386
 Alpha virt. eigenvalues --    3.33792   3.35162   3.35772   3.36644   3.37296
 Alpha virt. eigenvalues --    3.37373   3.38250   3.39268   3.41503   3.41892
 Alpha virt. eigenvalues --    3.42912   3.43385   3.45455   3.46006   3.47080
 Alpha virt. eigenvalues --    3.47651   3.47966   3.48364   3.49386   3.49851
 Alpha virt. eigenvalues --    3.51873   3.52358   3.53060   3.54189   3.56297
 Alpha virt. eigenvalues --    3.57387   3.59463   3.62798   3.65141   3.65686
 Alpha virt. eigenvalues --    3.66105   3.68366   3.69749   3.71242   3.74141
 Alpha virt. eigenvalues --    3.74605   3.75981   3.77375   3.79053   3.82320
 Alpha virt. eigenvalues --    3.83898   3.87088   3.87693   3.88115   3.89940
 Alpha virt. eigenvalues --    3.90248   3.91744   3.92105   3.92896   3.93307
 Alpha virt. eigenvalues --    3.94101   3.95286   3.95872   3.96659   3.97605
 Alpha virt. eigenvalues --    3.98339   3.99088   3.99974   4.00649   4.01966
 Alpha virt. eigenvalues --    4.04047   4.04950   4.06163   4.11650   4.11953
 Alpha virt. eigenvalues --    4.12289   4.14736   4.15737   4.15774   4.18844
 Alpha virt. eigenvalues --    4.19916   4.23680   4.24495   4.25790   4.26100
 Alpha virt. eigenvalues --    4.27342   4.28529   4.29711   4.29999   4.31505
 Alpha virt. eigenvalues --    4.32060   4.32499   4.34616   4.37125   4.39646
 Alpha virt. eigenvalues --    4.41979   4.43461   4.45240   4.47160   4.48377
 Alpha virt. eigenvalues --    4.52700   4.54879   4.76234   4.90465   4.95949
 Alpha virt. eigenvalues --    4.96248   5.03936   5.35743   5.36931   5.37872
 Alpha virt. eigenvalues --    5.43127   5.44172   5.44406   5.52050   5.53851
 Alpha virt. eigenvalues --    5.56820   5.59947   5.64567   5.67945   5.74191
 Alpha virt. eigenvalues --    5.75080   5.78561   5.79636   5.82550   5.86174
 Alpha virt. eigenvalues --    7.68771  14.34715  14.37452  14.50499  14.99913
 Alpha virt. eigenvalues --   23.78626  23.83176  23.93393  24.00193  24.02054
 Alpha virt. eigenvalues --   24.02304  24.03342  24.03539  24.05260  24.07070
 Alpha virt. eigenvalues --   24.10426  24.11743  24.11950  24.12786  24.12880
 Alpha virt. eigenvalues --   24.13190  24.13645  24.14580  24.14892  24.15344
 Alpha virt. eigenvalues --   24.15757  24.17032  24.18364  24.20174  24.21365
 Alpha virt. eigenvalues --   24.22282  24.22486  24.23649  24.23950  24.32952
 Alpha virt. eigenvalues --   24.33246  35.80424  50.15161  50.16491  50.19702
 Alpha virt. eigenvalues --   50.22652  50.23224  50.23824 163.93818
          Condensed to atoms (all electrons):
 Mulliken charges:
               1
     1  C   -0.305072
     2  C   -0.108017
     3  H    0.093428
     4  C   -0.670846
     5  H    0.221694
     6  H    0.199233
     7  H    0.180049
     8  C   -0.348469
     9  H    0.265871
    10  H    0.233269
    11  H    0.241488
    12  B    1.141611
    13  C   -0.955604
    14  H    0.175246
    15  H    0.194981
    16  H    0.231697
    17  O   -0.097076
    18  O   -0.036710
    19  C   -0.238076
    20  C   -0.292898
    21  C   -0.845194
    22  H    0.201395
    23  H    0.197892
    24  H    0.187359
    25  C   -0.518748
    26  H    0.240465
    27  H    0.000340
    28  H    0.221361
    29  C   -0.305457
    30  H    0.241125
    31  H    0.183580
    32  H   -0.174450
    33  C   -0.677404
    34  H    0.213167
    35  H   -0.215464
    36  H    0.280297
    37  P    0.060497
    38  O   -0.056391
    39  O   -0.058168
    40  N   -0.249783
    41  H    0.426348
    42  H   -0.104045
    43  Li   0.440543
    44  C   -0.074896
    45  O    0.065161
    46  C    0.094908
    47  C   -0.938059
    48  C   -0.667557
    49  H    0.177429
    50  H    0.197546
    51  H    0.039891
    52  H    0.146600
    53  H    0.226161
    54  H    0.180529
    55  H    0.208159
    56  H    0.240686
    57  C   -0.226294
    58  O    0.053910
    59  C   -0.046997
    60  C   -0.579026
    61  C   -0.428884
    62  H    0.177509
    63  H    0.095690
    64  H    0.108267
    65  H    0.169157
    66  H    0.252452
    67  H    0.224022
    68  H    0.234506
    69  H    0.246997
    70  C    0.094396
    71  C    0.370355
    72  C   -0.086252
    73  C   -0.245508
    74  H   -0.224567
    75  C   -0.571179
    76  H    0.303352
    77  C   -0.392596
    78  H    0.276331
    79  H    0.269441
    80  H    0.263651
    81  C    0.195881
    82  C   -0.022655
    83  C   -0.184742
    84  C   -0.334331
    85  H    0.343742
    86  C   -0.570739
    87  H    0.303472
    88  C   -0.589377
    89  H    0.277026
    90  H    0.274272
    91  H    0.257096
 Sum of Mulliken charges =  -0.00000
 Mulliken charges with hydrogens summed into heavy atoms:
               1
     1  C   -0.305072
     2  C   -0.014588
     4  C   -0.069871
     8  C    0.392159
    12  B    1.141611
    13  C   -0.353679
    17  O   -0.097076
    18  O   -0.036710
    19  C   -0.238076
    20  C   -0.292898
    21  C   -0.258548
    25  C   -0.056582
    29  C   -0.055201
    33  C   -0.399404
    37  P    0.060497
    38  O   -0.056391
    39  O   -0.058168
    40  N    0.072520
    43  Li   0.440543
    44  C    0.300080
    45  O    0.065161
    46  C    0.281399
    47  C   -0.531369
    48  C   -0.218712
    57  C    0.046905
    58  O    0.053910
    59  C    0.230427
    60  C   -0.102552
    61  C    0.052618
    70  C    0.094396
    71  C    0.145788
    72  C    0.217100
    73  C    0.030823
    75  C   -0.301738
    77  C   -0.128945
    81  C    0.195881
    82  C    0.321087
    83  C    0.118730
    84  C   -0.057305
    86  C   -0.296467
    88  C   -0.332281
 Electronic spatial extent (au):  <R**2>=          19670.8710
 Charge=             -0.0000 electrons
 Dipole moment (field-independent basis, Debye):
    X=             -6.9492    Y=              1.4433    Z=             -2.2953  Tot=              7.4594
 Quadrupole moment (field-independent basis, Debye-Ang):
   XX=           -277.0244   YY=           -234.6340   ZZ=           -215.7948
   XY=            -17.1972   XZ=            -18.1261   YZ=            -16.6251
 Traceless Quadrupole moment (field-independent basis, Debye-Ang):
   XX=            -34.5399   YY=              7.8504   ZZ=             26.6896
   XY=            -17.1972   XZ=            -18.1261   YZ=            -16.6251
 Octapole moment (field-independent basis, Debye-Ang**2):
  XXX=              1.2593  YYY=             45.2658  ZZZ=             20.1203  XYY=            -12.3372
  XXY=            -18.4722  XXZ=             -3.5127  XZZ=            -42.3968  YZZ=             -0.4788
  YYZ=             -1.0597  XYZ=             11.9592
 Hexadecapole moment (field-independent basis, Debye-Ang**3):
 XXXX=         -11190.0121 YYYY=          -7456.5778 ZZZZ=          -7472.6018 XXXY=           -139.4855
 XXXZ=           -508.1216 YYYX=            265.6907 YYYZ=            422.2439 ZZZX=           -269.8636
 ZZZY=            352.8662 XXYY=          -3278.8982 XXZZ=          -2943.9791 YYZZ=          -2416.2810
 XXYZ=            192.2834 YYXZ=            -27.7046 ZZXY=             -8.9093
 N-N= 5.709134480436D+03 E-N=-1.631232489666D+04  KE= 2.083078048023D+03
 Unable to Open any file for archive entry.
 1\1\GINC-NODE04\SP\RwB97XD\6-311++G(d,p)\C31H50B1Li1N1O6P1\WHUGHES2\08
 -Oct-2025\0\\# wb97xd/6-311++g** nosymm int=ultrafine scrf=(smd,solven
 t=tetrahydrofuran)\\openTS-phos-full-unfrz-c8_tzpop-sp\\0,1\C,0,-2.874
 8,-0.4998,1.9112\C,0,-2.0157,0.5722,2.4674\H,0,-1.8648,1.359,1.724\C,0
 ,-2.3868,1.1934,3.8018\H,0,-3.3431,1.7229,3.726\H,0,-2.4699,0.4392,4.5
 913\H,0,-1.6131,1.9084,4.0981\C,0,-3.6237,-1.3643,2.8619\H,0,-4.4295,-
 0.7783,3.327\H,0,-4.0536,-2.2344,2.3626\H,0,-2.9824,-1.692,3.6889\B,0,
 -3.183,-0.6041,0.3633\C,0,-4.4634,0.4889,0.4794\H,0,-4.7942,0.5596,-0.
 5657\H,0,-5.3149,0.1364,1.0729\H,0,-4.1942,1.4977,0.8148\O,0,-2.1147,-
 0.1736,-0.5618\O,0,-3.649,-1.8931,-0.1161\C,0,-2.6154,-2.4281,-0.9298\
 C,0,-2.0533,-1.1482,-1.6242\C,0,-3.2125,-3.4538,-1.8853\H,0,-3.547,-4.
 3327,-1.3221\H,0,-4.0761,-3.0468,-2.4186\H,0,-2.4701,-3.7866,-2.6206\C
 ,0,-1.5655,-3.1071,-0.0394\H,0,-0.7983,-3.6176,-0.6324\H,0,-1.0651,-2.
 385,0.6129\H,0,-2.0618,-3.8525,0.5923\C,0,-2.947,-0.6864,-2.7778\H,0,-
 2.872,-1.3674,-3.6334\H,0,-3.9968,-0.6245,-2.475\H,0,-2.6189,0.3013,-3
 .1075\C,0,-0.6197,-1.2843,-2.1154\H,0,-0.3276,-0.3861,-2.6697\H,0,0.07
 79,-1.4066,-1.285\H,0,-0.528,-2.1405,-2.7943\P,0,2.3843,0.1296,0.6576\
 O,0,0.9619,0.3942,0.157\O,0,3.1377,1.2106,1.3952\N,0,-0.7739,-0.2028,2
 .5363\H,0,-0.8149,-1.066,3.0691\H,0,-0.3052,-0.3244,1.6378\Li,0,-0.585
 9,1.1768,-0.4913\C,0,0.0633,3.115,1.8718\O,0,-0.3801,3.067,0.4987\C,0,
 0.501,3.8593,-0.311\C,0,1.1523,4.8468,0.6445\C,0,1.3162,3.9884,1.9\H,0
 ,-0.7552,3.5421,2.4642\H,0,0.2697,2.0969,2.2113\H,0,1.2492,3.2044,-0.7
 78\H,0,-0.095,4.3364,-1.092\H,0,2.101,5.2298,0.2574\H,0,0.4819,5.6948,
 0.83\H,0,2.2007,3.3495,1.8129\H,0,1.3848,4.5762,2.8202\C,0,-0.2016,2.4
 198,-3.3906\O,0,-0.9631,2.0881,-2.2344\C,0,-2.2085,2.787,-2.3208\C,0,-
 2.4942,2.9712,-3.8251\C,0,-1.2263,2.431,-4.5192\H,0,0.2639,3.408,-3.25
 95\H,0,0.5859,1.6705,-3.4995\H,0,-2.95,2.1811,-1.7947\H,0,-2.1158,3.75
 31,-1.8082\H,0,-3.3874,2.4222,-4.1358\H,0,-2.6536,4.0282,-4.0564\H,0,-
 1.3874,1.4111,-4.8834\H,0,-0.9069,3.0503,-5.3618\C,0,3.3526,-0.4259,-0
 .7958\C,0,2.8483,-0.2636,-2.0883\C,0,4.6243,-0.988,-0.6314\C,0,3.5975,
 -0.6505,-3.1998\H,0,1.8591,0.1653,-2.2178\C,0,5.3733,-1.383,-1.7376\H,
 0,5.0317,-1.1227,0.3686\C,0,4.8609,-1.2131,-3.0254\H,0,3.1928,-0.5171,
 -4.2001\H,0,6.3576,-1.8221,-1.5969\H,0,5.4456,-1.52,-3.8887\C,0,2.2638
 ,-1.3603,1.7202\C,0,1.7728,-2.5647,1.2039\C,0,2.5778,-1.2839,3.0792\C,
 0,1.5881,-3.6702,2.0308\H,0,1.5268,-2.6391,0.1468\C,0,2.3927,-2.3879,3
 .9125\H,0,2.9605,-0.3497,3.4817\C,0,1.8952,-3.5813,3.39\H,0,1.2014,-4.
 5983,1.6175\H,0,2.6368,-2.3159,4.9694\H,0,1.7503,-4.4419,4.0381\\Versi
 on=AS64L-G16RevC.01\HF=-2091.4396476\RMSD=5.966e-09\Dipole=-2.7340305,
 0.5678467,-0.9030209\Quadrupole=-25.6796059,5.8365606,19.8430453,-12.7
 857215,-13.4763206,-12.360346\PG=C01 [X(C31H50B1Li1N1O6P1)]\\@
 The archive entry for this job was punched.


 IT IS A CAPITAL MISTAKE TO THEORIZE BEFORE ONE HAS
 DATA.  INSENSIBLY ONE BEGINS TO TWIST FACTS TO SUIT
 THEORIES RATHER THAN THEORIES TO SUIT FACTS.

                                         -- SHERLOCK HOLMES
 Job cpu time:       0 days  9 hours 53 minutes 55.4 seconds.
 Elapsed time:       0 days  2 hours 29 minutes 45.1 seconds.
 File lengths (MBytes):  RWF=   1340 Int=      0 D2E=      0 Chk=     95 Scr=      1
 Normal termination of Gaussian 16 at Wed Oct  8 17:57:31 2025.
