Job Start Time: Wed Oct  8 15:27:45 MDT 2025
SLURM Job ID: 768186
SLURM Job Name: openTS-phos-full-unfrz-c5_tzpop-sp
 Entering Gaussian System, Link 0=/opt/apps/Gaussian/G16C/g16/g16
 Initial command:
 /opt/apps/Gaussian/G16C/g16/l1.exe "/tmp/768186/Gau-159761.inp" -scrdir="/tmp/768186/"
 Entering Link 1 = /opt/apps/Gaussian/G16C/g16/l1.exe PID=    159763.
  
 Copyright (c) 1988-2019, Gaussian, Inc.  All Rights Reserved.
  
 This is part of the Gaussian(R) 16 program.  It is based on
 the Gaussian(R) 09 system (copyright 2009, Gaussian, Inc.),
 the Gaussian(R) 03 system (copyright 2003, Gaussian, Inc.),
 the Gaussian(R) 98 system (copyright 1998, Gaussian, Inc.),
 the Gaussian(R) 94 system (copyright 1995, Gaussian, Inc.),
 the Gaussian 92(TM) system (copyright 1992, Gaussian, Inc.),
 the Gaussian 90(TM) system (copyright 1990, Gaussian, Inc.),
 the Gaussian 88(TM) system (copyright 1988, Gaussian, Inc.),
 the Gaussian 86(TM) system (copyright 1986, Carnegie Mellon
 University), and the Gaussian 82(TM) system (copyright 1983,
 Carnegie Mellon University). Gaussian is a federally registered
 trademark of Gaussian, Inc.
  
 This software contains proprietary and confidential information,
 including trade secrets, belonging to Gaussian, Inc.
  
 This software is provided under written license and may be
 used, copied, transmitted, or stored only in accord with that
 written license.
  
 The following legend is applicable only to US Government
 contracts under FAR:
  
                    RESTRICTED RIGHTS LEGEND
  
 Use, reproduction and disclosure by the US Government is
 subject to restrictions as set forth in subparagraphs (a)
 and (c) of the Commercial Computer Software - Restricted
 Rights clause in FAR 52.227-19.
  
 Gaussian, Inc.
 340 Quinnipiac St., Bldg. 40, Wallingford CT 06492
  
  
 ---------------------------------------------------------------
 Warning -- This program may not be used in any manner that
 competes with the business of Gaussian, Inc. or will provide
 assistance to any competitor of Gaussian, Inc.  The licensee
 of this program is prohibited from giving any competitor of
 Gaussian, Inc. access to this program.  By using this program,
 the user acknowledges that Gaussian, Inc. is engaged in the
 business of creating and licensing software in the field of
 computational chemistry and represents and warrants to the
 licensee that it is not a competitor of Gaussian, Inc. and that
 it will not use this program in any manner prohibited above.
 ---------------------------------------------------------------
  

 Cite this work as:
 Gaussian 16, Revision C.01,
 M. J. Frisch, G. W. Trucks, H. B. Schlegel, G. E. Scuseria, 
 M. A. Robb, J. R. Cheeseman, G. Scalmani, V. Barone, 
 G. A. Petersson, H. Nakatsuji, X. Li, M. Caricato, A. V. Marenich, 
 J. Bloino, B. G. Janesko, R. Gomperts, B. Mennucci, H. P. Hratchian, 
 J. V. Ortiz, A. F. Izmaylov, J. L. Sonnenberg, D. Williams-Young, 
 F. Ding, F. Lipparini, F. Egidi, J. Goings, B. Peng, A. Petrone, 
 T. Henderson, D. Ranasinghe, V. G. Zakrzewski, J. Gao, N. Rega, 
 G. Zheng, W. Liang, M. Hada, M. Ehara, K. Toyota, R. Fukuda, 
 J. Hasegawa, M. Ishida, T. Nakajima, Y. Honda, O. Kitao, H. Nakai, 
 T. Vreven, K. Throssell, J. A. Montgomery, Jr., J. E. Peralta, 
 F. Ogliaro, M. J. Bearpark, J. J. Heyd, E. N. Brothers, K. N. Kudin, 
 V. N. Staroverov, T. A. Keith, R. Kobayashi, J. Normand, 
 K. Raghavachari, A. P. Rendell, J. C. Burant, S. S. Iyengar, 
 J. Tomasi, M. Cossi, J. M. Millam, M. Klene, C. Adamo, R. Cammi, 
 J. W. Ochterski, R. L. Martin, K. Morokuma, O. Farkas, 
 J. B. Foresman, and D. J. Fox, Gaussian, Inc., Wallingford CT, 2019.
 
 ******************************************
 Gaussian 16:  AS64L-G16RevC.01  3-Jul-2019
                 8-Oct-2025 
 ******************************************
 %chk=openTS-phos-full-unfrz-c5_tzpop-sp.chk
 %nprocshared=4
 Will use up to    4 processors via shared memory.
 %mem=8GB
 ----------------------------------------------------------------------
 # wb97xd/6-311++g** nosymm int=ultrafine scrf=(smd,solvent=tetrahydrof
 uran)
 ----------------------------------------------------------------------
 1/38=1,172=1/1;
 2/12=2,15=1,17=6,18=5,40=1/2;
 3/5=4,6=6,7=1111,11=2,25=1,30=1,70=32201,72=20,74=-58,75=-5/1,2,3;
 4//1;
 5/5=2,38=5,53=20/2;
 6/7=2,8=2,9=2,10=2,28=1/1;
 99/5=1,9=1/99;
 ----------------------------------
 openTS-phos-full-unfrz-c5_tzpop-sp
 ----------------------------------
 Symbolic Z-matrix:
 Charge =  0 Multiplicity = 1
 C                    -4.0625    1.2774    1.0515 
 C                    -3.1153    1.2772    2.2055 
 H                    -2.082     1.3351    1.8597 
 C                    -3.326     2.259     3.3428 
 H                    -3.1643    3.2851    2.9948 
 H                    -4.3367    2.1937    3.7606 
 H                    -2.6101    2.0537    4.1466 
 C                    -5.4745    1.6956    1.2964 
 H                    -5.8784    1.1765    2.1714 
 H                    -5.5159    2.77      1.5209 
 H                    -6.1071    1.4869    0.4308 
 B                    -3.5271    1.0925   -0.4086 
 C                    -3.3287    2.7863   -0.4916 
 H                    -4.2726    3.2897   -0.726 
 H                    -2.8344    3.3106    0.3331 
 H                    -2.6692    2.8596   -1.3654 
 O                    -2.2977    0.2984   -0.5622 
 O                    -4.4232    0.6705   -1.4642 
 C                    -3.9691   -0.5917   -1.9324 
 C                    -2.4188   -0.4814   -1.7633 
 C                    -4.4241   -0.785    -3.3738 
 H                    -5.5155   -0.881    -3.4093 
 H                    -4.1396    0.0662   -3.9988 
 H                    -3.9899   -1.6959   -3.8033 
 C                    -4.5755   -1.6916   -1.0499 
 H                    -4.3338   -2.6948   -1.4189 
 H                    -4.2287   -1.6087   -0.014 
 H                    -5.6657   -1.5803   -1.0517 
 C                    -1.7429    0.2911   -2.8995 
 H                    -1.7281   -0.2881   -3.83 
 H                    -2.2476    1.2437   -3.0912 
 H                    -0.7064    0.497    -2.6105 
 C                    -1.714    -1.8178   -1.5713 
 H                    -0.6387   -1.6532   -1.4487 
 H                    -2.0855   -2.3427   -0.6878 
 H                    -1.8705   -2.4601   -2.4465 
 P                     2.3967   -0.3903   -0.0061 
 O                     0.987    -0.242    -0.578 
 O                     2.6948    0.0343    1.4154 
 N                    -3.4803   -0.1086    2.5087 
 H                    -3.9127   -0.2337    3.4177 
 H                    -2.7023   -0.7442    2.3479 
 Li                   -0.5574    0.2934    0.3357 
 C                     0.5869    2.6458    1.9065 
 O                    -0.2284    2.241     0.791 
 C                     0.2132    2.9082   -0.4072 
 C                     1.5184    3.6047   -0.0413 
 C                     1.3102    3.9042    1.4458 
 H                    -0.0746    2.8037    2.7647 
 H                     1.301     1.8441    2.1228 
 H                     0.3263    2.156    -1.1924 
 H                    -0.5581    3.6293   -0.7016 
 H                     2.367     2.9255   -0.1767 
 H                     1.6893    4.4997   -0.6463 
 H                     2.2461    4.0607    1.9894 
 H                     0.676     4.7893    1.5764 
 C                    -0.4515   -2.3462    1.6866 
 O                    -0.7224   -0.9521    1.9503 
 C                    -0.0999   -0.5666    3.1908 
 C                     0.0336   -1.8618    3.9749 
 C                     0.391    -2.8476    2.8583 
 H                    -1.4166   -2.8625    1.6221 
 H                     0.0615   -2.4246    0.7254 
 H                     0.8822   -0.1361    2.9685 
 H                    -0.7444    0.1818    3.6625 
 H                     0.7998   -1.7969    4.7523 
 H                    -0.9213   -2.1305    4.4432 
 H                     1.4564   -2.7732    2.6172 
 H                     0.1641   -3.8877    3.1077 
 C                     3.5103    0.5061   -1.1519 
 C                     3.0732    0.8647   -2.4312 
 C                     4.8049    0.8579   -0.7542 
 C                     3.9122    1.5649   -3.2977 
 H                     2.0639    0.604    -2.739 
 C                     5.6472    1.5559   -1.6181 
 H                     5.149     0.5941    0.2429 
 C                     5.201     1.9113   -2.8918 
 H                     3.5594    1.8433   -4.2876 
 H                     6.6498    1.8272   -1.2971 
 H                     5.8558    2.4586   -3.5651 
 C                     2.8599   -2.1531   -0.2032 
 C                     2.3335   -2.9156   -1.2523 
 C                     3.7389   -2.7596    0.6994 
 C                     2.6764   -4.2589   -1.3952 
 H                     1.6427   -2.4553   -1.9544 
 C                     4.0846   -4.1038    0.5603 
 H                     4.1416   -2.1747    1.5224 
 C                     3.5529   -4.8555   -0.4874 
 H                     2.2579   -4.8418   -2.2118 
 H                     4.7653   -4.5652    1.2713 
 H                     3.8195   -5.9037   -0.5963 
 
 Symmetry turned off by external request.
 Stoichiometry    C31H50BLiNO6P
 Framework group  C1[X(C31H50BLiNO6P)]
 Deg. of freedom   267
 Full point group                 C1      NOp   1
                          Input orientation:                          
 ---------------------------------------------------------------------
 Center     Atomic      Atomic             Coordinates (Angstroms)
 Number     Number       Type             X           Y           Z
 ---------------------------------------------------------------------
      1          6           0       -4.062500    1.277400    1.051500
      2          6           0       -3.115300    1.277200    2.205500
      3          1           0       -2.082000    1.335100    1.859700
      4          6           0       -3.326000    2.259000    3.342800
      5          1           0       -3.164300    3.285100    2.994800
      6          1           0       -4.336700    2.193700    3.760600
      7          1           0       -2.610100    2.053700    4.146600
      8          6           0       -5.474500    1.695600    1.296400
      9          1           0       -5.878400    1.176500    2.171400
     10          1           0       -5.515900    2.770000    1.520900
     11          1           0       -6.107100    1.486900    0.430800
     12          5           0       -3.527100    1.092500   -0.408600
     13          6           0       -3.328700    2.786300   -0.491600
     14          1           0       -4.272600    3.289700   -0.726000
     15          1           0       -2.834400    3.310600    0.333100
     16          1           0       -2.669200    2.859600   -1.365400
     17          8           0       -2.297700    0.298400   -0.562200
     18          8           0       -4.423200    0.670500   -1.464200
     19          6           0       -3.969100   -0.591700   -1.932400
     20          6           0       -2.418800   -0.481400   -1.763300
     21          6           0       -4.424100   -0.785000   -3.373800
     22          1           0       -5.515500   -0.881000   -3.409300
     23          1           0       -4.139600    0.066200   -3.998800
     24          1           0       -3.989900   -1.695900   -3.803300
     25          6           0       -4.575500   -1.691600   -1.049900
     26          1           0       -4.333800   -2.694800   -1.418900
     27          1           0       -4.228700   -1.608700   -0.014000
     28          1           0       -5.665700   -1.580300   -1.051700
     29          6           0       -1.742900    0.291100   -2.899500
     30          1           0       -1.728100   -0.288100   -3.830000
     31          1           0       -2.247600    1.243700   -3.091200
     32          1           0       -0.706400    0.497000   -2.610500
     33          6           0       -1.714000   -1.817800   -1.571300
     34          1           0       -0.638700   -1.653200   -1.448700
     35          1           0       -2.085500   -2.342700   -0.687800
     36          1           0       -1.870500   -2.460100   -2.446500
     37         15           0        2.396700   -0.390300   -0.006100
     38          8           0        0.987000   -0.242000   -0.578000
     39          8           0        2.694800    0.034300    1.415400
     40          7           0       -3.480300   -0.108600    2.508700
     41          1           0       -3.912700   -0.233700    3.417700
     42          1           0       -2.702300   -0.744200    2.347900
     43          3           0       -0.557400    0.293400    0.335700
     44          6           0        0.586900    2.645800    1.906500
     45          8           0       -0.228400    2.241000    0.791000
     46          6           0        0.213200    2.908200   -0.407200
     47          6           0        1.518400    3.604700   -0.041300
     48          6           0        1.310200    3.904200    1.445800
     49          1           0       -0.074600    2.803700    2.764700
     50          1           0        1.301000    1.844100    2.122800
     51          1           0        0.326300    2.156000   -1.192400
     52          1           0       -0.558100    3.629300   -0.701600
     53          1           0        2.367000    2.925500   -0.176700
     54          1           0        1.689300    4.499700   -0.646300
     55          1           0        2.246100    4.060700    1.989400
     56          1           0        0.676000    4.789300    1.576400
     57          6           0       -0.451500   -2.346200    1.686600
     58          8           0       -0.722400   -0.952100    1.950300
     59          6           0       -0.099900   -0.566600    3.190800
     60          6           0        0.033600   -1.861800    3.974900
     61          6           0        0.391000   -2.847600    2.858300
     62          1           0       -1.416600   -2.862500    1.622100
     63          1           0        0.061500   -2.424600    0.725400
     64          1           0        0.882200   -0.136100    2.968500
     65          1           0       -0.744400    0.181800    3.662500
     66          1           0        0.799800   -1.796900    4.752300
     67          1           0       -0.921300   -2.130500    4.443200
     68          1           0        1.456400   -2.773200    2.617200
     69          1           0        0.164100   -3.887700    3.107700
     70          6           0        3.510300    0.506100   -1.151900
     71          6           0        3.073200    0.864700   -2.431200
     72          6           0        4.804900    0.857900   -0.754200
     73          6           0        3.912200    1.564900   -3.297700
     74          1           0        2.063900    0.604000   -2.739000
     75          6           0        5.647200    1.555900   -1.618100
     76          1           0        5.149000    0.594100    0.242900
     77          6           0        5.201000    1.911300   -2.891800
     78          1           0        3.559400    1.843300   -4.287600
     79          1           0        6.649800    1.827200   -1.297100
     80          1           0        5.855800    2.458600   -3.565100
     81          6           0        2.859900   -2.153100   -0.203200
     82          6           0        2.333500   -2.915600   -1.252300
     83          6           0        3.738900   -2.759600    0.699400
     84          6           0        2.676400   -4.258900   -1.395200
     85          1           0        1.642700   -2.455300   -1.954400
     86          6           0        4.084600   -4.103800    0.560300
     87          1           0        4.141600   -2.174700    1.522400
     88          6           0        3.552900   -4.855500   -0.487400
     89          1           0        2.257900   -4.841800   -2.211800
     90          1           0        4.765300   -4.565200    1.271300
     91          1           0        3.819500   -5.903700   -0.596300
 ---------------------------------------------------------------------
 Rotational constants (GHZ):           0.1131776           0.0649386           0.0610996
 Standard basis: 6-311++G(d,p) (5D, 7F)
  1260 basis functions,  1940 primitive gaussians,  1301 cartesian basis functions
   157 alpha electrons      157 beta electrons
       nuclear repulsion energy      5671.7099867879 Hartrees.
 NAtoms=   91 NActive=   91 NUniq=   91 SFac= 1.00D+00 NAtFMM=   60 NAOKFM=T Big=T
 Integral buffers will be    131072 words long.
 Raffenetti 2 integral format.
 Two-electron integral symmetry is turned off.
 Nuclear repulsion after empirical dispersion term =     5671.5942751040 Hartrees.
 ------------------------------------------------------------------------------
 Polarizable Continuum Model (PCM)
 =================================
 Model                : PCM.
 Atomic radii         : SMD-Coulomb.
 Polarization charges : Total charges.
 Charge compensation  : None.
 Solution method      : On-the-fly selection.
 Cavity type          : VdW (van der Waals Surface) (Alpha=1.000).
 Cavity algorithm     : GePol (No added spheres)
                        Default sphere list used, NSphG=   91.
                        Lebedev-Laikov grids with approx.  5.0 points / Ang**2.
                        Smoothing algorithm: York/Karplus (Gamma=1.0000).
                        Polarization charges: spherical gaussians, with
                                              point-specific exponents (IZeta= 3).
                        Self-potential: point-specific (ISelfS= 7).
                        Self-field    : sphere-specific E.n sum rule (ISelfD= 2).
 Solvent              : TetraHydroFuran, Eps=   7.425700 Eps(inf)=   1.974025
 ------------------------------------------------------------------------------
 ------------------------------------------------------------------------------
 Atomic radii for non-electrostatic terms: SMD-CDS.
 ------------------------------------------------------------------------------
 Nuclear repulsion after PCM non-electrostatic terms =     5671.5851944112 Hartrees.
 One-electron integrals computed using PRISM.
 NBasis=  1260 RedAO= T EigKep=  1.21D-06  NBF=  1260
 NBsUse=  1250 1.00D-06 EigRej=  1.00D-06 NBFU=  1250
 ExpMin= 7.40D-03 ExpMax= 7.75D+04 ExpMxC= 2.65D+03 IAcc=3 IRadAn=         5 AccDes= 0.00D+00
 Harris functional with IExCor= 4639 and IRadAn=       5 diagonalized for initial guess.
 HarFok:  IExCor= 4639 AccDes= 0.00D+00 IRadAn=         5 IDoV= 1 UseB2=F ITyADJ=14
 ICtDFT=  3500011 ScaDFX=  1.000000  1.000000  1.000000  1.000000
 FoFCou: FMM=F IPFlag=           0 FMFlag=      100000 FMFlg1=        2001
         NFxFlg=           0 DoJE=T BraDBF=F KetDBF=T FulRan=T
         wScrn=  0.000000 ICntrl=       500 IOpCl=  0 I1Cent=   200000004 NGrid=           0
         NMat0=    1 NMatS0=      1 NMatT0=    0 NMatD0=    1 NMtDS0=    0 NMtDT0=    0
 Symmetry not used in FoFCou.
 Requested convergence on RMS density matrix=1.00D-08 within 128 cycles.
 Requested convergence on MAX density matrix=1.00D-06.
 Requested convergence on             energy=1.00D-06.
 No special actions if energy rises.
 Inv3:  Mode=1 IEnd=    89828352.
 Iteration    1 A*A^-1 deviation from unit magnitude is 7.77D-15 for   5459.
 Iteration    1 A*A^-1 deviation from orthogonality  is 2.67D-15 for   5466   4977.
 Iteration    1 A^-1*A deviation from unit magnitude is 7.77D-15 for   5459.
 Iteration    1 A^-1*A deviation from orthogonality  is 1.28D-14 for   3133   3113.
 Error on total polarization charges =  0.07520
 SCF Done:  E(RwB97XD) =  -2091.44570835     A.U. after   17 cycles
            NFock= 17  Conv=0.32D-08     -V/T= 2.0040
 SMD-CDS (non-electrostatic) energy       (kcal/mol) =      -5.70
 (included in total energy above)

 **********************************************************************

            Population analysis using the SCF Density.

 **********************************************************************

 Alpha  occ. eigenvalues --  -77.25857 -19.25977 -19.25008 -19.21498 -19.20001
 Alpha  occ. eigenvalues --  -19.17328 -19.16499 -14.43239 -10.33556 -10.32546
 Alpha  occ. eigenvalues --  -10.32214 -10.32181 -10.32161 -10.31938 -10.31568
 Alpha  occ. eigenvalues --  -10.31456 -10.28721 -10.28672 -10.28580 -10.28531
 Alpha  occ. eigenvalues --  -10.28529 -10.28509 -10.28485 -10.28471 -10.28458
 Alpha  occ. eigenvalues --  -10.28422 -10.28062 -10.28015 -10.27982 -10.27730
 Alpha  occ. eigenvalues --  -10.27568 -10.27533 -10.27352 -10.27136 -10.25657
 Alpha  occ. eigenvalues --  -10.25396 -10.25353 -10.25261 -10.24723  -6.83803
 Alpha  occ. eigenvalues --   -6.70176  -4.84898  -4.84869  -4.84853  -1.98378
 Alpha  occ. eigenvalues --   -1.14511  -1.13663  -1.12518  -1.06457  -1.05695
 Alpha  occ. eigenvalues --   -1.01590  -1.00403  -0.95444  -0.95333  -0.88946
 Alpha  occ. eigenvalues --   -0.88219  -0.87792  -0.87539  -0.84840  -0.84262
 Alpha  occ. eigenvalues --   -0.84189  -0.83954  -0.83581  -0.83002  -0.82849
 Alpha  occ. eigenvalues --   -0.82630  -0.78566  -0.77768  -0.75879  -0.74857
 Alpha  occ. eigenvalues --   -0.71135  -0.69493  -0.69238  -0.69161  -0.68806
 Alpha  occ. eigenvalues --   -0.68718  -0.68264  -0.68088  -0.67574  -0.64486
 Alpha  occ. eigenvalues --   -0.63259  -0.62518  -0.61713  -0.60609  -0.59888
 Alpha  occ. eigenvalues --   -0.59077  -0.58817  -0.58232  -0.58077  -0.57801
 Alpha  occ. eigenvalues --   -0.56366  -0.54801  -0.53898  -0.53769  -0.53501
 Alpha  occ. eigenvalues --   -0.53210  -0.52834  -0.52430  -0.52333  -0.52111
 Alpha  occ. eigenvalues --   -0.51372  -0.51291  -0.51125  -0.50551  -0.50334
 Alpha  occ. eigenvalues --   -0.50150  -0.50038  -0.49959  -0.49553  -0.49257
 Alpha  occ. eigenvalues --   -0.48824  -0.48147  -0.48064  -0.47569  -0.46931
 Alpha  occ. eigenvalues --   -0.46822  -0.46647  -0.46169  -0.45947  -0.45577
 Alpha  occ. eigenvalues --   -0.45436  -0.44896  -0.44435  -0.44255  -0.44009
 Alpha  occ. eigenvalues --   -0.43581  -0.43391  -0.42905  -0.42753  -0.42645
 Alpha  occ. eigenvalues --   -0.42558  -0.42552  -0.42185  -0.41807  -0.41719
 Alpha  occ. eigenvalues --   -0.41692  -0.41380  -0.41281  -0.40901  -0.40515
 Alpha  occ. eigenvalues --   -0.40401  -0.39533  -0.39070  -0.36836  -0.36280
 Alpha  occ. eigenvalues --   -0.35264  -0.34962  -0.34336  -0.33908  -0.33541
 Alpha  occ. eigenvalues --   -0.33150  -0.32902  -0.32693  -0.32390  -0.32326
 Alpha  occ. eigenvalues --   -0.31307  -0.29494
 Alpha virt. eigenvalues --    0.02124   0.02278   0.02566   0.02647   0.02772
 Alpha virt. eigenvalues --    0.03313   0.05015   0.05398   0.05685   0.05783
 Alpha virt. eigenvalues --    0.05952   0.06104   0.06302   0.06315   0.06867
 Alpha virt. eigenvalues --    0.06922   0.07074   0.07096   0.07279   0.07600
 Alpha virt. eigenvalues --    0.07676   0.07735   0.07788   0.08040   0.08192
 Alpha virt. eigenvalues --    0.08490   0.08810   0.09016   0.09064   0.09642
 Alpha virt. eigenvalues --    0.09800   0.09983   0.10131   0.10440   0.10668
 Alpha virt. eigenvalues --    0.10907   0.11132   0.11439   0.11648   0.12252
 Alpha virt. eigenvalues --    0.12337   0.12660   0.12877   0.12965   0.13081
 Alpha virt. eigenvalues --    0.13394   0.13594   0.13812   0.14146   0.14325
 Alpha virt. eigenvalues --    0.14526   0.14573   0.14864   0.15201   0.15319
 Alpha virt. eigenvalues --    0.15540   0.15575   0.15809   0.15881   0.16082
 Alpha virt. eigenvalues --    0.16439   0.16615   0.16798   0.16884   0.17104
 Alpha virt. eigenvalues --    0.17228   0.17346   0.17456   0.17602   0.17766
 Alpha virt. eigenvalues --    0.17946   0.17964   0.18143   0.18212   0.18270
 Alpha virt. eigenvalues --    0.18400   0.18705   0.18848   0.18962   0.19027
 Alpha virt. eigenvalues --    0.19151   0.19256   0.19440   0.19576   0.19655
 Alpha virt. eigenvalues --    0.19749   0.19901   0.20085   0.20107   0.20318
 Alpha virt. eigenvalues --    0.20517   0.20619   0.20840   0.20922   0.21003
 Alpha virt. eigenvalues --    0.21323   0.21364   0.21441   0.21633   0.21658
 Alpha virt. eigenvalues --    0.21679   0.21861   0.22089   0.22198   0.22247
 Alpha virt. eigenvalues --    0.22386   0.22632   0.22753   0.22871   0.22979
 Alpha virt. eigenvalues --    0.23060   0.23204   0.23232   0.23397   0.23577
 Alpha virt. eigenvalues --    0.23735   0.23881   0.24030   0.24221   0.24262
 Alpha virt. eigenvalues --    0.24366   0.24509   0.24586   0.24671   0.24869
 Alpha virt. eigenvalues --    0.24970   0.25134   0.25320   0.25422   0.25601
 Alpha virt. eigenvalues --    0.25747   0.25875   0.25910   0.26007   0.26193
 Alpha virt. eigenvalues --    0.26308   0.26460   0.26739   0.26864   0.26931
 Alpha virt. eigenvalues --    0.27014   0.27252   0.27382   0.27537   0.27586
 Alpha virt. eigenvalues --    0.27774   0.27800   0.28088   0.28155   0.28467
 Alpha virt. eigenvalues --    0.28505   0.28544   0.28769   0.28818   0.28959
 Alpha virt. eigenvalues --    0.29190   0.29357   0.29481   0.29615   0.29794
 Alpha virt. eigenvalues --    0.29916   0.29993   0.30206   0.30412   0.30530
 Alpha virt. eigenvalues --    0.30642   0.30755   0.30803   0.31046   0.31314
 Alpha virt. eigenvalues --    0.31502   0.31614   0.31672   0.31903   0.32147
 Alpha virt. eigenvalues --    0.32248   0.32502   0.32701   0.32801   0.32828
 Alpha virt. eigenvalues --    0.33006   0.33331   0.33401   0.33566   0.33888
 Alpha virt. eigenvalues --    0.33956   0.34065   0.34333   0.34528   0.34634
 Alpha virt. eigenvalues --    0.34839   0.34918   0.34989   0.35369   0.35405
 Alpha virt. eigenvalues --    0.35701   0.35867   0.36032   0.36145   0.36327
 Alpha virt. eigenvalues --    0.36492   0.36773   0.36824   0.36964   0.37026
 Alpha virt. eigenvalues --    0.37313   0.37533   0.37586   0.37856   0.38099
 Alpha virt. eigenvalues --    0.38123   0.38431   0.38457   0.38600   0.38873
 Alpha virt. eigenvalues --    0.39173   0.39335   0.39373   0.39620   0.39765
 Alpha virt. eigenvalues --    0.39820   0.40006   0.40342   0.40436   0.40545
 Alpha virt. eigenvalues --    0.40641   0.40787   0.40969   0.41229   0.41362
 Alpha virt. eigenvalues --    0.41503   0.41668   0.41898   0.42011   0.42263
 Alpha virt. eigenvalues --    0.42377   0.42611   0.42763   0.42974   0.43106
 Alpha virt. eigenvalues --    0.43453   0.43479   0.43742   0.43770   0.44062
 Alpha virt. eigenvalues --    0.44160   0.44347   0.44544   0.44961   0.45060
 Alpha virt. eigenvalues --    0.45237   0.45541   0.45621   0.45777   0.46137
 Alpha virt. eigenvalues --    0.46392   0.46557   0.46688   0.46742   0.47155
 Alpha virt. eigenvalues --    0.47506   0.47823   0.47987   0.48142   0.48505
 Alpha virt. eigenvalues --    0.48705   0.48971   0.49169   0.49427   0.49838
 Alpha virt. eigenvalues --    0.50025   0.50060   0.50742   0.51016   0.51110
 Alpha virt. eigenvalues --    0.51241   0.51581   0.52367   0.52822   0.52948
 Alpha virt. eigenvalues --    0.53173   0.53523   0.53961   0.54075   0.54651
 Alpha virt. eigenvalues --    0.54682   0.54905   0.55435   0.56084   0.56260
 Alpha virt. eigenvalues --    0.56780   0.57192   0.57583   0.57918   0.58043
 Alpha virt. eigenvalues --    0.58436   0.58813   0.59180   0.59366   0.59609
 Alpha virt. eigenvalues --    0.60187   0.60836   0.61092   0.61287   0.62151
 Alpha virt. eigenvalues --    0.62324   0.62571   0.62907   0.63149   0.63558
 Alpha virt. eigenvalues --    0.63976   0.64252   0.64739   0.64794   0.64962
 Alpha virt. eigenvalues --    0.65113   0.65482   0.65548   0.65893   0.66288
 Alpha virt. eigenvalues --    0.66551   0.66715   0.66923   0.67237   0.67636
 Alpha virt. eigenvalues --    0.67685   0.68096   0.68241   0.68378   0.68559
 Alpha virt. eigenvalues --    0.69118   0.69364   0.69575   0.69920   0.70113
 Alpha virt. eigenvalues --    0.70291   0.70647   0.70998   0.71084   0.71427
 Alpha virt. eigenvalues --    0.71662   0.71876   0.71964   0.72273   0.72659
 Alpha virt. eigenvalues --    0.72943   0.73104   0.73203   0.73552   0.74111
 Alpha virt. eigenvalues --    0.74279   0.74782   0.75032   0.75610   0.75803
 Alpha virt. eigenvalues --    0.75911   0.76141   0.76424   0.76601   0.76777
 Alpha virt. eigenvalues --    0.76933   0.77173   0.77594   0.77815   0.77992
 Alpha virt. eigenvalues --    0.78313   0.78412   0.78860   0.78989   0.79314
 Alpha virt. eigenvalues --    0.79445   0.79822   0.79985   0.80200   0.80391
 Alpha virt. eigenvalues --    0.80571   0.81101   0.81324   0.81503   0.81635
 Alpha virt. eigenvalues --    0.82061   0.82307   0.82494   0.82669   0.82980
 Alpha virt. eigenvalues --    0.83275   0.83386   0.83416   0.83722   0.84154
 Alpha virt. eigenvalues --    0.84293   0.84579   0.84790   0.84989   0.85221
 Alpha virt. eigenvalues --    0.85465   0.85591   0.85896   0.85966   0.86257
 Alpha virt. eigenvalues --    0.86487   0.86677   0.87202   0.87250   0.87849
 Alpha virt. eigenvalues --    0.87951   0.88099   0.88406   0.88672   0.88976
 Alpha virt. eigenvalues --    0.89046   0.89348   0.89751   0.90097   0.90455
 Alpha virt. eigenvalues --    0.90583   0.90714   0.90972   0.91186   0.91633
 Alpha virt. eigenvalues --    0.91948   0.92027   0.92270   0.92680   0.92712
 Alpha virt. eigenvalues --    0.93104   0.93563   0.93772   0.94004   0.94255
 Alpha virt. eigenvalues --    0.94507   0.95010   0.95319   0.95395   0.95490
 Alpha virt. eigenvalues --    0.95834   0.96207   0.96301   0.96629   0.96907
 Alpha virt. eigenvalues --    0.97393   0.97482   0.97750   0.97946   0.98510
 Alpha virt. eigenvalues --    0.98670   0.99081   0.99750   0.99943   1.00390
 Alpha virt. eigenvalues --    1.00545   1.00899   1.01155   1.01328   1.01915
 Alpha virt. eigenvalues --    1.02545   1.03071   1.03208   1.03719   1.04885
 Alpha virt. eigenvalues --    1.05010   1.06029   1.06336   1.06694   1.07184
 Alpha virt. eigenvalues --    1.07348   1.07800   1.08139   1.08992   1.09235
 Alpha virt. eigenvalues --    1.09609   1.09953   1.10179   1.10921   1.11487
 Alpha virt. eigenvalues --    1.11848   1.12422   1.12724   1.13208   1.13746
 Alpha virt. eigenvalues --    1.13944   1.14419   1.15014   1.15706   1.16294
 Alpha virt. eigenvalues --    1.16789   1.17276   1.17619   1.18112   1.18589
 Alpha virt. eigenvalues --    1.19043   1.19415   1.20063   1.20248   1.20589
 Alpha virt. eigenvalues --    1.21262   1.21931   1.22103   1.22340   1.23033
 Alpha virt. eigenvalues --    1.23228   1.23739   1.24101   1.24694   1.25081
 Alpha virt. eigenvalues --    1.25732   1.26171   1.26788   1.27787   1.28224
 Alpha virt. eigenvalues --    1.28584   1.29267   1.29882   1.30212   1.30681
 Alpha virt. eigenvalues --    1.31521   1.32162   1.32587   1.33122   1.33513
 Alpha virt. eigenvalues --    1.33823   1.34171   1.34790   1.35822   1.36011
 Alpha virt. eigenvalues --    1.37105   1.37170   1.37684   1.38191   1.39296
 Alpha virt. eigenvalues --    1.39557   1.40234   1.40545   1.41546   1.41929
 Alpha virt. eigenvalues --    1.42783   1.43463   1.43652   1.44027   1.44658
 Alpha virt. eigenvalues --    1.45015   1.45955   1.46218   1.46490   1.47409
 Alpha virt. eigenvalues --    1.49046   1.49640   1.49947   1.50687   1.50987
 Alpha virt. eigenvalues --    1.51470   1.51795   1.52697   1.53186   1.54130
 Alpha virt. eigenvalues --    1.54267   1.54765   1.55861   1.56387   1.56843
 Alpha virt. eigenvalues --    1.57259   1.57533   1.57939   1.58350   1.59153
 Alpha virt. eigenvalues --    1.59762   1.59998   1.60858   1.61130   1.61752
 Alpha virt. eigenvalues --    1.61965   1.62342   1.62764   1.63525   1.63940
 Alpha virt. eigenvalues --    1.64251   1.64584   1.64745   1.64934   1.65148
 Alpha virt. eigenvalues --    1.65884   1.66035   1.66614   1.66887   1.67124
 Alpha virt. eigenvalues --    1.67189   1.67383   1.67627   1.67844   1.68121
 Alpha virt. eigenvalues --    1.68754   1.69019   1.69446   1.69509   1.70111
 Alpha virt. eigenvalues --    1.70312   1.70789   1.70833   1.71304   1.71648
 Alpha virt. eigenvalues --    1.72046   1.72490   1.72857   1.73085   1.73508
 Alpha virt. eigenvalues --    1.73644   1.73956   1.74483   1.75048   1.75210
 Alpha virt. eigenvalues --    1.75480   1.75866   1.75975   1.76444   1.76724
 Alpha virt. eigenvalues --    1.76897   1.77119   1.77563   1.77864   1.77929
 Alpha virt. eigenvalues --    1.78138   1.78828   1.78940   1.79359   1.79730
 Alpha virt. eigenvalues --    1.80280   1.80452   1.80919   1.80954   1.81470
 Alpha virt. eigenvalues --    1.81731   1.82018   1.82198   1.82796   1.83040
 Alpha virt. eigenvalues --    1.83650   1.83887   1.83989   1.84560   1.85142
 Alpha virt. eigenvalues --    1.85387   1.85528   1.85695   1.85728   1.86145
 Alpha virt. eigenvalues --    1.86603   1.87127   1.87281   1.87559   1.88007
 Alpha virt. eigenvalues --    1.88329   1.88661   1.89039   1.89658   1.89803
 Alpha virt. eigenvalues --    1.90161   1.90480   1.91110   1.91163   1.91697
 Alpha virt. eigenvalues --    1.91998   1.92509   1.92630   1.93788   1.93985
 Alpha virt. eigenvalues --    1.94401   1.94675   1.95115   1.95603   1.95717
 Alpha virt. eigenvalues --    1.95856   1.96381   1.96525   1.97016   1.97631
 Alpha virt. eigenvalues --    1.97747   1.98133   1.99080   1.99182   1.99638
 Alpha virt. eigenvalues --    1.99986   2.00812   2.01485   2.01691   2.02322
 Alpha virt. eigenvalues --    2.02822   2.02872   2.03151   2.03734   2.03979
 Alpha virt. eigenvalues --    2.04384   2.04751   2.05311   2.05462   2.05950
 Alpha virt. eigenvalues --    2.06288   2.06685   2.07051   2.07408   2.07910
 Alpha virt. eigenvalues --    2.08566   2.08925   2.09280   2.09657   2.10010
 Alpha virt. eigenvalues --    2.10262   2.10464   2.11160   2.11675   2.11886
 Alpha virt. eigenvalues --    2.12340   2.12429   2.13060   2.13311   2.13672
 Alpha virt. eigenvalues --    2.14299   2.14370   2.14420   2.15430   2.15868
 Alpha virt. eigenvalues --    2.16676   2.17077   2.17744   2.18104   2.18557
 Alpha virt. eigenvalues --    2.18971   2.19284   2.20294   2.20708   2.21288
 Alpha virt. eigenvalues --    2.21419   2.21768   2.22716   2.23857   2.24292
 Alpha virt. eigenvalues --    2.24561   2.25513   2.26224   2.26648   2.27558
 Alpha virt. eigenvalues --    2.28313   2.28750   2.29403   2.30186   2.31131
 Alpha virt. eigenvalues --    2.31878   2.32381   2.32818   2.33675   2.34008
 Alpha virt. eigenvalues --    2.34405   2.35164   2.35922   2.36570   2.38030
 Alpha virt. eigenvalues --    2.38567   2.38987   2.39592   2.39872   2.41553
 Alpha virt. eigenvalues --    2.41716   2.41738   2.42102   2.42775   2.43188
 Alpha virt. eigenvalues --    2.43531   2.43600   2.43819   2.44557   2.44775
 Alpha virt. eigenvalues --    2.45442   2.45732   2.46061   2.47358   2.48486
 Alpha virt. eigenvalues --    2.48913   2.49313   2.49829   2.50160   2.50884
 Alpha virt. eigenvalues --    2.52996   2.53222   2.53530   2.53734   2.54261
 Alpha virt. eigenvalues --    2.54623   2.54886   2.58155   2.59566   2.59924
 Alpha virt. eigenvalues --    2.60101   2.60248   2.60577   2.61616   2.61982
 Alpha virt. eigenvalues --    2.62272   2.62837   2.63020   2.63634   2.63818
 Alpha virt. eigenvalues --    2.65122   2.65572   2.65723   2.66066   2.66200
 Alpha virt. eigenvalues --    2.67041   2.67271   2.67360   2.68023   2.68301
 Alpha virt. eigenvalues --    2.68689   2.69630   2.69945   2.70849   2.71446
 Alpha virt. eigenvalues --    2.72037   2.72633   2.72992   2.73173   2.73613
 Alpha virt. eigenvalues --    2.74555   2.75107   2.75274   2.75492   2.76048
 Alpha virt. eigenvalues --    2.76941   2.77491   2.77955   2.78194   2.78559
 Alpha virt. eigenvalues --    2.78886   2.80054   2.80529   2.80881   2.81556
 Alpha virt. eigenvalues --    2.81603   2.82097   2.82855   2.83426   2.83640
 Alpha virt. eigenvalues --    2.84011   2.84450   2.85227   2.85514   2.86090
 Alpha virt. eigenvalues --    2.86639   2.87128   2.87738   2.87894   2.88419
 Alpha virt. eigenvalues --    2.88725   2.88991   2.89160   2.89820   2.90260
 Alpha virt. eigenvalues --    2.91421   2.91548   2.92030   2.92206   2.92459
 Alpha virt. eigenvalues --    2.92529   2.93300   2.93868   2.94157   2.94592
 Alpha virt. eigenvalues --    2.94888   2.95660   2.95951   2.96221   2.96558
 Alpha virt. eigenvalues --    2.96834   2.97775   2.97866   2.98271   2.98801
 Alpha virt. eigenvalues --    2.99279   2.99556   2.99782   3.00347   3.00796
 Alpha virt. eigenvalues --    3.01281   3.01637   3.02053   3.02292   3.02573
 Alpha virt. eigenvalues --    3.03651   3.04087   3.05041   3.05587   3.05821
 Alpha virt. eigenvalues --    3.06199   3.06359   3.07051   3.07479   3.07684
 Alpha virt. eigenvalues --    3.07853   3.08458   3.09137   3.09429   3.10094
 Alpha virt. eigenvalues --    3.10889   3.11382   3.11962   3.12323   3.12523
 Alpha virt. eigenvalues --    3.13620   3.13915   3.14163   3.16204   3.16751
 Alpha virt. eigenvalues --    3.17857   3.18469   3.18794   3.19327   3.19941
 Alpha virt. eigenvalues --    3.20850   3.21681   3.22440   3.22582   3.22837
 Alpha virt. eigenvalues --    3.23642   3.24403   3.25517   3.26055   3.26191
 Alpha virt. eigenvalues --    3.26536   3.27005   3.27489   3.28940   3.28973
 Alpha virt. eigenvalues --    3.29567   3.30809   3.31583   3.32664   3.32817
 Alpha virt. eigenvalues --    3.33264   3.34341   3.35171   3.35773   3.36780
 Alpha virt. eigenvalues --    3.37238   3.38400   3.39317   3.39942   3.42190
 Alpha virt. eigenvalues --    3.42471   3.43980   3.44691   3.45699   3.46199
 Alpha virt. eigenvalues --    3.46858   3.49457   3.50154   3.50784   3.51073
 Alpha virt. eigenvalues --    3.51874   3.52284   3.53926   3.54411   3.57843
 Alpha virt. eigenvalues --    3.59262   3.61939   3.63586   3.64990   3.65691
 Alpha virt. eigenvalues --    3.67655   3.68952   3.69662   3.71159   3.74110
 Alpha virt. eigenvalues --    3.75170   3.78509   3.79595   3.80038   3.82618
 Alpha virt. eigenvalues --    3.87322   3.90010   3.90453   3.90719   3.91169
 Alpha virt. eigenvalues --    3.91473   3.92490   3.93006   3.93550   3.94867
 Alpha virt. eigenvalues --    3.95183   3.95710   3.96467   3.97130   3.97856
 Alpha virt. eigenvalues --    3.98609   3.99834   4.00493   4.01298   4.01522
 Alpha virt. eigenvalues --    4.04771   4.05585   4.09392   4.09947   4.10855
 Alpha virt. eigenvalues --    4.12731   4.15701   4.15739   4.18116   4.20200
 Alpha virt. eigenvalues --    4.22676   4.25426   4.26014   4.26588   4.27919
 Alpha virt. eigenvalues --    4.29487   4.30220   4.30574   4.31618   4.32367
 Alpha virt. eigenvalues --    4.33052   4.34761   4.37163   4.40533   4.41615
 Alpha virt. eigenvalues --    4.42198   4.44377   4.45360   4.46870   4.48893
 Alpha virt. eigenvalues --    4.52871   4.70991   4.93904   4.95438   4.96139
 Alpha virt. eigenvalues --    5.05299   5.39318   5.40281   5.43025   5.43637
 Alpha virt. eigenvalues --    5.44514   5.47015   5.49505   5.50787   5.54772
 Alpha virt. eigenvalues --    5.58758   5.65412   5.66968   5.70496   5.76146
 Alpha virt. eigenvalues --    5.76468   5.76970   5.84126   5.90110   7.68672
 Alpha virt. eigenvalues --   14.36617  14.40953  14.48908  15.00119  23.78356
 Alpha virt. eigenvalues --   23.80378  23.93699  23.99651  24.01451  24.02324
 Alpha virt. eigenvalues --   24.03989  24.05354  24.06718  24.07791  24.11811
 Alpha virt. eigenvalues --   24.12116  24.12201  24.12754  24.13133  24.13281
 Alpha virt. eigenvalues --   24.13664  24.14095  24.14819  24.15124  24.16108
 Alpha virt. eigenvalues --   24.17316  24.18224  24.20021  24.21581  24.22025
 Alpha virt. eigenvalues --   24.22244  24.23546  24.23582  24.32923  24.33077
 Alpha virt. eigenvalues --   35.79480  50.14605  50.18616  50.19495  50.21724
 Alpha virt. eigenvalues --   50.22833  50.25276 163.93494
          Condensed to atoms (all electrons):
 Mulliken charges:
               1
     1  C    0.291244
     2  C   -0.490749
     3  H   -0.166598
     4  C   -0.520150
     5  H    0.223947
     6  H    0.210952
     7  H    0.213004
     8  C   -0.524521
     9  H    0.236289
    10  H    0.245618
    11  H    0.227145
    12  B    1.092791
    13  C   -1.003656
    14  H    0.195760
    15  H    0.243740
    16  H    0.169268
    17  O    0.104053
    18  O   -0.051329
    19  C    0.010607
    20  C   -0.276646
    21  C   -0.836791
    22  H    0.192361
    23  H    0.187316
    24  H    0.189307
    25  C   -0.524847
    26  H    0.200088
    27  H    0.096944
    28  H    0.222015
    29  C   -0.496933
    30  H    0.224441
    31  H    0.214292
    32  H    0.053662
    33  C   -0.769842
    34  H    0.071997
    35  H    0.127130
    36  H    0.275856
    37  P   -0.156714
    38  O   -0.023668
    39  O   -0.168486
    40  N   -0.545647
    41  H    0.384463
    42  H    0.414124
    43  Li  -0.398901
    44  C    0.054527
    45  O    0.172066
    46  C    0.177259
    47  C   -0.672325
    48  C   -0.867149
    49  H    0.214856
    50  H    0.116231
    51  H    0.152290
    52  H    0.190525
    53  H    0.114390
    54  H    0.262782
    55  H    0.244933
    56  H    0.190665
    57  C    0.124566
    58  O    0.011678
    59  C    0.064575
    60  C   -1.044198
    61  C   -0.629372
    62  H    0.276129
    63  H    0.155601
    64  H    0.201357
    65  H    0.236522
    66  H    0.243166
    67  H    0.188795
    68  H    0.164521
    69  H    0.257640
    70  C   -0.125681
    71  C    0.093530
    72  C   -0.016315
    73  C   -0.210886
    74  H    0.333938
    75  C   -0.441814
    76  H    0.296276
    77  C   -0.605457
    78  H    0.287231
    79  H    0.273658
    80  H    0.249200
    81  C   -0.069624
    82  C   -0.052041
    83  C   -0.085946
    84  C   -0.317420
    85  H    0.288214
    86  C   -0.409979
    87  H    0.291540
    88  C   -0.550259
    89  H    0.282147
    90  H    0.270635
    91  H    0.254085
 Sum of Mulliken charges =  -0.00000
 Mulliken charges with hydrogens summed into heavy atoms:
               1
     1  C    0.291244
     2  C   -0.657347
     4  C    0.127753
     8  C    0.184531
    12  B    1.092791
    13  C   -0.394887
    17  O    0.104053
    18  O   -0.051329
    19  C    0.010607
    20  C   -0.276646
    21  C   -0.267806
    25  C   -0.005801
    29  C   -0.004538
    33  C   -0.294859
    37  P   -0.156714
    38  O   -0.023668
    39  O   -0.168486
    40  N    0.252941
    43  Li  -0.398901
    44  C    0.385615
    45  O    0.172066
    46  C    0.520073
    47  C   -0.295153
    48  C   -0.431550
    57  C    0.556296
    58  O    0.011678
    59  C    0.502454
    60  C   -0.612237
    61  C   -0.207211
    70  C   -0.125681
    71  C    0.427468
    72  C    0.279961
    73  C    0.076345
    75  C   -0.168155
    77  C   -0.356257
    81  C   -0.069624
    82  C    0.236172
    83  C    0.205594
    84  C   -0.035273
    86  C   -0.139344
    88  C   -0.296174
 Electronic spatial extent (au):  <R**2>=          20961.4663
 Charge=             -0.0000 electrons
 Dipole moment (field-independent basis, Debye):
    X=             -4.8409    Y=              0.5914    Z=              5.9758  Tot=              7.7132
 Quadrupole moment (field-independent basis, Debye-Ang):
   XX=           -258.5255   YY=           -231.7054   ZZ=           -228.8423
   XY=              1.2357   XZ=            -24.7592   YZ=              2.2817
 Traceless Quadrupole moment (field-independent basis, Debye-Ang):
   XX=            -18.8344   YY=              7.9857   ZZ=             10.8487
   XY=              1.2357   XZ=            -24.7592   YZ=              2.2817
 Octapole moment (field-independent basis, Debye-Ang**2):
  XXX=             -1.4461  YYY=            -16.8550  ZZZ=             60.8996  XYY=             21.9245
  XXY=             37.8760  XXZ=            105.1866  XZZ=            -48.6973  YZZ=              6.3538
  YYZ=             18.1486  XYZ=            -58.6028
 Hexadecapole moment (field-independent basis, Debye-Ang**3):
 XXXX=         -15006.5129 YYYY=          -7029.2050 ZZZZ=          -5671.4747 XXXY=            977.2035
 XXXZ=            211.8126 YYYX=            655.3776 YYYZ=             65.0911 ZZZX=            396.0883
 ZZZY=            -81.2326 XXYY=          -3607.8114 XXZZ=          -3396.2926 YYZZ=          -2118.3763
 XXYZ=            -45.4661 YYXZ=            166.6130 ZZXY=            362.4182
 N-N= 5.671585194411D+03 E-N=-1.623824748623D+04  KE= 2.083100862129D+03
 Unable to Open any file for archive entry.
 1\1\GINC-NODE03\SP\RwB97XD\6-311++G(d,p)\C31H50B1Li1N1O6P1\WHUGHES2\08
 -Oct-2025\0\\# wb97xd/6-311++g** nosymm int=ultrafine scrf=(smd,solven
 t=tetrahydrofuran)\\openTS-phos-full-unfrz-c5_tzpop-sp\\0,1\C,0,-4.062
 5,1.2774,1.0515\C,0,-3.1153,1.2772,2.2055\H,0,-2.082,1.3351,1.8597\C,0
 ,-3.326,2.259,3.3428\H,0,-3.1643,3.2851,2.9948\H,0,-4.3367,2.1937,3.76
 06\H,0,-2.6101,2.0537,4.1466\C,0,-5.4745,1.6956,1.2964\H,0,-5.8784,1.1
 765,2.1714\H,0,-5.5159,2.77,1.5209\H,0,-6.1071,1.4869,0.4308\B,0,-3.52
 71,1.0925,-0.4086\C,0,-3.3287,2.7863,-0.4916\H,0,-4.2726,3.2897,-0.726
 \H,0,-2.8344,3.3106,0.3331\H,0,-2.6692,2.8596,-1.3654\O,0,-2.2977,0.29
 84,-0.5622\O,0,-4.4232,0.6705,-1.4642\C,0,-3.9691,-0.5917,-1.9324\C,0,
 -2.4188,-0.4814,-1.7633\C,0,-4.4241,-0.785,-3.3738\H,0,-5.5155,-0.881,
 -3.4093\H,0,-4.1396,0.0662,-3.9988\H,0,-3.9899,-1.6959,-3.8033\C,0,-4.
 5755,-1.6916,-1.0499\H,0,-4.3338,-2.6948,-1.4189\H,0,-4.2287,-1.6087,-
 0.014\H,0,-5.6657,-1.5803,-1.0517\C,0,-1.7429,0.2911,-2.8995\H,0,-1.72
 81,-0.2881,-3.83\H,0,-2.2476,1.2437,-3.0912\H,0,-0.7064,0.497,-2.6105\
 C,0,-1.714,-1.8178,-1.5713\H,0,-0.6387,-1.6532,-1.4487\H,0,-2.0855,-2.
 3427,-0.6878\H,0,-1.8705,-2.4601,-2.4465\P,0,2.3967,-0.3903,-0.0061\O,
 0,0.987,-0.242,-0.578\O,0,2.6948,0.0343,1.4154\N,0,-3.4803,-0.1086,2.5
 087\H,0,-3.9127,-0.2337,3.4177\H,0,-2.7023,-0.7442,2.3479\Li,0,-0.5574
 ,0.2934,0.3357\C,0,0.5869,2.6458,1.9065\O,0,-0.2284,2.241,0.791\C,0,0.
 2132,2.9082,-0.4072\C,0,1.5184,3.6047,-0.0413\C,0,1.3102,3.9042,1.4458
 \H,0,-0.0746,2.8037,2.7647\H,0,1.301,1.8441,2.1228\H,0,0.3263,2.156,-1
 .1924\H,0,-0.5581,3.6293,-0.7016\H,0,2.367,2.9255,-0.1767\H,0,1.6893,4
 .4997,-0.6463\H,0,2.2461,4.0607,1.9894\H,0,0.676,4.7893,1.5764\C,0,-0.
 4515,-2.3462,1.6866\O,0,-0.7224,-0.9521,1.9503\C,0,-0.0999,-0.5666,3.1
 908\C,0,0.0336,-1.8618,3.9749\C,0,0.391,-2.8476,2.8583\H,0,-1.4166,-2.
 8625,1.6221\H,0,0.0615,-2.4246,0.7254\H,0,0.8822,-0.1361,2.9685\H,0,-0
 .7444,0.1818,3.6625\H,0,0.7998,-1.7969,4.7523\H,0,-0.9213,-2.1305,4.44
 32\H,0,1.4564,-2.7732,2.6172\H,0,0.1641,-3.8877,3.1077\C,0,3.5103,0.50
 61,-1.1519\C,0,3.0732,0.8647,-2.4312\C,0,4.8049,0.8579,-0.7542\C,0,3.9
 122,1.5649,-3.2977\H,0,2.0639,0.604,-2.739\C,0,5.6472,1.5559,-1.6181\H
 ,0,5.149,0.5941,0.2429\C,0,5.201,1.9113,-2.8918\H,0,3.5594,1.8433,-4.2
 876\H,0,6.6498,1.8272,-1.2971\H,0,5.8558,2.4586,-3.5651\C,0,2.8599,-2.
 1531,-0.2032\C,0,2.3335,-2.9156,-1.2523\C,0,3.7389,-2.7596,0.6994\C,0,
 2.6764,-4.2589,-1.3952\H,0,1.6427,-2.4553,-1.9544\C,0,4.0846,-4.1038,0
 .5603\H,0,4.1416,-2.1747,1.5224\C,0,3.5529,-4.8555,-0.4874\H,0,2.2579,
 -4.8418,-2.2118\H,0,4.7653,-4.5652,1.2713\H,0,3.8195,-5.9037,-0.5963\\
 Version=AS64L-G16RevC.01\HF=-2091.4457083\RMSD=3.187e-09\Dipole=-1.904
 5548,0.2326836,2.3510491\Quadrupole=-14.0029305,5.9371548,8.0657757,0.
 9187444,-18.4078628,1.6964034\PG=C01 [X(C31H50B1Li1N1O6P1)]\\@
 The archive entry for this job was punched.


 RESEARCH IS WHAT I AM DOING WHEN I DON'T KNOW WHAT I AM DOING.
     -- WERNER VON BRAUN
 Job cpu time:       0 days  9 hours 31 minutes 45.0 seconds.
 Elapsed time:       0 days  2 hours 24 minutes 16.4 seconds.
 File lengths (MBytes):  RWF=   1324 Int=      0 D2E=      0 Chk=     95 Scr=      1
 Normal termination of Gaussian 16 at Wed Oct  8 17:52:02 2025.
