Job Start Time: Fri Sep 19 15:59:08 MDT 2025
SLURM Job ID: 766562
SLURM Job Name: openTS-phos-full-sp-tzpop
 Entering Gaussian System, Link 0=/opt/apps/Gaussian/G16C/g16/g16
 Initial command:
 /opt/apps/Gaussian/G16C/g16/l1.exe "/tmp/766562/Gau-3333084.inp" -scrdir="/tmp/766562/"
 Entering Link 1 = /opt/apps/Gaussian/G16C/g16/l1.exe PID=   3333085.
  
 Copyright (c) 1988-2019, Gaussian, Inc.  All Rights Reserved.
  
 This is part of the Gaussian(R) 16 program.  It is based on
 the Gaussian(R) 09 system (copyright 2009, Gaussian, Inc.),
 the Gaussian(R) 03 system (copyright 2003, Gaussian, Inc.),
 the Gaussian(R) 98 system (copyright 1998, Gaussian, Inc.),
 the Gaussian(R) 94 system (copyright 1995, Gaussian, Inc.),
 the Gaussian 92(TM) system (copyright 1992, Gaussian, Inc.),
 the Gaussian 90(TM) system (copyright 1990, Gaussian, Inc.),
 the Gaussian 88(TM) system (copyright 1988, Gaussian, Inc.),
 the Gaussian 86(TM) system (copyright 1986, Carnegie Mellon
 University), and the Gaussian 82(TM) system (copyright 1983,
 Carnegie Mellon University). Gaussian is a federally registered
 trademark of Gaussian, Inc.
  
 This software contains proprietary and confidential information,
 including trade secrets, belonging to Gaussian, Inc.
  
 This software is provided under written license and may be
 used, copied, transmitted, or stored only in accord with that
 written license.
  
 The following legend is applicable only to US Government
 contracts under FAR:
  
                    RESTRICTED RIGHTS LEGEND
  
 Use, reproduction and disclosure by the US Government is
 subject to restrictions as set forth in subparagraphs (a)
 and (c) of the Commercial Computer Software - Restricted
 Rights clause in FAR 52.227-19.
  
 Gaussian, Inc.
 340 Quinnipiac St., Bldg. 40, Wallingford CT 06492
  
  
 ---------------------------------------------------------------
 Warning -- This program may not be used in any manner that
 competes with the business of Gaussian, Inc. or will provide
 assistance to any competitor of Gaussian, Inc.  The licensee
 of this program is prohibited from giving any competitor of
 Gaussian, Inc. access to this program.  By using this program,
 the user acknowledges that Gaussian, Inc. is engaged in the
 business of creating and licensing software in the field of
 computational chemistry and represents and warrants to the
 licensee that it is not a competitor of Gaussian, Inc. and that
 it will not use this program in any manner prohibited above.
 ---------------------------------------------------------------
  

 Cite this work as:
 Gaussian 16, Revision C.01,
 M. J. Frisch, G. W. Trucks, H. B. Schlegel, G. E. Scuseria, 
 M. A. Robb, J. R. Cheeseman, G. Scalmani, V. Barone, 
 G. A. Petersson, H. Nakatsuji, X. Li, M. Caricato, A. V. Marenich, 
 J. Bloino, B. G. Janesko, R. Gomperts, B. Mennucci, H. P. Hratchian, 
 J. V. Ortiz, A. F. Izmaylov, J. L. Sonnenberg, D. Williams-Young, 
 F. Ding, F. Lipparini, F. Egidi, J. Goings, B. Peng, A. Petrone, 
 T. Henderson, D. Ranasinghe, V. G. Zakrzewski, J. Gao, N. Rega, 
 G. Zheng, W. Liang, M. Hada, M. Ehara, K. Toyota, R. Fukuda, 
 J. Hasegawa, M. Ishida, T. Nakajima, Y. Honda, O. Kitao, H. Nakai, 
 T. Vreven, K. Throssell, J. A. Montgomery, Jr., J. E. Peralta, 
 F. Ogliaro, M. J. Bearpark, J. J. Heyd, E. N. Brothers, K. N. Kudin, 
 V. N. Staroverov, T. A. Keith, R. Kobayashi, J. Normand, 
 K. Raghavachari, A. P. Rendell, J. C. Burant, S. S. Iyengar, 
 J. Tomasi, M. Cossi, J. M. Millam, M. Klene, C. Adamo, R. Cammi, 
 J. W. Ochterski, R. L. Martin, K. Morokuma, O. Farkas, 
 J. B. Foresman, and D. J. Fox, Gaussian, Inc., Wallingford CT, 2019.
 
 ******************************************
 Gaussian 16:  AS64L-G16RevC.01  3-Jul-2019
                19-Sep-2025 
 ******************************************
 %nproc=16
 Will use up to   16 processors via shared memory.
 %mem=32gb
 %chk=openTS-phos-full-sp-tzpop.chk
 ----------------------------------------------------------------------
 #p wb97xd/6-311++g** nosymm int=ultrafine scrf=(smd,solvent=tetrahydro
 furan)
 ----------------------------------------------------------------------
 1/38=1,172=1/1;
 2/12=2,15=1,17=6,18=5,40=1/2;
 3/5=4,6=6,7=1111,11=2,25=1,30=1,70=32201,72=20,74=-58,75=-5/1,2,3;
 4//1;
 5/5=2,38=5,53=20/2;
 6/7=2,8=2,9=2,10=2,28=1/1;
 99/5=1,9=1/99;
 Leave Link    1 at Fri Sep 19 15:59:08 2025, MaxMem=  4294967296 cpu:               0.1 elap:               0.0
 (Enter /opt/apps/Gaussian/G16C/g16/l101.exe)
 ----------------------
 openTS-phos-full-tzpop
 ----------------------
 Symbolic Z-matrix:
 Charge =  0 Multiplicity = 1
 6                    -2.47952   1.0564   -1.23813 
 6                    -2.63843   0.84449   0.23731 
 1                    -1.67906   0.60209   0.69693 
 6                    -3.34297   1.91452   1.05462 
 1                    -2.76403   2.84497   1.06445 
 1                    -4.33953   2.13756   0.65603 
 1                    -3.45963   1.57111   2.08835 
 6                    -3.60485   1.71806  -1.97343 
 1                    -4.55724   1.25246  -1.7027 
 1                    -3.67996   2.77811  -1.69749 
 1                    -3.47019   1.64242  -3.05487 
 5                    -1.13565   0.79057  -1.97287 
 6                    -0.83916   2.47281  -1.72812 
 1                    -1.20541   3.00389  -0.84357 
 1                     0.25633   2.46951  -1.67 
 1                    -1.16156   3.02162  -2.61835 
 8                    -0.13684  -0.07501  -1.33646 
 8                    -1.1265    0.46751  -3.37959 
 6                    -0.62221  -0.86034  -3.48413 
 6                     0.46456  -0.88795  -2.3617 
 6                    -0.07807  -1.07564  -4.89083 
 1                    -0.90512  -1.08293  -5.61005 
 1                     0.61276  -0.27837  -5.17928 
 1                     0.44371  -2.03719  -4.96606 
 6                    -1.75853  -1.85641  -3.21588 
 1                    -1.43477  -2.89101  -3.37701 
 1                    -2.14176  -1.7709   -2.19378 
 1                    -2.58317  -1.64358  -3.90564 
 6                     1.76989  -0.22387  -2.80417 
 1                     2.4312   -0.12664  -1.93957 
 1                     2.29105  -0.82711  -3.55602 
 1                     1.58867   0.77259  -3.22052 
 6                     0.75559  -2.26677  -1.78844 
 1                    -0.13598  -2.71081  -1.34168 
 1                     1.131    -2.93957  -2.56892 
 1                     1.51986  -2.19415  -1.00701 
 15                   -0.93888  -2.79757   1.81986 
 8                     0.00229  -1.62708   1.56656 
 8                    -2.40026  -2.69121   1.42786 
 7                    -3.40415  -0.38346   0.03579 
 1                    -3.00537  -1.20767   0.50087 
 1                    -4.38936  -0.27475   0.25304 
 3                     0.56673  -0.23517   0.47989 
 6                    -0.16012   1.1237    3.05971 
 8                     0.27484   1.39725   1.72523 
 6                     0.45738   2.81151   1.63323 
 6                     0.82516   3.29831   3.05187 
 6                     0.71308   2.02803   3.91695 
 1                    -1.22477   1.38514   3.158 
 1                    -0.04079   0.05351   3.22713 
 1                     1.23247   2.9986    0.88707 
 1                    -0.47665   3.27266   1.28894 
 1                     1.8283    3.73219   3.08801 
 1                     0.11909   4.06467   3.38519 
 1                     1.69581   1.56455   4.05918 
 1                     0.27677   2.21932   4.9012 
 6                     2.97637  -0.6967    1.94678 
 8                     2.59432  -0.26368   0.62777 
 6                     3.3183    0.92444   0.27391 
 6                     3.92173   1.44686   1.57032 
 6                     4.18915   0.14444   2.32897 
 1                     2.13201  -0.52321   2.62144 
 1                     3.17872  -1.7704    1.90824 
 1                     4.10209   0.65845  -0.44777 
 1                     2.6237    1.61882  -0.20751 
 1                     4.82218   2.04237   1.39647 
 1                     3.1949    2.0613    2.11157 
 1                     5.1133   -0.32303   1.97016 
 1                     4.26887   0.28158   3.41108 
 6                    -0.82626  -3.17787   3.60829 
 6                    -1.84602  -3.89119   4.24742 
 6                     0.2901   -2.77931   4.35154 
 6                    -1.7534   -4.19919   5.60402 
 1                    -2.71996  -4.1994    3.67889 
 6                     0.38614  -3.08482   5.70861 
 1                     1.08384  -2.22069   3.86192 
 6                    -0.63624  -3.79647   6.33662 
 1                    -2.55362  -4.75097   6.09057 
 1                     1.25738  -2.76751   6.27622 
 1                    -0.56354  -4.03537   7.39451 
 6                    -0.21957  -4.27285   1.00933 
 6                    -1.0422   -5.21002   0.37937 
 6                     1.16621  -4.46711   0.99651 
 6                    -0.49013  -6.32098  -0.25964 
 1                    -2.11815  -5.05683   0.37915 
 6                     1.72117  -5.57557   0.36213 
 1                     1.81449  -3.73403   1.47069 
 6                     0.89183  -6.50465  -0.26935 
 1                    -1.13891  -7.04034  -0.75289 
 1                     2.79946  -5.7134    0.35304 
 1                     1.3236   -7.36826  -0.76871 
 
 ITRead=  0  0  0  0  0  0  0  0  0  0  0  0  0  0  0  0  0  0  0  0
 ITRead=  0  0  0  0  0  0  0  0  0  0  0  0  0  0  0  0  0  0  0  0
 ITRead=  0  0  0  0  0  0  0  0  0  0  0  0  0  0  0  0  0  0  0  0
 ITRead=  0  0  0  0  0  0  0  0  0  0  0  0  0  0  0  0  0  0  0  0
 ITRead=  0  0  0  0  0  0  0  0  0  0  0
 MicOpt= -1 -1 -1 -1 -1 -1 -1 -1 -1 -1 -1 -1 -1 -1 -1 -1 -1 -1 -1 -1
 MicOpt= -1 -1 -1 -1 -1 -1 -1 -1 -1 -1 -1 -1 -1 -1 -1 -1 -1 -1 -1 -1
 MicOpt= -1 -1 -1 -1 -1 -1 -1 -1 -1 -1 -1 -1 -1 -1 -1 -1 -1 -1 -1 -1
 MicOpt= -1 -1 -1 -1 -1 -1 -1 -1 -1 -1 -1 -1 -1 -1 -1 -1 -1 -1 -1 -1
 MicOpt= -1 -1 -1 -1 -1 -1 -1 -1 -1 -1 -1
 NAtoms=     91 NQM=       91 NQMF=       0 NMMI=      0 NMMIF=      0
                NMic=       0 NMicF=      0.
                    Isotopes and Nuclear Properties:
 (Nuclear quadrupole moments (NQMom) in fm**2, nuclear magnetic moments (NMagM)
  in nuclear magnetons)

  Atom         1           2           3           4           5           6           7           8           9          10
 IAtWgt=          12          12           1          12           1           1           1          12           1           1
 AtmWgt=  12.0000000  12.0000000   1.0078250  12.0000000   1.0078250   1.0078250   1.0078250  12.0000000   1.0078250   1.0078250
 NucSpn=           0           0           1           0           1           1           1           0           1           1
 AtZEff=  -0.0000000  -0.0000000  -0.0000000  -0.0000000  -0.0000000  -0.0000000  -0.0000000  -0.0000000  -0.0000000  -0.0000000
 NQMom=    0.0000000   0.0000000   0.0000000   0.0000000   0.0000000   0.0000000   0.0000000   0.0000000   0.0000000   0.0000000
 NMagM=    0.0000000   0.0000000   2.7928460   0.0000000   2.7928460   2.7928460   2.7928460   0.0000000   2.7928460   2.7928460
 AtZNuc=   6.0000000   6.0000000   1.0000000   6.0000000   1.0000000   1.0000000   1.0000000   6.0000000   1.0000000   1.0000000

  Atom        11          12          13          14          15          16          17          18          19          20
 IAtWgt=           1          11          12           1           1           1          16          16          12          12
 AtmWgt=   1.0078250  11.0093053  12.0000000   1.0078250   1.0078250   1.0078250  15.9949146  15.9949146  12.0000000  12.0000000
 NucSpn=           1           3           0           1           1           1           0           0           0           0
 AtZEff=  -0.0000000  -0.0000000  -0.0000000  -0.0000000  -0.0000000  -0.0000000  -0.0000000  -0.0000000  -0.0000000  -0.0000000
 NQMom=    0.0000000   4.0590000   0.0000000   0.0000000   0.0000000   0.0000000   0.0000000   0.0000000   0.0000000   0.0000000
 NMagM=    2.7928460   2.6886370   0.0000000   2.7928460   2.7928460   2.7928460   0.0000000   0.0000000   0.0000000   0.0000000
 AtZNuc=   1.0000000   5.0000000   6.0000000   1.0000000   1.0000000   1.0000000   8.0000000   8.0000000   6.0000000   6.0000000

  Atom        21          22          23          24          25          26          27          28          29          30
 IAtWgt=          12           1           1           1          12           1           1           1          12           1
 AtmWgt=  12.0000000   1.0078250   1.0078250   1.0078250  12.0000000   1.0078250   1.0078250   1.0078250  12.0000000   1.0078250
 NucSpn=           0           1           1           1           0           1           1           1           0           1
 AtZEff=  -0.0000000  -0.0000000  -0.0000000  -0.0000000  -0.0000000  -0.0000000  -0.0000000  -0.0000000  -0.0000000  -0.0000000
 NQMom=    0.0000000   0.0000000   0.0000000   0.0000000   0.0000000   0.0000000   0.0000000   0.0000000   0.0000000   0.0000000
 NMagM=    0.0000000   2.7928460   2.7928460   2.7928460   0.0000000   2.7928460   2.7928460   2.7928460   0.0000000   2.7928460
 AtZNuc=   6.0000000   1.0000000   1.0000000   1.0000000   6.0000000   1.0000000   1.0000000   1.0000000   6.0000000   1.0000000

  Atom        31          32          33          34          35          36          37          38          39          40
 IAtWgt=           1           1          12           1           1           1          31          16          16          14
 AtmWgt=   1.0078250   1.0078250  12.0000000   1.0078250   1.0078250   1.0078250  30.9737634  15.9949146  15.9949146  14.0030740
 NucSpn=           1           1           0           1           1           1           1           0           0           2
 AtZEff=  -0.0000000  -0.0000000  -0.0000000  -0.0000000  -0.0000000  -0.0000000  -0.0000000  -0.0000000  -0.0000000  -0.0000000
 NQMom=    0.0000000   0.0000000   0.0000000   0.0000000   0.0000000   0.0000000   0.0000000   0.0000000   0.0000000   2.0440000
 NMagM=    2.7928460   2.7928460   0.0000000   2.7928460   2.7928460   2.7928460   1.1316000   0.0000000   0.0000000   0.4037610
 AtZNuc=   1.0000000   1.0000000   6.0000000   1.0000000   1.0000000   1.0000000  15.0000000   8.0000000   8.0000000   7.0000000

  Atom        41          42          43          44          45          46          47          48          49          50
 IAtWgt=           1           1           7          12          16          12          12          12           1           1
 AtmWgt=   1.0078250   1.0078250   7.0160045  12.0000000  15.9949146  12.0000000  12.0000000  12.0000000   1.0078250   1.0078250
 NucSpn=           1           1           3           0           0           0           0           0           1           1
 AtZEff=  -0.0000000  -0.0000000  -0.0000000  -0.0000000  -0.0000000  -0.0000000  -0.0000000  -0.0000000  -0.0000000  -0.0000000
 NQMom=    0.0000000   0.0000000  -4.0100000   0.0000000   0.0000000   0.0000000   0.0000000   0.0000000   0.0000000   0.0000000
 NMagM=    2.7928460   2.7928460   3.2564240   0.0000000   0.0000000   0.0000000   0.0000000   0.0000000   2.7928460   2.7928460
 AtZNuc=   1.0000000   1.0000000   3.0000000   6.0000000   8.0000000   6.0000000   6.0000000   6.0000000   1.0000000   1.0000000

  Atom        51          52          53          54          55          56          57          58          59          60
 IAtWgt=           1           1           1           1           1           1          12          16          12          12
 AtmWgt=   1.0078250   1.0078250   1.0078250   1.0078250   1.0078250   1.0078250  12.0000000  15.9949146  12.0000000  12.0000000
 NucSpn=           1           1           1           1           1           1           0           0           0           0
 AtZEff=  -0.0000000  -0.0000000  -0.0000000  -0.0000000  -0.0000000  -0.0000000  -0.0000000  -0.0000000  -0.0000000  -0.0000000
 NQMom=    0.0000000   0.0000000   0.0000000   0.0000000   0.0000000   0.0000000   0.0000000   0.0000000   0.0000000   0.0000000
 NMagM=    2.7928460   2.7928460   2.7928460   2.7928460   2.7928460   2.7928460   0.0000000   0.0000000   0.0000000   0.0000000
 AtZNuc=   1.0000000   1.0000000   1.0000000   1.0000000   1.0000000   1.0000000   6.0000000   8.0000000   6.0000000   6.0000000

  Atom        61          62          63          64          65          66          67          68          69          70
 IAtWgt=          12           1           1           1           1           1           1           1           1          12
 AtmWgt=  12.0000000   1.0078250   1.0078250   1.0078250   1.0078250   1.0078250   1.0078250   1.0078250   1.0078250  12.0000000
 NucSpn=           0           1           1           1           1           1           1           1           1           0
 AtZEff=  -0.0000000  -0.0000000  -0.0000000  -0.0000000  -0.0000000  -0.0000000  -0.0000000  -0.0000000  -0.0000000  -0.0000000
 NQMom=    0.0000000   0.0000000   0.0000000   0.0000000   0.0000000   0.0000000   0.0000000   0.0000000   0.0000000   0.0000000
 NMagM=    0.0000000   2.7928460   2.7928460   2.7928460   2.7928460   2.7928460   2.7928460   2.7928460   2.7928460   0.0000000
 AtZNuc=   6.0000000   1.0000000   1.0000000   1.0000000   1.0000000   1.0000000   1.0000000   1.0000000   1.0000000   6.0000000

  Atom        71          72          73          74          75          76          77          78          79          80
 IAtWgt=          12          12          12           1          12           1          12           1           1           1
 AtmWgt=  12.0000000  12.0000000  12.0000000   1.0078250  12.0000000   1.0078250  12.0000000   1.0078250   1.0078250   1.0078250
 NucSpn=           0           0           0           1           0           1           0           1           1           1
 AtZEff=  -0.0000000  -0.0000000  -0.0000000  -0.0000000  -0.0000000  -0.0000000  -0.0000000  -0.0000000  -0.0000000  -0.0000000
 NQMom=    0.0000000   0.0000000   0.0000000   0.0000000   0.0000000   0.0000000   0.0000000   0.0000000   0.0000000   0.0000000
 NMagM=    0.0000000   0.0000000   0.0000000   2.7928460   0.0000000   2.7928460   0.0000000   2.7928460   2.7928460   2.7928460
 AtZNuc=   6.0000000   6.0000000   6.0000000   1.0000000   6.0000000   1.0000000   6.0000000   1.0000000   1.0000000   1.0000000

  Atom        81          82          83          84          85          86          87          88          89          90
 IAtWgt=          12          12          12          12           1          12           1          12           1           1
 AtmWgt=  12.0000000  12.0000000  12.0000000  12.0000000   1.0078250  12.0000000   1.0078250  12.0000000   1.0078250   1.0078250
 NucSpn=           0           0           0           0           1           0           1           0           1           1
 AtZEff=  -0.0000000  -0.0000000  -0.0000000  -0.0000000  -0.0000000  -0.0000000  -0.0000000  -0.0000000  -0.0000000  -0.0000000
 NQMom=    0.0000000   0.0000000   0.0000000   0.0000000   0.0000000   0.0000000   0.0000000   0.0000000   0.0000000   0.0000000
 NMagM=    0.0000000   0.0000000   0.0000000   0.0000000   2.7928460   0.0000000   2.7928460   0.0000000   2.7928460   2.7928460
 AtZNuc=   6.0000000   6.0000000   6.0000000   6.0000000   1.0000000   6.0000000   1.0000000   6.0000000   1.0000000   1.0000000

  Atom        91
 IAtWgt=           1
 AtmWgt=   1.0078250
 NucSpn=           1
 AtZEff=  -0.0000000
 NQMom=    0.0000000
 NMagM=    2.7928460
 AtZNuc=   1.0000000
 Leave Link  101 at Fri Sep 19 15:59:08 2025, MaxMem=  4294967296 cpu:               0.1 elap:               0.0
 (Enter /opt/apps/Gaussian/G16C/g16/l202.exe)
 Symmetry turned off by external request.
 Stoichiometry    C31H50BLiNO6P
 Framework group  C1[X(C31H50BLiNO6P)]
 Deg. of freedom   267
 Full point group                 C1      NOp   1
                          Input orientation:                          
 ---------------------------------------------------------------------
 Center     Atomic      Atomic             Coordinates (Angstroms)
 Number     Number       Type             X           Y           Z
 ---------------------------------------------------------------------
      1          6           0       -2.479517    1.056402   -1.238130
      2          6           0       -2.638434    0.844491    0.237308
      3          1           0       -1.679057    0.602092    0.696933
      4          6           0       -3.342970    1.914518    1.054617
      5          1           0       -2.764033    2.844968    1.064446
      6          1           0       -4.339530    2.137557    0.656032
      7          1           0       -3.459631    1.571112    2.088352
      8          6           0       -3.604845    1.718061   -1.973429
      9          1           0       -4.557238    1.252457   -1.702704
     10          1           0       -3.679960    2.778111   -1.697490
     11          1           0       -3.470190    1.642420   -3.054868
     12          5           0       -1.135646    0.790574   -1.972872
     13          6           0       -0.839164    2.472814   -1.728119
     14          1           0       -1.205414    3.003886   -0.843572
     15          1           0        0.256328    2.469505   -1.669997
     16          1           0       -1.161564    3.021617   -2.618351
     17          8           0       -0.136838   -0.075008   -1.336459
     18          8           0       -1.126499    0.467512   -3.379588
     19          6           0       -0.622213   -0.860340   -3.484133
     20          6           0        0.464559   -0.887946   -2.361699
     21          6           0       -0.078068   -1.075644   -4.890827
     22          1           0       -0.905120   -1.082925   -5.610045
     23          1           0        0.612757   -0.278372   -5.179277
     24          1           0        0.443708   -2.037190   -4.966060
     25          6           0       -1.758532   -1.856412   -3.215883
     26          1           0       -1.434767   -2.891010   -3.377010
     27          1           0       -2.141765   -1.770901   -2.193782
     28          1           0       -2.583166   -1.643582   -3.905637
     29          6           0        1.769892   -0.223874   -2.804173
     30          1           0        2.431202   -0.126640   -1.939569
     31          1           0        2.291052   -0.827112   -3.556024
     32          1           0        1.588667    0.772593   -3.220524
     33          6           0        0.755593   -2.266772   -1.788442
     34          1           0       -0.135983   -2.710810   -1.341683
     35          1           0        1.131002   -2.939570   -2.568921
     36          1           0        1.519864   -2.194149   -1.007014
     37         15           0       -0.938882   -2.797570    1.819861
     38          8           0        0.002285   -1.627082    1.566562
     39          8           0       -2.400261   -2.691211    1.427857
     40          7           0       -3.404148   -0.383463    0.035791
     41          1           0       -3.005375   -1.207672    0.500870
     42          1           0       -4.389360   -0.274754    0.253043
     43          3           0        0.566732   -0.235174    0.479887
     44          6           0       -0.160115    1.123701    3.059710
     45          8           0        0.274837    1.397245    1.725232
     46          6           0        0.457384    2.811509    1.633227
     47          6           0        0.825163    3.298311    3.051870
     48          6           0        0.713078    2.028032    3.916947
     49          1           0       -1.224767    1.385144    3.157995
     50          1           0       -0.040794    0.053506    3.227129
     51          1           0        1.232466    2.998595    0.887065
     52          1           0       -0.476650    3.272655    1.288943
     53          1           0        1.828302    3.732189    3.088008
     54          1           0        0.119092    4.064671    3.385192
     55          1           0        1.695807    1.564553    4.059181
     56          1           0        0.276769    2.219324    4.901200
     57          6           0        2.976367   -0.696695    1.946775
     58          8           0        2.594323   -0.263678    0.627767
     59          6           0        3.318303    0.924438    0.273909
     60          6           0        3.921734    1.446855    1.570319
     61          6           0        4.189147    0.144437    2.328971
     62          1           0        2.132013   -0.523205    2.621435
     63          1           0        3.178724   -1.770400    1.908236
     64          1           0        4.102090    0.658451   -0.447770
     65          1           0        2.623698    1.618817   -0.207510
     66          1           0        4.822175    2.042367    1.396470
     67          1           0        3.194903    2.061299    2.111568
     68          1           0        5.113297   -0.323028    1.970164
     69          1           0        4.268867    0.281578    3.411078
     70          6           0       -0.826262   -3.177873    3.608292
     71          6           0       -1.846018   -3.891194    4.247415
     72          6           0        0.290099   -2.779309    4.351540
     73          6           0       -1.753396   -4.199194    5.604020
     74          1           0       -2.719957   -4.199404    3.678886
     75          6           0        0.386136   -3.084821    5.708609
     76          1           0        1.083837   -2.220688    3.861922
     77          6           0       -0.636244   -3.796465    6.336617
     78          1           0       -2.553619   -4.750966    6.090566
     79          1           0        1.257376   -2.767510    6.276224
     80          1           0       -0.563544   -4.035373    7.394507
     81          6           0       -0.219571   -4.272850    1.009326
     82          6           0       -1.042203   -5.210021    0.379369
     83          6           0        1.166212   -4.467114    0.996507
     84          6           0       -0.490132   -6.320978   -0.259636
     85          1           0       -2.118147   -5.056828    0.379146
     86          6           0        1.721168   -5.575567    0.362131
     87          1           0        1.814485   -3.734030    1.470690
     88          6           0        0.891833   -6.504651   -0.269354
     89          1           0       -1.138911   -7.040338   -0.752892
     90          1           0        2.799457   -5.713402    0.353041
     91          1           0        1.323596   -7.368261   -0.768709
 ---------------------------------------------------------------------
 Rotational constants (GHZ):           0.0955174           0.0759007           0.0639127
 Leave Link  202 at Fri Sep 19 15:59:08 2025, MaxMem=  4294967296 cpu:               0.1 elap:               0.0
 (Enter /opt/apps/Gaussian/G16C/g16/l301.exe)
 Standard basis: 6-311++G(d,p) (5D, 7F)
 Ernie: Thresh=  0.10000D-02 Tol=  0.10000D-05 Strict=F.
  1260 basis functions,  1940 primitive gaussians,  1301 cartesian basis functions
   157 alpha electrons      157 beta electrons
       nuclear repulsion energy      5667.1670204926 Hartrees.
 IExCor= 4639 DFT=T Ex+Corr=wB97XD ExCW=0 ScaHFX=  1.000000
 ScaDFX=  1.000000  1.000000  1.000000  1.000000 ScalE2=  1.000000  1.000000
 IRadAn=      5 IRanWt=     -1 IRanGd=            0 ICorTp=0 IEmpDi=121
 HFx  wShort=  0.000000 wLong=  0.200000 cFull=  0.222036 cShort=  0.000000 cLong=  0.777964
 DFx  wShort=  0.000000 wLong=  0.200000 cFull=  0.000000 cShort=  0.000000 cLong=  1.000000
 NAtoms=   91 NActive=   91 NUniq=   91 SFac= 1.00D+00 NAtFMM=   60 NAOKFM=T Big=T
 Integral buffers will be    131072 words long.
 Raffenetti 2 integral format.
 Two-electron integral symmetry is turned off.
 R6Disp:  Grimme-D2 Dispersion energy=       -0.1137855291 Hartrees.
 Nuclear repulsion after empirical dispersion term =     5667.0532349635 Hartrees.
 ------------------------------------------------------------------------------
 Polarizable Continuum Model (PCM)
 =================================
 Model                : PCM.
 Atomic radii         : SMD-Coulomb.
 Polarization charges : Total charges.
 Charge compensation  : None.
 Solution method      : On-the-fly selection.
 Cavity type          : VdW (van der Waals Surface) (Alpha=1.000).
 Cavity algorithm     : GePol (No added spheres)
                        Default sphere list used, NSphG=   91.
                        Lebedev-Laikov grids with approx.  5.0 points / Ang**2.
                        Smoothing algorithm: York/Karplus (Gamma=1.0000).
                        Polarization charges: spherical gaussians, with
                                              point-specific exponents (IZeta= 3).
                        Self-potential: point-specific (ISelfS= 7).
                        Self-field    : sphere-specific E.n sum rule (ISelfD= 2).
 Solvent              : TetraHydroFuran, Eps=   7.425700 Eps(inf)=   1.974025
 ------------------------------------------------------------------------------
 GePol: Number of generator spheres                  =      91
 GePol: Total number of spheres                      =      91
 GePol: Number of exposed spheres                    =      88 ( 96.70%)
 GePol: Number of points                             =    5555
 GePol: Average weight of points                     =       0.11
 GePol: Minimum weight of points                     =   0.22D-10
 GePol: Maximum weight of points                     =    0.17992
 GePol: Number of points with low weight             =     374
 GePol: Fraction of low-weight points (<1% of avg)   =       6.73%
 GePol: Cavity surface area                          =    599.322 Ang**2
 GePol: Cavity volume                                =    666.135 Ang**3
 ------------------------------------------------------------------------------
 Atomic radii for non-electrostatic terms: SMD-CDS.
 ------------------------------------------------------------------------------
 PCM non-electrostatic energy =        -0.0091664208 Hartrees.
 Nuclear repulsion after PCM non-electrostatic terms =     5667.0440685427 Hartrees.
 Leave Link  301 at Fri Sep 19 15:59:08 2025, MaxMem=  4294967296 cpu:               0.1 elap:               0.1
 (Enter /opt/apps/Gaussian/G16C/g16/l302.exe)
 NPDir=0 NMtPBC=     1 NCelOv=     1 NCel=       1 NClECP=     1 NCelD=      1
         NCelK=      1 NCelE2=     1 NClLst=     1 CellRange=     0.0.
 One-electron integrals computed using PRISM.
 NBasis=  1260 RedAO= T EigKep=  1.11D-06  NBF=  1260
 NBsUse=  1251 1.00D-06 EigRej=  9.81D-07 NBFU=  1251
 Precomputing XC quadrature grid using
 IXCGrd= 4 IRadAn=           5 IRanWt=          -1 IRanGd=           0 AccXCQ= 0.00D+00.
 Generated NRdTot=       0 NPtTot=           0 NUsed=           0 NTot=          32
 NSgBfM=  1268  1265  1265  1265  1268 MxSgAt=    91 MxSgA2=    91.
 Leave Link  302 at Fri Sep 19 15:59:11 2025, MaxMem=  4294967296 cpu:              19.5 elap:               2.6
 (Enter /opt/apps/Gaussian/G16C/g16/l303.exe)
 DipDrv:  MaxL=1.
 Leave Link  303 at Fri Sep 19 15:59:11 2025, MaxMem=  4294967296 cpu:               0.3 elap:               0.2
 (Enter /opt/apps/Gaussian/G16C/g16/l401.exe)
 ExpMin= 7.40D-03 ExpMax= 7.75D+04 ExpMxC= 2.65D+03 IAcc=3 IRadAn=         5 AccDes= 0.00D+00
 Harris functional with IExCor= 4639 and IRadAn=       5 diagonalized for initial guess.
 HarFok:  IExCor= 4639 AccDes= 0.00D+00 IRadAn=         5 IDoV= 1 UseB2=F ITyADJ=14
 ICtDFT=  3500011 ScaDFX=  1.000000  1.000000  1.000000  1.000000
 FoFCou: FMM=F IPFlag=           0 FMFlag=      100000 FMFlg1=        2001
         NFxFlg=           0 DoJE=T BraDBF=F KetDBF=T FulRan=T
         wScrn=  0.000000 ICntrl=       500 IOpCl=  0 I1Cent=   200000004 NGrid=           0
         NMat0=    1 NMatS0=      1 NMatT0=    0 NMatD0=    1 NMtDS0=    0 NMtDT0=    0
 Symmetry not used in FoFCou.
 Harris En= -2007.31227178080    
 JPrj=0 DoOrth=F DoCkMO=F.
 Leave Link  401 at Fri Sep 19 15:59:24 2025, MaxMem=  4294967296 cpu:             186.7 elap:              12.6
 (Enter /opt/apps/Gaussian/G16C/g16/l502.exe)
 Two-electron integral symmetry not used.
 Closed shell SCF:
 Using DIIS extrapolation, IDIIS=  1040.
 NGot=  4294967296 LenX=  4291549693 LenY=  4289855791
 Requested convergence on RMS density matrix=1.00D-08 within 128 cycles.
 Requested convergence on MAX density matrix=1.00D-06.
 Requested convergence on             energy=1.00D-06.
 No special actions if energy rises.
 Fock matrices will be formed incrementally for  20 cycles.

 Cycle   1  Pass 1  IDiag  1:
 FoFJK:  IHMeth= 1 ICntrl=       0 DoSepK=T KAlg= 0 I1Cent=           0 FoldK=F
 IRaf=         1 NMat=       1 IRICut=       1 DoRegI=T DoRafI=F ISym2E= 0 IDoP0=0 IntGTp=1.
 FoFCou: FMM=T IPFlag=           0 FMFlag=      100000 FMFlg1=        2001
         NFxFlg=           0 DoJE=T BraDBF=F KetDBF=F FulRan=T
         wScrn=  0.000000 ICntrl=       500 IOpCl=  0 I1Cent=           0 NGrid=           0
         NMat0=    1 NMatS0=      1 NMatT0=    0 NMatD0=    1 NMtDS0=    0 NMtDT0=    0
 Symmetry not used in FoFCou.
 FMM levels:  10  Number of levels for PrismC:   9
 Inv3:  Mode=1 IEnd=    92574075.
 Iteration    1 A*A^-1 deviation from unit magnitude is 7.33D-15 for   5542.
 Iteration    1 A*A^-1 deviation from orthogonality  is 6.37D-15 for   5545    845.
 Iteration    1 A^-1*A deviation from unit magnitude is 7.11D-15 for   5542.
 Iteration    1 A^-1*A deviation from orthogonality  is 1.69D-14 for   2111   2053.
 E= -2090.83680194544    
 DIIS: error= 4.60D-02 at cycle   1 NSaved=   1.
 NSaved= 1 IEnMin= 1 EnMin= -2090.83680194544     IErMin= 1 ErrMin= 4.60D-02
 ErrMax= 4.60D-02  0.00D+00 EMaxC= 1.00D-01 BMatC= 4.66D+00 BMatP= 4.66D+00
 IDIUse=3 WtCom= 5.40D-01 WtEn= 4.60D-01
 Coeff-Com:  0.100D+01
 Coeff-En:   0.100D+01
 Coeff:      0.100D+01
 Gap=     0.378 Goal=   None    Shift=    0.000
 GapD=    0.378 DampG=1.000 DampE=0.500 DampFc=0.5000 IDamp=-1.
 Damping current iteration by 5.00D-01
 RMSDP=1.75D-02 MaxDP=5.13D+00              OVMax= 1.11D-01

 Cycle   2  Pass 1  IDiag  1:
 RMSU=  6.77D-03    CP:  9.01D-01
 E= -2091.14190046371     Delta-E=       -0.305098518274 Rises=F Damp=T
 DIIS: error= 2.08D-02 at cycle   2 NSaved=   2.
 NSaved= 2 IEnMin= 2 EnMin= -2091.14190046371     IErMin= 2 ErrMin= 2.08D-02
 ErrMax= 2.08D-02  0.00D+00 EMaxC= 1.00D-01 BMatC= 9.23D-01 BMatP= 4.66D+00
 IDIUse=3 WtCom= 7.92D-01 WtEn= 2.08D-01
 Coeff-Com: -0.648D+00 0.165D+01
 Coeff-En:   0.000D+00 0.100D+01
 Coeff:     -0.513D+00 0.151D+01
 Gap=     0.330 Goal=   None    Shift=    0.000
 RMSDP=1.31D-02 MaxDP=3.27D+00 DE=-3.05D-01 OVMax= 8.28D-02

 Cycle   3  Pass 1  IDiag  1:
 RMSU=  6.12D-03    CP:  6.96D-01  1.17D+00
 E= -2091.35385051437     Delta-E=       -0.211950050656 Rises=F Damp=F
 DIIS: error= 9.13D-03 at cycle   3 NSaved=   3.
 NSaved= 3 IEnMin= 3 EnMin= -2091.35385051437     IErMin= 3 ErrMin= 9.13D-03
 ErrMax= 9.13D-03  0.00D+00 EMaxC= 1.00D-01 BMatC= 1.33D-01 BMatP= 9.23D-01
 IDIUse=3 WtCom= 9.09D-01 WtEn= 9.13D-02
 Coeff-Com: -0.329D+00 0.728D+00 0.601D+00
 Coeff-En:   0.000D+00 0.000D+00 0.100D+01
 Coeff:     -0.299D+00 0.662D+00 0.637D+00
 Gap=     0.335 Goal=   None    Shift=    0.000
 RMSDP=3.60D-03 MaxDP=3.90D-01 DE=-2.12D-01 OVMax= 4.59D-02

 Cycle   4  Pass 1  IDiag  1:
 RMSU=  2.18D-03    CP:  6.94D-01  1.42D+00  6.21D-01
 E= -2091.43992208988     Delta-E=       -0.086071575511 Rises=F Damp=F
 DIIS: error= 2.54D-03 at cycle   4 NSaved=   4.
 NSaved= 4 IEnMin= 4 EnMin= -2091.43992208988     IErMin= 4 ErrMin= 2.54D-03
 ErrMax= 2.54D-03  0.00D+00 EMaxC= 1.00D-01 BMatC= 9.74D-03 BMatP= 1.33D-01
 IDIUse=3 WtCom= 9.75D-01 WtEn= 2.54D-02
 Coeff-Com: -0.102D+00 0.221D+00 0.301D+00 0.581D+00
 Coeff-En:   0.000D+00 0.000D+00 0.000D+00 0.100D+01
 Coeff:     -0.999D-01 0.215D+00 0.293D+00 0.592D+00
 Gap=     0.317 Goal=   None    Shift=    0.000
 RMSDP=7.21D-04 MaxDP=6.93D-02 DE=-8.61D-02 OVMax= 8.95D-03

 Cycle   5  Pass 1  IDiag  1:
 RMSU=  3.77D-04    CP:  6.97D-01  1.43D+00  6.80D-01  7.86D-01
 E= -2091.44605243144     Delta-E=       -0.006130341563 Rises=F Damp=F
 DIIS: error= 1.97D-04 at cycle   5 NSaved=   5.
 NSaved= 5 IEnMin= 5 EnMin= -2091.44605243144     IErMin= 5 ErrMin= 1.97D-04
 ErrMax= 1.97D-04  0.00D+00 EMaxC= 1.00D-01 BMatC= 1.38D-04 BMatP= 9.74D-03
 IDIUse=3 WtCom= 9.98D-01 WtEn= 1.97D-03
 Coeff-Com: -0.141D-01 0.294D-01 0.626D-01 0.179D+00 0.743D+00
 Coeff-En:   0.000D+00 0.000D+00 0.000D+00 0.000D+00 0.100D+01
 Coeff:     -0.141D-01 0.294D-01 0.625D-01 0.179D+00 0.743D+00
 Gap=     0.317 Goal=   None    Shift=    0.000
 RMSDP=2.61D-04 MaxDP=4.12D-02 DE=-6.13D-03 OVMax= 1.70D-03

 Cycle   6  Pass 1  IDiag  1:
 RMSU=  1.55D-04    CP:  6.94D-01  1.43D+00  6.98D-01  8.36D-01  9.36D-01
 E= -2091.44618230474     Delta-E=       -0.000129873293 Rises=F Damp=F
 DIIS: error= 6.85D-05 at cycle   6 NSaved=   6.
 NSaved= 6 IEnMin= 6 EnMin= -2091.44618230474     IErMin= 6 ErrMin= 6.85D-05
 ErrMax= 6.85D-05  0.00D+00 EMaxC= 1.00D-01 BMatC= 1.78D-05 BMatP= 1.38D-04
 IDIUse=1 WtCom= 1.00D+00 WtEn= 0.00D+00
 Coeff-Com:  0.725D-02-0.158D-01-0.137D-01-0.131D-01 0.243D+00 0.792D+00
 Coeff:      0.725D-02-0.158D-01-0.137D-01-0.131D-01 0.243D+00 0.792D+00
 Gap=     0.317 Goal=   None    Shift=    0.000
 RMSDP=1.04D-04 MaxDP=1.68D-02 DE=-1.30D-04 OVMax= 1.49D-03

 Cycle   7  Pass 1  IDiag  1:
 RMSU=  5.15D-05    CP:  6.93D-01  1.43D+00  7.04D-01  8.49D-01  1.04D+00
                    CP:  1.04D+00
 E= -2091.44620203425     Delta-E=       -0.000019729512 Rises=F Damp=F
 DIIS: error= 3.53D-05 at cycle   7 NSaved=   7.
 NSaved= 7 IEnMin= 7 EnMin= -2091.44620203425     IErMin= 7 ErrMin= 3.53D-05
 ErrMax= 3.53D-05  0.00D+00 EMaxC= 1.00D-01 BMatC= 3.44D-06 BMatP= 1.78D-05
 IDIUse=1 WtCom= 1.00D+00 WtEn= 0.00D+00
 Coeff-Com:  0.475D-02-0.102D-01-0.134D-01-0.277D-01 0.218D-01 0.366D+00
 Coeff-Com:  0.659D+00
 Coeff:      0.475D-02-0.102D-01-0.134D-01-0.277D-01 0.218D-01 0.366D+00
 Coeff:      0.659D+00
 Gap=     0.317 Goal=   None    Shift=    0.000
 RMSDP=4.69D-05 MaxDP=6.06D-03 DE=-1.97D-05 OVMax= 5.01D-04

 Cycle   8  Pass 1  IDiag  1:
 RMSU=  2.15D-05    CP:  6.93D-01  1.43D+00  7.04D-01  8.58D-01  1.08D+00
                    CP:  1.14D+00  7.38D-01
 E= -2091.44620563752     Delta-E=       -0.000003603276 Rises=F Damp=F
 DIIS: error= 1.23D-05 at cycle   8 NSaved=   8.
 NSaved= 8 IEnMin= 8 EnMin= -2091.44620563752     IErMin= 8 ErrMin= 1.23D-05
 ErrMax= 1.23D-05  0.00D+00 EMaxC= 1.00D-01 BMatC= 2.76D-07 BMatP= 3.44D-06
 IDIUse=1 WtCom= 1.00D+00 WtEn= 0.00D+00
 Coeff-Com:  0.486D-03-0.101D-02-0.210D-02-0.623D-02-0.258D-01 0.210D-01
 Coeff-Com:  0.211D+00 0.803D+00
 Coeff:      0.486D-03-0.101D-02-0.210D-02-0.623D-02-0.258D-01 0.210D-01
 Coeff:      0.211D+00 0.803D+00
 Gap=     0.317 Goal=   None    Shift=    0.000
 RMSDP=1.20D-05 MaxDP=1.48D-03 DE=-3.60D-06 OVMax= 3.66D-04

 Cycle   9  Pass 1  IDiag  1:
 RMSU=  6.36D-06    CP:  6.93D-01  1.43D+00  7.04D-01  8.59D-01  1.08D+00
                    CP:  1.19D+00  8.14D-01  1.02D+00
 E= -2091.44620617154     Delta-E=       -0.000000534014 Rises=F Damp=F
 DIIS: error= 7.88D-06 at cycle   9 NSaved=   9.
 NSaved= 9 IEnMin= 9 EnMin= -2091.44620617154     IErMin= 9 ErrMin= 7.88D-06
 ErrMax= 7.88D-06  0.00D+00 EMaxC= 1.00D-01 BMatC= 6.53D-08 BMatP= 2.76D-07
 IDIUse=1 WtCom= 1.00D+00 WtEn= 0.00D+00
 Coeff-Com: -0.619D-03 0.134D-02 0.153D-02 0.242D-02-0.152D-01-0.557D-01
 Coeff-Com: -0.393D-01 0.329D+00 0.776D+00
 Coeff:     -0.619D-03 0.134D-02 0.153D-02 0.242D-02-0.152D-01-0.557D-01
 Coeff:     -0.393D-01 0.329D+00 0.776D+00
 Gap=     0.317 Goal=   None    Shift=    0.000
 RMSDP=7.20D-06 MaxDP=1.13D-03 DE=-5.34D-07 OVMax= 2.03D-04

 Cycle  10  Pass 1  IDiag  1:
 RMSU=  2.99D-06    CP:  6.93D-01  1.43D+00  7.05D-01  8.60D-01  1.08D+00
                    CP:  1.21D+00  8.10D-01  1.24D+00  1.09D+00
 E= -2091.44620631263     Delta-E=       -0.000000141095 Rises=F Damp=F
 DIIS: error= 2.19D-06 at cycle  10 NSaved=  10.
 NSaved=10 IEnMin=10 EnMin= -2091.44620631263     IErMin=10 ErrMin= 2.19D-06
 ErrMax= 2.19D-06  0.00D+00 EMaxC= 1.00D-01 BMatC= 1.04D-08 BMatP= 6.53D-08
 IDIUse=1 WtCom= 1.00D+00 WtEn= 0.00D+00
 Coeff-Com: -0.262D-03 0.561D-03 0.801D-03 0.162D-02-0.124D-02-0.204D-01
 Coeff-Com: -0.511D-01-0.197D-01 0.269D+00 0.820D+00
 Coeff:     -0.262D-03 0.561D-03 0.801D-03 0.162D-02-0.124D-02-0.204D-01
 Coeff:     -0.511D-01-0.197D-01 0.269D+00 0.820D+00
 Gap=     0.317 Goal=   None    Shift=    0.000
 RMSDP=2.33D-06 MaxDP=4.04D-04 DE=-1.41D-07 OVMax= 8.68D-05

 Cycle  11  Pass 1  IDiag  1:
 RMSU=  1.24D-06    CP:  6.93D-01  1.43D+00  7.05D-01  8.60D-01  1.08D+00
                    CP:  1.21D+00  8.17D-01  1.28D+00  1.31D+00  1.18D+00
 E= -2091.44620633707     Delta-E=       -0.000000024438 Rises=F Damp=F
 DIIS: error= 1.32D-06 at cycle  11 NSaved=  11.
 NSaved=11 IEnMin=11 EnMin= -2091.44620633707     IErMin=11 ErrMin= 1.32D-06
 ErrMax= 1.32D-06  0.00D+00 EMaxC= 1.00D-01 BMatC= 2.16D-09 BMatP= 1.04D-08
 IDIUse=1 WtCom= 1.00D+00 WtEn= 0.00D+00
 Coeff-Com:  0.102D-04-0.254D-04 0.499D-04 0.216D-03 0.295D-02 0.435D-02
 Coeff-Com: -0.158D-01-0.832D-01-0.409D-01 0.357D+00 0.775D+00
 Coeff:      0.102D-04-0.254D-04 0.499D-04 0.216D-03 0.295D-02 0.435D-02
 Coeff:     -0.158D-01-0.832D-01-0.409D-01 0.357D+00 0.775D+00
 Gap=     0.317 Goal=   None    Shift=    0.000
 RMSDP=1.26D-06 MaxDP=1.30D-04 DE=-2.44D-08 OVMax= 4.42D-05

 Cycle  12  Pass 1  IDiag  1:
 RMSU=  5.98D-07    CP:  6.93D-01  1.43D+00  7.05D-01  8.60D-01  1.08D+00
                    CP:  1.21D+00  8.06D-01  1.31D+00  1.38D+00  1.30D+00
                    CP:  1.04D+00
 E= -2091.44620634138     Delta-E=       -0.000000004304 Rises=F Damp=F
 DIIS: error= 4.07D-07 at cycle  12 NSaved=  12.
 NSaved=12 IEnMin=12 EnMin= -2091.44620634138     IErMin=12 ErrMin= 4.07D-07
 ErrMax= 4.07D-07  0.00D+00 EMaxC= 1.00D-01 BMatC= 2.62D-10 BMatP= 2.16D-09
 IDIUse=1 WtCom= 1.00D+00 WtEn= 0.00D+00
 Coeff-Com:  0.364D-04-0.793D-04-0.832D-04-0.126D-03 0.109D-02 0.413D-02
 Coeff-Com:  0.421D-03-0.269D-01-0.420D-01 0.143D-01 0.277D+00 0.772D+00
 Coeff:      0.364D-04-0.793D-04-0.832D-04-0.126D-03 0.109D-02 0.413D-02
 Coeff:      0.421D-03-0.269D-01-0.420D-01 0.143D-01 0.277D+00 0.772D+00
 Gap=     0.317 Goal=   None    Shift=    0.000
 RMSDP=4.74D-07 MaxDP=8.54D-05 DE=-4.30D-09 OVMax= 1.71D-05

 Cycle  13  Pass 1  IDiag  1:
 RMSU=  1.79D-07    CP:  6.93D-01  1.43D+00  7.05D-01  8.60D-01  1.08D+00
                    CP:  1.21D+00  8.05D-01  1.31D+00  1.40D+00  1.34D+00
                    CP:  1.22D+00  1.12D+00
 E= -2091.44620634177     Delta-E=       -0.000000000397 Rises=F Damp=F
 DIIS: error= 1.38D-07 at cycle  13 NSaved=  13.
 NSaved=13 IEnMin=13 EnMin= -2091.44620634177     IErMin=13 ErrMin= 1.38D-07
 ErrMax= 1.38D-07  0.00D+00 EMaxC= 1.00D-01 BMatC= 4.93D-11 BMatP= 2.62D-10
 IDIUse=1 WtCom= 1.00D+00 WtEn= 0.00D+00
 Coeff-Com:  0.695D-05-0.146D-04-0.258D-04-0.553D-04-0.222D-03 0.434D-03
 Coeff-Com:  0.286D-02 0.566D-02-0.386D-02-0.676D-01-0.572D-01 0.273D+00
 Coeff-Com:  0.847D+00
 Coeff:      0.695D-05-0.146D-04-0.258D-04-0.553D-04-0.222D-03 0.434D-03
 Coeff:      0.286D-02 0.566D-02-0.386D-02-0.676D-01-0.572D-01 0.273D+00
 Coeff:      0.847D+00
 Gap=     0.317 Goal=   None    Shift=    0.000
 RMSDP=2.24D-07 MaxDP=6.22D-05 DE=-3.97D-10 OVMax= 7.58D-06

 Cycle  14  Pass 1  IDiag  1:
 RMSU=  7.70D-08    CP:  6.93D-01  1.43D+00  7.05D-01  8.60D-01  1.08D+00
                    CP:  1.21D+00  8.04D-01  1.31D+00  1.41D+00  1.35D+00
                    CP:  1.28D+00  1.33D+00  1.10D+00
 E= -2091.44620634219     Delta-E=       -0.000000000421 Rises=F Damp=F
 DIIS: error= 4.76D-08 at cycle  14 NSaved=  14.
 NSaved=14 IEnMin=14 EnMin= -2091.44620634219     IErMin=14 ErrMin= 4.76D-08
 ErrMax= 4.76D-08  0.00D+00 EMaxC= 1.00D-01 BMatC= 8.67D-12 BMatP= 4.93D-11
 IDIUse=1 WtCom= 1.00D+00 WtEn= 0.00D+00
 Coeff-Com: -0.261D-06 0.983D-06-0.421D-05-0.177D-04-0.264D-03-0.273D-03
 Coeff-Com:  0.143D-02 0.644D-02 0.479D-02-0.340D-01-0.633D-01 0.298D-01
 Coeff-Com:  0.386D+00 0.670D+00
 Coeff:     -0.261D-06 0.983D-06-0.421D-05-0.177D-04-0.264D-03-0.273D-03
 Coeff:      0.143D-02 0.644D-02 0.479D-02-0.340D-01-0.633D-01 0.298D-01
 Coeff:      0.386D+00 0.670D+00
 Gap=     0.317 Goal=   None    Shift=    0.000
 RMSDP=6.39D-08 MaxDP=1.83D-05 DE=-4.21D-10 OVMax= 2.17D-06

 Cycle  15  Pass 1  IDiag  1:
 RMSU=  2.39D-08    CP:  6.93D-01  1.43D+00  7.05D-01  8.60D-01  1.08D+00
                    CP:  1.21D+00  8.04D-01  1.31D+00  1.41D+00  1.35D+00
                    CP:  1.30D+00  1.38D+00  1.18D+00  1.07D+00
 E= -2091.44620634189     Delta-E=        0.000000000309 Rises=F Damp=F
 DIIS: error= 2.72D-08 at cycle  15 NSaved=  15.
 NSaved=15 IEnMin=14 EnMin= -2091.44620634219     IErMin=15 ErrMin= 2.72D-08
 ErrMax= 2.72D-08  0.00D+00 EMaxC= 1.00D-01 BMatC= 6.28D-13 BMatP= 8.67D-12
 IDIUse=1 WtCom= 1.00D+00 WtEn= 0.00D+00
 Coeff-Com: -0.107D-05 0.229D-05 0.338D-05 0.377D-05-0.196D-04-0.949D-04
 Coeff-Com: -0.191D-03 0.213D-03 0.160D-02 0.297D-02-0.316D-02-0.323D-01
 Coeff-Com: -0.568D-01 0.110D+00 0.978D+00
 Coeff:     -0.107D-05 0.229D-05 0.338D-05 0.377D-05-0.196D-04-0.949D-04
 Coeff:     -0.191D-03 0.213D-03 0.160D-02 0.297D-02-0.316D-02-0.323D-01
 Coeff:     -0.568D-01 0.110D+00 0.978D+00
 Gap=     0.317 Goal=   None    Shift=    0.000
 RMSDP=2.25D-08 MaxDP=6.19D-06 DE= 3.09D-10 OVMax= 1.33D-06

 Cycle  16  Pass 1  IDiag  1:
 RMSU=  1.03D-08    CP:  6.93D-01  1.43D+00  7.05D-01  8.60D-01  1.08D+00
                    CP:  1.21D+00  8.04D-01  1.30D+00  1.41D+00  1.35D+00
                    CP:  1.30D+00  1.39D+00  1.22D+00  1.17D+00  1.41D+00
 E= -2091.44620634251     Delta-E=       -0.000000000626 Rises=F Damp=F
 DIIS: error= 1.09D-08 at cycle  16 NSaved=  16.
 NSaved=16 IEnMin=16 EnMin= -2091.44620634251     IErMin=16 ErrMin= 1.09D-08
 ErrMax= 1.09D-08  0.00D+00 EMaxC= 1.00D-01 BMatC= 1.32D-13 BMatP= 6.28D-13
 IDIUse=1 WtCom= 1.00D+00 WtEn= 0.00D+00
 Coeff-Com: -0.322D-06 0.637D-06 0.161D-05 0.338D-05 0.227D-04 0.384D-05
 Coeff-Com: -0.232D-03-0.664D-03 0.405D-04 0.471D-02 0.599D-02-0.128D-01
 Coeff-Com: -0.687D-01-0.563D-01 0.308D+00 0.820D+00
 Coeff:     -0.322D-06 0.637D-06 0.161D-05 0.338D-05 0.227D-04 0.384D-05
 Coeff:     -0.232D-03-0.664D-03 0.405D-04 0.471D-02 0.599D-02-0.128D-01
 Coeff:     -0.687D-01-0.563D-01 0.308D+00 0.820D+00
 Gap=     0.317 Goal=   None    Shift=    0.000
 RMSDP=8.43D-09 MaxDP=2.11D-06 DE=-6.26D-10 OVMax= 4.45D-07

 Cycle  17  Pass 1  IDiag  1:
 RMSU=  3.51D-09    CP:  6.93D-01  1.43D+00  7.05D-01  8.60D-01  1.08D+00
                    CP:  1.21D+00  8.04D-01  1.30D+00  1.41D+00  1.35D+00
                    CP:  1.30D+00  1.40D+00  1.22D+00  1.22D+00  1.56D+00
                    CP:  1.17D+00
 E= -2091.44620634202     Delta-E=        0.000000000487 Rises=F Damp=F
 DIIS: error= 5.64D-09 at cycle  17 NSaved=  17.
 NSaved=17 IEnMin=16 EnMin= -2091.44620634251     IErMin=17 ErrMin= 5.64D-09
 ErrMax= 5.64D-09  0.00D+00 EMaxC= 1.00D-01 BMatC= 2.16D-14 BMatP= 1.32D-13
 IDIUse=1 WtCom= 1.00D+00 WtEn= 0.00D+00
 Coeff-Com:  0.873D-07-0.202D-06-0.382D-07 0.701D-06 0.111D-04 0.207D-04
 Coeff-Com: -0.500D-04-0.286D-03-0.226D-03 0.115D-02 0.270D-02 0.263D-02
 Coeff-Com: -0.145D-01-0.385D-01-0.569D-01 0.257D+00 0.847D+00
 Coeff:      0.873D-07-0.202D-06-0.382D-07 0.701D-06 0.111D-04 0.207D-04
 Coeff:     -0.500D-04-0.286D-03-0.226D-03 0.115D-02 0.270D-02 0.263D-02
 Coeff:     -0.145D-01-0.385D-01-0.569D-01 0.257D+00 0.847D+00
 Gap=     0.317 Goal=   None    Shift=    0.000
 RMSDP=3.30D-09 MaxDP=6.75D-07 DE= 4.87D-10 OVMax= 1.78D-07

 Error on total polarization charges =  0.07541
 SCF Done:  E(RwB97XD) =  -2091.44620634     A.U. after   17 cycles
            NFock= 17  Conv=0.33D-08     -V/T= 2.0040
 KE= 2.083094878301D+03 PE=-1.622915598169D+04 EE= 6.387570828507D+03
 SMD-CDS (non-electrostatic) energy       (kcal/mol) =      -5.75
 (included in total energy above)
 Leave Link  502 at Fri Sep 19 16:38:50 2025, MaxMem=  4294967296 cpu:           32751.5 elap:            2365.9
 (Enter /opt/apps/Gaussian/G16C/g16/l601.exe)
 Copying SCF densities to generalized density rwf, IOpCl= 0 IROHF=0.

 **********************************************************************

            Population analysis using the SCF Density.

 **********************************************************************

 Alpha  occ. eigenvalues --  -77.26231 -19.25974 -19.25482 -19.21631 -19.20103
 Alpha  occ. eigenvalues --  -19.17534 -19.17028 -14.41002 -10.32880 -10.32649
 Alpha  occ. eigenvalues --  -10.32589 -10.32544 -10.32168 -10.32140 -10.31889
 Alpha  occ. eigenvalues --  -10.31356 -10.28802 -10.28714 -10.28645 -10.28639
 Alpha  occ. eigenvalues --  -10.28632 -10.28564 -10.28555 -10.28462 -10.28421
 Alpha  occ. eigenvalues --  -10.28360 -10.28218 -10.28026 -10.28008 -10.27950
 Alpha  occ. eigenvalues --  -10.27949 -10.27780 -10.27539 -10.26960 -10.25597
 Alpha  occ. eigenvalues --  -10.25499 -10.25448 -10.25208 -10.24951  -6.84000
 Alpha  occ. eigenvalues --   -6.70541  -4.85260  -4.85231  -4.85226  -1.98591
 Alpha  occ. eigenvalues --   -1.15083  -1.14275  -1.12631  -1.06859  -1.05735
 Alpha  occ. eigenvalues --   -1.00940  -0.99795  -0.95552  -0.95346  -0.88735
 Alpha  occ. eigenvalues --   -0.88540  -0.87932  -0.86978  -0.84959  -0.84378
 Alpha  occ. eigenvalues --   -0.84185  -0.83993  -0.83921  -0.83391  -0.82778
 Alpha  occ. eigenvalues --   -0.81983  -0.78491  -0.77897  -0.75759  -0.74209
 Alpha  occ. eigenvalues --   -0.71314  -0.69607  -0.69276  -0.69220  -0.69129
 Alpha  occ. eigenvalues --   -0.68876  -0.68757  -0.68557  -0.68341  -0.64109
 Alpha  occ. eigenvalues --   -0.63488  -0.61882  -0.61116  -0.60862  -0.60474
 Alpha  occ. eigenvalues --   -0.59319  -0.58652  -0.58468  -0.57977  -0.57800
 Alpha  occ. eigenvalues --   -0.54996  -0.54262  -0.54018  -0.53756  -0.53744
 Alpha  occ. eigenvalues --   -0.53546  -0.53238  -0.52673  -0.52468  -0.52072
 Alpha  occ. eigenvalues --   -0.51872  -0.51547  -0.51318  -0.50637  -0.50324
 Alpha  occ. eigenvalues --   -0.50242  -0.49994  -0.49966  -0.49387  -0.49151
 Alpha  occ. eigenvalues --   -0.48632  -0.48211  -0.47988  -0.47396  -0.47061
 Alpha  occ. eigenvalues --   -0.46831  -0.46508  -0.46148  -0.46053  -0.45728
 Alpha  occ. eigenvalues --   -0.45622  -0.45360  -0.44449  -0.44153  -0.43933
 Alpha  occ. eigenvalues --   -0.43662  -0.43518  -0.43122  -0.42894  -0.42812
 Alpha  occ. eigenvalues --   -0.42571  -0.42358  -0.42280  -0.41876  -0.41719
 Alpha  occ. eigenvalues --   -0.41700  -0.41353  -0.41233  -0.41185  -0.40987
 Alpha  occ. eigenvalues --   -0.40463  -0.39483  -0.39140  -0.37046  -0.36510
 Alpha  occ. eigenvalues --   -0.35665  -0.35085  -0.34185  -0.34009  -0.33756
 Alpha  occ. eigenvalues --   -0.33181  -0.32899  -0.32675  -0.32537  -0.31920
 Alpha  occ. eigenvalues --   -0.31463  -0.29466
 Alpha virt. eigenvalues --    0.02241   0.02492   0.02591   0.02722   0.03243
 Alpha virt. eigenvalues --    0.03285   0.04969   0.05462   0.05694   0.05795
 Alpha virt. eigenvalues --    0.05838   0.06143   0.06229   0.06353   0.06839
 Alpha virt. eigenvalues --    0.06973   0.07166   0.07212   0.07322   0.07444
 Alpha virt. eigenvalues --    0.07569   0.07734   0.07883   0.08100   0.08272
 Alpha virt. eigenvalues --    0.08687   0.08737   0.08963   0.09194   0.09550
 Alpha virt. eigenvalues --    0.09733   0.09798   0.10153   0.10534   0.10713
 Alpha virt. eigenvalues --    0.10984   0.11282   0.11598   0.11711   0.11995
 Alpha virt. eigenvalues --    0.12252   0.12413   0.12725   0.12909   0.13098
 Alpha virt. eigenvalues --    0.13315   0.13551   0.13589   0.13929   0.14164
 Alpha virt. eigenvalues --    0.14439   0.14593   0.14932   0.15037   0.15193
 Alpha virt. eigenvalues --    0.15426   0.15601   0.15813   0.16021   0.16396
 Alpha virt. eigenvalues --    0.16597   0.16684   0.16763   0.16929   0.16965
 Alpha virt. eigenvalues --    0.17113   0.17244   0.17363   0.17680   0.17760
 Alpha virt. eigenvalues --    0.17850   0.18040   0.18178   0.18293   0.18358
 Alpha virt. eigenvalues --    0.18394   0.18682   0.18738   0.18776   0.18981
 Alpha virt. eigenvalues --    0.19111   0.19260   0.19306   0.19386   0.19491
 Alpha virt. eigenvalues --    0.19607   0.19952   0.20041   0.20170   0.20253
 Alpha virt. eigenvalues --    0.20461   0.20654   0.20723   0.20812   0.20930
 Alpha virt. eigenvalues --    0.21043   0.21257   0.21278   0.21428   0.21456
 Alpha virt. eigenvalues --    0.21581   0.21783   0.21943   0.22015   0.22110
 Alpha virt. eigenvalues --    0.22259   0.22420   0.22629   0.22744   0.22837
 Alpha virt. eigenvalues --    0.23032   0.23199   0.23302   0.23368   0.23598
 Alpha virt. eigenvalues --    0.23719   0.23859   0.23941   0.23998   0.24146
 Alpha virt. eigenvalues --    0.24305   0.24467   0.24608   0.24800   0.24849
 Alpha virt. eigenvalues --    0.24964   0.25042   0.25223   0.25347   0.25456
 Alpha virt. eigenvalues --    0.25682   0.25794   0.26082   0.26123   0.26328
 Alpha virt. eigenvalues --    0.26400   0.26468   0.26744   0.26808   0.27056
 Alpha virt. eigenvalues --    0.27114   0.27191   0.27540   0.27626   0.27661
 Alpha virt. eigenvalues --    0.27755   0.27917   0.28026   0.28254   0.28384
 Alpha virt. eigenvalues --    0.28540   0.28551   0.28597   0.28796   0.28957
 Alpha virt. eigenvalues --    0.29050   0.29304   0.29443   0.29613   0.29689
 Alpha virt. eigenvalues --    0.29886   0.30013   0.30051   0.30355   0.30549
 Alpha virt. eigenvalues --    0.30623   0.30758   0.31081   0.31106   0.31267
 Alpha virt. eigenvalues --    0.31368   0.31496   0.31642   0.31669   0.31937
 Alpha virt. eigenvalues --    0.32006   0.32250   0.32513   0.32697   0.32852
 Alpha virt. eigenvalues --    0.33157   0.33298   0.33441   0.33564   0.33700
 Alpha virt. eigenvalues --    0.33811   0.33872   0.34181   0.34354   0.34449
 Alpha virt. eigenvalues --    0.34658   0.34882   0.35052   0.35270   0.35548
 Alpha virt. eigenvalues --    0.35690   0.35711   0.36017   0.36170   0.36289
 Alpha virt. eigenvalues --    0.36303   0.36355   0.36753   0.37044   0.37115
 Alpha virt. eigenvalues --    0.37339   0.37366   0.37732   0.37809   0.38039
 Alpha virt. eigenvalues --    0.38093   0.38226   0.38630   0.38710   0.38896
 Alpha virt. eigenvalues --    0.38906   0.38987   0.39380   0.39464   0.39846
 Alpha virt. eigenvalues --    0.39881   0.40009   0.40158   0.40286   0.40373
 Alpha virt. eigenvalues --    0.40553   0.40725   0.40996   0.41144   0.41194
 Alpha virt. eigenvalues --    0.41410   0.41544   0.41715   0.41965   0.42160
 Alpha virt. eigenvalues --    0.42406   0.42592   0.42799   0.42980   0.43069
 Alpha virt. eigenvalues --    0.43336   0.43562   0.43585   0.43933   0.44043
 Alpha virt. eigenvalues --    0.44201   0.44492   0.44648   0.44940   0.45013
 Alpha virt. eigenvalues --    0.45036   0.45238   0.45523   0.45687   0.45897
 Alpha virt. eigenvalues --    0.46059   0.46388   0.46564   0.46766   0.47207
 Alpha virt. eigenvalues --    0.47250   0.47445   0.47648   0.48098   0.48149
 Alpha virt. eigenvalues --    0.48294   0.48387   0.49015   0.49148   0.49702
 Alpha virt. eigenvalues --    0.49818   0.50530   0.50619   0.51048   0.51540
 Alpha virt. eigenvalues --    0.51587   0.52206   0.52415   0.52492   0.53271
 Alpha virt. eigenvalues --    0.53320   0.53838   0.54157   0.54361   0.54483
 Alpha virt. eigenvalues --    0.54575   0.55448   0.55545   0.55866   0.56160
 Alpha virt. eigenvalues --    0.56473   0.56751   0.56865   0.57318   0.57728
 Alpha virt. eigenvalues --    0.57842   0.58142   0.58570   0.58731   0.59110
 Alpha virt. eigenvalues --    0.59588   0.60057   0.60501   0.60853   0.61524
 Alpha virt. eigenvalues --    0.61757   0.62194   0.62964   0.63203   0.63412
 Alpha virt. eigenvalues --    0.63493   0.63866   0.63962   0.64385   0.64503
 Alpha virt. eigenvalues --    0.64678   0.64912   0.65074   0.65665   0.65764
 Alpha virt. eigenvalues --    0.66005   0.66323   0.66587   0.66770   0.67038
 Alpha virt. eigenvalues --    0.67839   0.67972   0.68495   0.68675   0.68894
 Alpha virt. eigenvalues --    0.69253   0.69356   0.69691   0.69974   0.70192
 Alpha virt. eigenvalues --    0.70224   0.70657   0.70808   0.70882   0.71201
 Alpha virt. eigenvalues --    0.71585   0.71691   0.72067   0.72166   0.72513
 Alpha virt. eigenvalues --    0.72596   0.72917   0.73137   0.73298   0.73449
 Alpha virt. eigenvalues --    0.73661   0.73889   0.74201   0.74859   0.75057
 Alpha virt. eigenvalues --    0.75157   0.75339   0.75661   0.75954   0.76128
 Alpha virt. eigenvalues --    0.76248   0.76831   0.76973   0.77311   0.77596
 Alpha virt. eigenvalues --    0.78203   0.78536   0.78677   0.78743   0.79079
 Alpha virt. eigenvalues --    0.79420   0.79541   0.79574   0.80125   0.80273
 Alpha virt. eigenvalues --    0.80405   0.80771   0.81179   0.81292   0.81343
 Alpha virt. eigenvalues --    0.81716   0.82147   0.82377   0.82587   0.82932
 Alpha virt. eigenvalues --    0.83020   0.83334   0.83453   0.83516   0.83918
 Alpha virt. eigenvalues --    0.83991   0.84302   0.84554   0.84707   0.84830
 Alpha virt. eigenvalues --    0.85179   0.85580   0.85878   0.86221   0.86422
 Alpha virt. eigenvalues --    0.86615   0.87040   0.87128   0.87210   0.87562
 Alpha virt. eigenvalues --    0.87833   0.87884   0.88186   0.88453   0.88503
 Alpha virt. eigenvalues --    0.88777   0.89112   0.89291   0.89405   0.89720
 Alpha virt. eigenvalues --    0.89968   0.90119   0.90583   0.90853   0.91272
 Alpha virt. eigenvalues --    0.91620   0.91880   0.92027   0.92287   0.92380
 Alpha virt. eigenvalues --    0.92780   0.93005   0.93351   0.93661   0.93902
 Alpha virt. eigenvalues --    0.94304   0.94415   0.94924   0.95147   0.95260
 Alpha virt. eigenvalues --    0.95588   0.96045   0.96318   0.96472   0.96821
 Alpha virt. eigenvalues --    0.97120   0.97221   0.97721   0.97969   0.98099
 Alpha virt. eigenvalues --    0.98453   0.98723   0.99341   0.99613   0.99850
 Alpha virt. eigenvalues --    1.00366   1.00517   1.00708   1.01526   1.01915
 Alpha virt. eigenvalues --    1.02152   1.02612   1.03207   1.03480   1.03979
 Alpha virt. eigenvalues --    1.04595   1.04769   1.05334   1.06026   1.06203
 Alpha virt. eigenvalues --    1.06907   1.07554   1.07847   1.08779   1.09046
 Alpha virt. eigenvalues --    1.09565   1.09885   1.10405   1.10941   1.11419
 Alpha virt. eigenvalues --    1.11895   1.12381   1.12639   1.12832   1.13652
 Alpha virt. eigenvalues --    1.13736   1.14327   1.14541   1.14898   1.15927
 Alpha virt. eigenvalues --    1.16477   1.16842   1.17558   1.18006   1.18709
 Alpha virt. eigenvalues --    1.19326   1.19519   1.19834   1.20000   1.20322
 Alpha virt. eigenvalues --    1.20748   1.21215   1.21924   1.22173   1.22783
 Alpha virt. eigenvalues --    1.23196   1.23591   1.24008   1.24228   1.24694
 Alpha virt. eigenvalues --    1.25090   1.25250   1.26057   1.26128   1.27031
 Alpha virt. eigenvalues --    1.27555   1.28248   1.28835   1.29496   1.29704
 Alpha virt. eigenvalues --    1.31321   1.31607   1.32093   1.32579   1.33269
 Alpha virt. eigenvalues --    1.33496   1.33574   1.34372   1.34728   1.35262
 Alpha virt. eigenvalues --    1.35957   1.36202   1.37297   1.37660   1.37989
 Alpha virt. eigenvalues --    1.38349   1.39612   1.40186   1.40741   1.40878
 Alpha virt. eigenvalues --    1.41830   1.42432   1.42570   1.43332   1.43479
 Alpha virt. eigenvalues --    1.43567   1.44145   1.44511   1.45030   1.45863
 Alpha virt. eigenvalues --    1.46601   1.47235   1.47648   1.48256   1.49100
 Alpha virt. eigenvalues --    1.50465   1.51301   1.51603   1.51958   1.53435
 Alpha virt. eigenvalues --    1.54008   1.54157   1.54738   1.54948   1.55565
 Alpha virt. eigenvalues --    1.56682   1.56978   1.57577   1.58332   1.58892
 Alpha virt. eigenvalues --    1.59145   1.59580   1.60370   1.60882   1.61379
 Alpha virt. eigenvalues --    1.62095   1.62223   1.62632   1.62961   1.63158
 Alpha virt. eigenvalues --    1.63593   1.63648   1.64287   1.64434   1.64776
 Alpha virt. eigenvalues --    1.65036   1.65554   1.66051   1.66252   1.66568
 Alpha virt. eigenvalues --    1.66736   1.67262   1.67716   1.68041   1.68140
 Alpha virt. eigenvalues --    1.68593   1.69086   1.69313   1.69590   1.70037
 Alpha virt. eigenvalues --    1.70264   1.70640   1.70844   1.71165   1.71599
 Alpha virt. eigenvalues --    1.72048   1.72351   1.72766   1.73135   1.73196
 Alpha virt. eigenvalues --    1.73451   1.73620   1.74087   1.74406   1.74619
 Alpha virt. eigenvalues --    1.74958   1.75125   1.75527   1.75821   1.75998
 Alpha virt. eigenvalues --    1.76461   1.76527   1.76904   1.77341   1.77592
 Alpha virt. eigenvalues --    1.77779   1.78405   1.78563   1.79043   1.79324
 Alpha virt. eigenvalues --    1.79659   1.80030   1.80279   1.80839   1.81002
 Alpha virt. eigenvalues --    1.81268   1.81640   1.81873   1.82556   1.82712
 Alpha virt. eigenvalues --    1.82984   1.83294   1.83597   1.83818   1.84219
 Alpha virt. eigenvalues --    1.84725   1.85101   1.85251   1.85514   1.85894
 Alpha virt. eigenvalues --    1.86249   1.86516   1.86737   1.87416   1.87535
 Alpha virt. eigenvalues --    1.88031   1.88365   1.88530   1.88702   1.89599
 Alpha virt. eigenvalues --    1.89768   1.89865   1.90261   1.91179   1.91371
 Alpha virt. eigenvalues --    1.91657   1.91797   1.92582   1.92880   1.93379
 Alpha virt. eigenvalues --    1.93892   1.94239   1.94641   1.94887   1.95376
 Alpha virt. eigenvalues --    1.95714   1.96149   1.96603   1.96886   1.97282
 Alpha virt. eigenvalues --    1.97830   1.98139   1.98676   1.99600   1.99668
 Alpha virt. eigenvalues --    2.00428   2.00941   2.01329   2.01645   2.02245
 Alpha virt. eigenvalues --    2.02299   2.02700   2.03080   2.03299   2.03635
 Alpha virt. eigenvalues --    2.04352   2.04564   2.04958   2.05326   2.05819
 Alpha virt. eigenvalues --    2.05985   2.06580   2.06694   2.06860   2.07338
 Alpha virt. eigenvalues --    2.08002   2.08137   2.08827   2.09609   2.09657
 Alpha virt. eigenvalues --    2.09937   2.10330   2.10854   2.11002   2.11268
 Alpha virt. eigenvalues --    2.11815   2.12301   2.12923   2.13219   2.13679
 Alpha virt. eigenvalues --    2.14070   2.14586   2.14931   2.15395   2.15697
 Alpha virt. eigenvalues --    2.16190   2.16799   2.17026   2.17521   2.17863
 Alpha virt. eigenvalues --    2.18107   2.18935   2.19462   2.19779   2.20594
 Alpha virt. eigenvalues --    2.20600   2.21457   2.21857   2.22585   2.22947
 Alpha virt. eigenvalues --    2.23518   2.24135   2.24567   2.25623   2.25995
 Alpha virt. eigenvalues --    2.26421   2.27059   2.27616   2.28211   2.29175
 Alpha virt. eigenvalues --    2.29904   2.30776   2.31917   2.32965   2.33163
 Alpha virt. eigenvalues --    2.33487   2.34095   2.34644   2.34918   2.35168
 Alpha virt. eigenvalues --    2.36142   2.37633   2.38253   2.39035   2.39452
 Alpha virt. eigenvalues --    2.40096   2.40192   2.40847   2.41918   2.42431
 Alpha virt. eigenvalues --    2.42825   2.42862   2.43340   2.43524   2.44277
 Alpha virt. eigenvalues --    2.44305   2.44907   2.45207   2.45901   2.46988
 Alpha virt. eigenvalues --    2.48186   2.49047   2.49194   2.50257   2.50871
 Alpha virt. eigenvalues --    2.50968   2.52999   2.53894   2.53983   2.54624
 Alpha virt. eigenvalues --    2.54897   2.55997   2.57381   2.57928   2.58402
 Alpha virt. eigenvalues --    2.59897   2.60588   2.60613   2.61133   2.61744
 Alpha virt. eigenvalues --    2.62818   2.62909   2.63163   2.63346   2.63612
 Alpha virt. eigenvalues --    2.64032   2.64764   2.65541   2.65847   2.66368
 Alpha virt. eigenvalues --    2.66724   2.67273   2.67434   2.67610   2.68047
 Alpha virt. eigenvalues --    2.68726   2.69229   2.69819   2.69888   2.70629
 Alpha virt. eigenvalues --    2.70771   2.71520   2.71821   2.72317   2.72916
 Alpha virt. eigenvalues --    2.73373   2.74552   2.74758   2.75398   2.75519
 Alpha virt. eigenvalues --    2.76245   2.76964   2.77461   2.78120   2.78234
 Alpha virt. eigenvalues --    2.79078   2.79833   2.80139   2.80676   2.81071
 Alpha virt. eigenvalues --    2.81959   2.82287   2.82344   2.82977   2.83127
 Alpha virt. eigenvalues --    2.83858   2.84366   2.84578   2.85316   2.85561
 Alpha virt. eigenvalues --    2.85770   2.86365   2.86809   2.87281   2.87881
 Alpha virt. eigenvalues --    2.88223   2.88642   2.88895   2.89411   2.89793
 Alpha virt. eigenvalues --    2.90447   2.90881   2.91367   2.91814   2.92625
 Alpha virt. eigenvalues --    2.92722   2.93365   2.93747   2.93910   2.94124
 Alpha virt. eigenvalues --    2.94160   2.94810   2.95181   2.95559   2.96001
 Alpha virt. eigenvalues --    2.96207   2.97056   2.97739   2.98002   2.98399
 Alpha virt. eigenvalues --    2.98748   2.99267   2.99520   2.99756   3.00467
 Alpha virt. eigenvalues --    3.00528   3.00800   3.01555   3.01992   3.02345
 Alpha virt. eigenvalues --    3.02927   3.03186   3.03797   3.04439   3.05038
 Alpha virt. eigenvalues --    3.05248   3.05869   3.06483   3.06844   3.07113
 Alpha virt. eigenvalues --    3.07500   3.07631   3.08543   3.08720   3.08933
 Alpha virt. eigenvalues --    3.09592   3.10132   3.10704   3.11284   3.11967
 Alpha virt. eigenvalues --    3.12810   3.12890   3.13976   3.14151   3.15308
 Alpha virt. eigenvalues --    3.16511   3.18104   3.18403   3.18597   3.18931
 Alpha virt. eigenvalues --    3.19697   3.20664   3.21664   3.21858   3.22756
 Alpha virt. eigenvalues --    3.23291   3.23613   3.24012   3.25117   3.25809
 Alpha virt. eigenvalues --    3.25994   3.27005   3.27439   3.29356   3.29557
 Alpha virt. eigenvalues --    3.30046   3.30869   3.30986   3.31774   3.32596
 Alpha virt. eigenvalues --    3.33186   3.33663   3.34083   3.35112   3.35681
 Alpha virt. eigenvalues --    3.36727   3.37609   3.38233   3.39564   3.41107
 Alpha virt. eigenvalues --    3.41745   3.42586   3.42940   3.43620   3.44859
 Alpha virt. eigenvalues --    3.45799   3.47237   3.49456   3.49941   3.50583
 Alpha virt. eigenvalues --    3.51556   3.51911   3.52067   3.52902   3.53925
 Alpha virt. eigenvalues --    3.57666   3.58149   3.61312   3.63961   3.65756
 Alpha virt. eigenvalues --    3.66511   3.66880   3.69508   3.69743   3.72314
 Alpha virt. eigenvalues --    3.73850   3.74796   3.75993   3.78694   3.79284
 Alpha virt. eigenvalues --    3.82815   3.87801   3.88032   3.89673   3.90947
 Alpha virt. eigenvalues --    3.91657   3.91975   3.92910   3.93533   3.93638
 Alpha virt. eigenvalues --    3.94352   3.95817   3.96145   3.96424   3.96765
 Alpha virt. eigenvalues --    3.97713   3.98554   3.99396   3.99998   4.00466
 Alpha virt. eigenvalues --    4.03737   4.04036   4.06611   4.08594   4.11241
 Alpha virt. eigenvalues --    4.12392   4.13931   4.15568   4.15821   4.17917
 Alpha virt. eigenvalues --    4.19838   4.22567   4.23645   4.25554   4.26218
 Alpha virt. eigenvalues --    4.28392   4.29042   4.29343   4.30789   4.31575
 Alpha virt. eigenvalues --    4.32036   4.33649   4.34476   4.37428   4.39880
 Alpha virt. eigenvalues --    4.41175   4.42895   4.44775   4.47444   4.48413
 Alpha virt. eigenvalues --    4.49088   4.52616   4.71596   4.95396   4.95437
 Alpha virt. eigenvalues --    4.96202   5.08353   5.37465   5.39606   5.39922
 Alpha virt. eigenvalues --    5.43714   5.44256   5.48186   5.49672   5.52985
 Alpha virt. eigenvalues --    5.53943   5.59348   5.65874   5.67650   5.71286
 Alpha virt. eigenvalues --    5.75303   5.77548   5.80244   5.83157   5.87994
 Alpha virt. eigenvalues --    7.69910  14.33806  14.39064  14.49811  15.00007
 Alpha virt. eigenvalues --   23.76336  23.81559  23.94189  23.99421  24.01247
 Alpha virt. eigenvalues --   24.01739  24.02793  24.04431  24.06210  24.06712
 Alpha virt. eigenvalues --   24.10273  24.11314  24.11644  24.12564  24.12660
 Alpha virt. eigenvalues --   24.13022  24.13682  24.14440  24.14618  24.15921
 Alpha virt. eigenvalues --   24.16431  24.17509  24.18726  24.19349  24.21199
 Alpha virt. eigenvalues --   24.21728  24.22133  24.23442  24.23847  24.32827
 Alpha virt. eigenvalues --   24.33263  35.80862  50.15610  50.17341  50.18604
 Alpha virt. eigenvalues --   50.21721  50.22372  50.23457 163.95798
          Condensed to atoms (all electrons):
 Mulliken charges:
               1
     1  C    0.632773
     2  C   -0.767041
     3  H   -0.221502
     4  C   -0.747752
     5  H    0.177649
     6  H    0.199643
     7  H    0.222092
     8  C   -0.504282
     9  H    0.224937
    10  H    0.235146
    11  H    0.214656
    12  B    1.020782
    13  C   -0.956825
    14  H    0.232260
    15  H    0.238556
    16  H    0.232500
    17  O    0.064188
    18  O   -0.045839
    19  C    0.281052
    20  C   -0.513485
    21  C   -0.794241
    22  H    0.192717
    23  H    0.190681
    24  H    0.192493
    25  C   -0.622024
    26  H    0.210485
    27  H    0.100374
    28  H    0.231650
    29  C   -0.255720
    30  H    0.172802
    31  H    0.236020
    32  H    0.198416
    33  C   -1.369752
    34  H    0.309089
    35  H    0.240458
    36  H    0.228633
    37  P   -0.447861
    38  O   -0.104227
    39  O   -0.211497
    40  N   -0.473910
    41  H    0.444712
    42  H    0.362479
    43  Li  -0.561570
    44  C    0.191285
    45  O    0.243697
    46  C   -0.249325
    47  C   -0.451133
    48  C   -0.658344
    49  H    0.214912
    50  H   -0.087114
    51  H    0.221800
    52  H    0.100801
    53  H    0.253200
    54  H    0.218734
    55  H    0.202794
    56  H    0.247684
    57  C    0.147201
    58  O    0.194595
    59  C   -0.115016
    60  C   -0.433367
    61  C   -0.835850
    62  H   -0.105383
    63  H    0.158218
    64  H    0.212686
    65  H    0.316655
    66  H    0.267616
    67  H    0.061023
    68  H    0.209468
    69  H    0.217093
    70  C    0.192149
    71  C   -0.116501
    72  C    0.098887
    73  C   -0.301862
    74  H    0.295106
    75  C   -0.193017
    76  H    0.153760
    77  C   -0.530195
    78  H    0.271824
    79  H    0.276553
    80  H    0.252126
    81  C    0.244408
    82  C   -0.079388
    83  C    0.026513
    84  C   -0.489580
    85  H    0.301435
    86  C   -0.419412
    87  H    0.301999
    88  C   -0.525324
    89  H    0.274114
    90  H    0.278814
    91  H    0.253950
 Sum of Mulliken charges =  -0.00000
 Mulliken charges with hydrogens summed into heavy atoms:
               1
     1  C    0.632773
     2  C   -0.988542
     4  C   -0.148368
     8  C    0.170457
    12  B    1.020782
    13  C   -0.253509
    17  O    0.064188
    18  O   -0.045839
    19  C    0.281052
    20  C   -0.513485
    21  C   -0.218350
    25  C   -0.079516
    29  C    0.351518
    33  C   -0.591572
    37  P   -0.447861
    38  O   -0.104227
    39  O   -0.211497
    40  N    0.333280
    43  Li  -0.561570
    44  C    0.319083
    45  O    0.243697
    46  C    0.073276
    47  C    0.020801
    48  C   -0.207867
    57  C    0.200036
    58  O    0.194595
    59  C    0.414325
    60  C   -0.104728
    61  C   -0.409289
    70  C    0.192149
    71  C    0.178604
    72  C    0.252647
    73  C   -0.030038
    75  C    0.083536
    77  C   -0.278069
    81  C    0.244408
    82  C    0.222046
    83  C    0.328512
    84  C   -0.215466
    86  C   -0.140599
    88  C   -0.271374
 Electronic spatial extent (au):  <R**2>=          22143.4736
 Charge=             -0.0000 electrons
 Dipole moment (field-independent basis, Debye):
    X=              5.5176    Y=              8.0014    Z=              4.1203  Tot=             10.5567
 Quadrupole moment (field-independent basis, Debye-Ang):
   XX=           -228.5646   YY=           -250.0984   ZZ=           -249.4372
   XY=            -11.8571   XZ=              7.2854   YZ=             18.7544
 Traceless Quadrupole moment (field-independent basis, Debye-Ang):
   XX=             14.1355   YY=             -7.3983   ZZ=             -6.7371
   XY=            -11.8571   XZ=              7.2854   YZ=             18.7544
 Octapole moment (field-independent basis, Debye-Ang**2):
  XXX=            115.8290  YYY=            863.3466  ZZZ=           -366.9786  XYY=             45.7864
  XXY=            313.5565  XXZ=           -147.2227  XZZ=             70.8730  YZZ=            260.1480
  YYZ=           -206.6012  XYZ=              5.4785
 Hexadecapole moment (field-independent basis, Debye-Ang**3):
 XXXX=          -5473.1097 YYYY=         -12360.2418 ZZZZ=         -11305.5416 XXXY=           -309.9553
 XXXZ=           -249.8617 YYYX=           -208.8860 YYYZ=           1947.3813 ZZZX=           -371.4392
 ZZZY=           1234.9998 XXYY=          -2945.6308 XXZZ=          -2924.1438 YYZZ=          -3988.8088
 XXYZ=            447.6080 YYXZ=           -199.9839 ZZXY=             12.2637
 N-N= 5.667044068543D+03 E-N=-1.622915598016D+04  KE= 2.083094878301D+03
 No NMR shielding tensors so no spin-rotation constants.
 Leave Link  601 at Fri Sep 19 16:38:50 2025, MaxMem=  4294967296 cpu:               3.0 elap:               0.5
 (Enter /opt/apps/Gaussian/G16C/g16/l9999.exe)
 Unable to Open any file for archive entry.
 1\1\GINC-NODE19\SP\RwB97XD\6-311++G(d,p)\C31H50B1Li1N1O6P1\WHUGHES2\19
 -Sep-2025\0\\#p wb97xd/6-311++g** nosymm int=ultrafine scrf=(smd,solve
 nt=tetrahydrofuran)\\openTS-phos-full-tzpop\\0,1\C,0,-2.479517,1.05640
 2,-1.23813\C,0,-2.638434,0.844491,0.237308\H,0,-1.679057,0.602092,0.69
 6933\C,0,-3.34297,1.914518,1.054617\H,0,-2.764033,2.844968,1.064446\H,
 0,-4.33953,2.137557,0.656032\H,0,-3.459631,1.571112,2.088352\C,0,-3.60
 4845,1.718061,-1.973429\H,0,-4.557238,1.252457,-1.702704\H,0,-3.67996,
 2.778111,-1.69749\H,0,-3.47019,1.64242,-3.054868\B,0,-1.135646,0.79057
 4,-1.972872\C,0,-0.839164,2.472814,-1.728119\H,0,-1.205414,3.003886,-0
 .843572\H,0,0.256328,2.469505,-1.669997\H,0,-1.161564,3.021617,-2.6183
 51\O,0,-0.136838,-0.075008,-1.336459\O,0,-1.126499,0.467512,-3.379588\
 C,0,-0.622213,-0.86034,-3.484133\C,0,0.464559,-0.887946,-2.361699\C,0,
 -0.078068,-1.075644,-4.890827\H,0,-0.90512,-1.082925,-5.610045\H,0,0.6
 12757,-0.278372,-5.179277\H,0,0.443708,-2.03719,-4.96606\C,0,-1.758532
 ,-1.856412,-3.215883\H,0,-1.434767,-2.89101,-3.37701\H,0,-2.141765,-1.
 770901,-2.193782\H,0,-2.583166,-1.643582,-3.905637\C,0,1.769892,-0.223
 874,-2.804173\H,0,2.431202,-0.12664,-1.939569\H,0,2.291052,-0.827112,-
 3.556024\H,0,1.588667,0.772593,-3.220524\C,0,0.755593,-2.266772,-1.788
 442\H,0,-0.135983,-2.71081,-1.341683\H,0,1.131002,-2.93957,-2.568921\H
 ,0,1.519864,-2.194149,-1.007014\P,0,-0.938882,-2.79757,1.819861\O,0,0.
 002285,-1.627082,1.566562\O,0,-2.400261,-2.691211,1.427857\N,0,-3.4041
 48,-0.383463,0.035791\H,0,-3.005375,-1.207672,0.50087\H,0,-4.38936,-0.
 274754,0.253043\Li,0,0.566732,-0.235174,0.479887\C,0,-0.160115,1.12370
 1,3.05971\O,0,0.274837,1.397245,1.725232\C,0,0.457384,2.811509,1.63322
 7\C,0,0.825163,3.298311,3.05187\C,0,0.713078,2.028032,3.916947\H,0,-1.
 224767,1.385144,3.157995\H,0,-0.040794,0.053506,3.227129\H,0,1.232466,
 2.998595,0.887065\H,0,-0.47665,3.272655,1.288943\H,0,1.828302,3.732189
 ,3.088008\H,0,0.119092,4.064671,3.385192\H,0,1.695807,1.564553,4.05918
 1\H,0,0.276769,2.219324,4.9012\C,0,2.976367,-0.696695,1.946775\O,0,2.5
 94323,-0.263678,0.627767\C,0,3.318303,0.924438,0.273909\C,0,3.921734,1
 .446855,1.570319\C,0,4.189147,0.144437,2.328971\H,0,2.132013,-0.523205
 ,2.621435\H,0,3.178724,-1.7704,1.908236\H,0,4.10209,0.658451,-0.44777\
 H,0,2.623698,1.618817,-0.20751\H,0,4.822175,2.042367,1.39647\H,0,3.194
 903,2.061299,2.111568\H,0,5.113297,-0.323028,1.970164\H,0,4.268867,0.2
 81578,3.411078\C,0,-0.826262,-3.177873,3.608292\C,0,-1.846018,-3.89119
 4,4.247415\C,0,0.290099,-2.779309,4.35154\C,0,-1.753396,-4.199194,5.60
 402\H,0,-2.719957,-4.199404,3.678886\C,0,0.386136,-3.084821,5.708609\H
 ,0,1.083837,-2.220688,3.861922\C,0,-0.636244,-3.796465,6.336617\H,0,-2
 .553619,-4.750966,6.090566\H,0,1.257376,-2.76751,6.276224\H,0,-0.56354
 4,-4.035373,7.394507\C,0,-0.219571,-4.27285,1.009326\C,0,-1.042203,-5.
 210021,0.379369\C,0,1.166212,-4.467114,0.996507\C,0,-0.490132,-6.32097
 8,-0.259636\H,0,-2.118147,-5.056828,0.379146\C,0,1.721168,-5.575567,0.
 362131\H,0,1.814485,-3.73403,1.47069\C,0,0.891833,-6.504651,-0.269354\
 H,0,-1.138911,-7.040338,-0.752892\H,0,2.799457,-5.713402,0.353041\H,0,
 1.323596,-7.368261,-0.768709\\Version=AS64L-G16RevC.01\HF=-2091.446206
 3\RMSD=3.297e-09\Dipole=2.1707802,3.1480123,1.6210467\Quadrupole=10.50
 93648,-5.5004773,-5.0088874,-8.8154448,5.416511,13.9434658\PG=C01 [X(C
 31H50B1Li1N1O6P1)]\\@
 The archive entry for this job was punched.


 Change starts when someone sees the next step.
                            -- William Drayton
 Job cpu time:       0 days  9 hours  9 minutes 21.5 seconds.
 Elapsed time:       0 days  0 hours 39 minutes 42.1 seconds.
 File lengths (MBytes):  RWF=   1340 Int=      0 D2E=      0 Chk=     95 Scr=      1
 Normal termination of Gaussian 16 at Fri Sep 19 16:38:51 2025.
