Job Start Time: Wed Oct  8 15:27:45 MDT 2025
SLURM Job ID: 768185
SLURM Job Name: openTS-phos-full-unfrz-c4_tzpop-sp
 Entering Gaussian System, Link 0=/opt/apps/Gaussian/G16C/g16/g16
 Initial command:
 /opt/apps/Gaussian/G16C/g16/l1.exe "/tmp/768185/Gau-159760.inp" -scrdir="/tmp/768185/"
 Entering Link 1 = /opt/apps/Gaussian/G16C/g16/l1.exe PID=    159762.
  
 Copyright (c) 1988-2019, Gaussian, Inc.  All Rights Reserved.
  
 This is part of the Gaussian(R) 16 program.  It is based on
 the Gaussian(R) 09 system (copyright 2009, Gaussian, Inc.),
 the Gaussian(R) 03 system (copyright 2003, Gaussian, Inc.),
 the Gaussian(R) 98 system (copyright 1998, Gaussian, Inc.),
 the Gaussian(R) 94 system (copyright 1995, Gaussian, Inc.),
 the Gaussian 92(TM) system (copyright 1992, Gaussian, Inc.),
 the Gaussian 90(TM) system (copyright 1990, Gaussian, Inc.),
 the Gaussian 88(TM) system (copyright 1988, Gaussian, Inc.),
 the Gaussian 86(TM) system (copyright 1986, Carnegie Mellon
 University), and the Gaussian 82(TM) system (copyright 1983,
 Carnegie Mellon University). Gaussian is a federally registered
 trademark of Gaussian, Inc.
  
 This software contains proprietary and confidential information,
 including trade secrets, belonging to Gaussian, Inc.
  
 This software is provided under written license and may be
 used, copied, transmitted, or stored only in accord with that
 written license.
  
 The following legend is applicable only to US Government
 contracts under FAR:
  
                    RESTRICTED RIGHTS LEGEND
  
 Use, reproduction and disclosure by the US Government is
 subject to restrictions as set forth in subparagraphs (a)
 and (c) of the Commercial Computer Software - Restricted
 Rights clause in FAR 52.227-19.
  
 Gaussian, Inc.
 340 Quinnipiac St., Bldg. 40, Wallingford CT 06492
  
  
 ---------------------------------------------------------------
 Warning -- This program may not be used in any manner that
 competes with the business of Gaussian, Inc. or will provide
 assistance to any competitor of Gaussian, Inc.  The licensee
 of this program is prohibited from giving any competitor of
 Gaussian, Inc. access to this program.  By using this program,
 the user acknowledges that Gaussian, Inc. is engaged in the
 business of creating and licensing software in the field of
 computational chemistry and represents and warrants to the
 licensee that it is not a competitor of Gaussian, Inc. and that
 it will not use this program in any manner prohibited above.
 ---------------------------------------------------------------
  

 Cite this work as:
 Gaussian 16, Revision C.01,
 M. J. Frisch, G. W. Trucks, H. B. Schlegel, G. E. Scuseria, 
 M. A. Robb, J. R. Cheeseman, G. Scalmani, V. Barone, 
 G. A. Petersson, H. Nakatsuji, X. Li, M. Caricato, A. V. Marenich, 
 J. Bloino, B. G. Janesko, R. Gomperts, B. Mennucci, H. P. Hratchian, 
 J. V. Ortiz, A. F. Izmaylov, J. L. Sonnenberg, D. Williams-Young, 
 F. Ding, F. Lipparini, F. Egidi, J. Goings, B. Peng, A. Petrone, 
 T. Henderson, D. Ranasinghe, V. G. Zakrzewski, J. Gao, N. Rega, 
 G. Zheng, W. Liang, M. Hada, M. Ehara, K. Toyota, R. Fukuda, 
 J. Hasegawa, M. Ishida, T. Nakajima, Y. Honda, O. Kitao, H. Nakai, 
 T. Vreven, K. Throssell, J. A. Montgomery, Jr., J. E. Peralta, 
 F. Ogliaro, M. J. Bearpark, J. J. Heyd, E. N. Brothers, K. N. Kudin, 
 V. N. Staroverov, T. A. Keith, R. Kobayashi, J. Normand, 
 K. Raghavachari, A. P. Rendell, J. C. Burant, S. S. Iyengar, 
 J. Tomasi, M. Cossi, J. M. Millam, M. Klene, C. Adamo, R. Cammi, 
 J. W. Ochterski, R. L. Martin, K. Morokuma, O. Farkas, 
 J. B. Foresman, and D. J. Fox, Gaussian, Inc., Wallingford CT, 2019.
 
 ******************************************
 Gaussian 16:  AS64L-G16RevC.01  3-Jul-2019
                 8-Oct-2025 
 ******************************************
 %chk=openTS-phos-full-unfrz-c4_tzpop-sp.chk
 %nprocshared=4
 Will use up to    4 processors via shared memory.
 %mem=8GB
 ----------------------------------------------------------------------
 # wb97xd/6-311++g** nosymm int=ultrafine scrf=(smd,solvent=tetrahydrof
 uran)
 ----------------------------------------------------------------------
 1/38=1,172=1/1;
 2/12=2,15=1,17=6,18=5,40=1/2;
 3/5=4,6=6,7=1111,11=2,25=1,30=1,70=32201,72=20,74=-58,75=-5/1,2,3;
 4//1;
 5/5=2,38=5,53=20/2;
 6/7=2,8=2,9=2,10=2,28=1/1;
 99/5=1,9=1/99;
 ----------------------------------
 openTS-phos-full-unfrz-c4_tzpop-sp
 ----------------------------------
 Symbolic Z-matrix:
 Charge =  0 Multiplicity = 1
 C                    -4.33      1.0901    0.3902 
 C                    -3.5738    2.0816    1.1894 
 H                    -2.556     2.1923    0.8083 
 C                    -4.1739    3.4468    1.465 
 H                    -5.1556    3.3775    1.9451 
 H                    -3.5097    4.0094    2.1294 
 H                    -4.2841    4.0076    0.5304 
 C                    -5.8136    1.1631    0.3673 
 H                    -6.2317    1.4097    1.3494 
 H                    -6.1039    1.9909   -0.2973 
 H                    -6.2582    0.2387   -0.0075 
 B                    -3.5667    0.1016   -0.5905 
 C                    -3.6677    1.1611   -1.8878 
 H                    -2.9299    0.7739   -2.6028 
 H                    -4.6583    1.108    -2.3548 
 H                    -3.4276    2.2155   -1.7066 
 O                    -2.2008   -0.2498   -0.1391 
 O                    -4.2118   -1.1544   -0.9327 
 C                    -3.4957   -2.2005   -0.2952 
 C                    -2.0257   -1.6673   -0.3107 
 C                    -3.6922   -3.4923   -1.081 
 H                    -4.735    -3.8203   -1.0005 
 H                    -3.4636   -3.3523   -2.141 
 H                    -3.054    -4.2927   -0.6876 
 C                    -4.0423   -2.3917    1.1267 
 H                    -3.5767   -3.2445    1.6334 
 H                    -3.8878   -1.5014    1.7446 
 H                    -5.1206   -2.5767    1.0667 
 C                    -1.3232   -1.8968   -1.6513 
 H                    -1.9423   -1.5547   -2.4874 
 H                    -0.3887   -1.3278   -1.6454 
 H                    -1.0816   -2.9548   -1.8066 
 C                    -1.1508   -2.1963    0.8184 
 H                    -1.0925   -3.2908    0.7831 
 H                    -0.1364   -1.8027    0.7084 
 H                    -1.5337   -1.8991    1.7991 
 P                     2.5954    0.029    -0.3031 
 O                     1.0707    0.0762   -0.3786 
 O                     3.3598    1.2022    0.2674 
 N                    -3.5098    1.2396    2.3922 
 H                    -4.4049    0.9546    2.7783 
 H                    -2.8679    0.4575    2.2957 
 Li                   -0.5336    0.7127    0.311 
 C                    -0.5369    2.1148    3.0931 
 O                    -0.4309    0.9066    2.3337 
 C                     0.5763    0.1274    2.9867 
 C                     1.6694    1.1316    3.3423 
 C                     0.8873    2.4457    3.5694 
 H                    -0.9837    2.8743    2.4493 
 H                    -1.2114    1.9377    3.9405 
 H                     0.1397   -0.3377    3.8831 
 H                     0.8974   -0.6535    2.2974 
 H                     2.2372    0.8166    4.2227 
 H                     2.3596    1.2362    2.5 
 H                     0.8796    2.7472    4.6209 
 H                     1.3216    3.2648    2.9893 
 C                    -0.4567    2.4378   -1.8884 
 O                    -0.5976    2.583    -0.4603 
 C                     0.4861    3.3805    0.0583 
 C                     1.1006    4.075    -1.1489 
 C                     0.9029    3.0259   -2.2453 
 H                    -0.5462    1.3757   -2.1336 
 H                    -1.2751    2.9868   -2.3685 
 H                     0.069     4.0746    0.7934 
 H                     1.2114    2.7149    0.5407 
 H                     0.5516    4.9939   -1.3872 
 H                     2.1513    4.3277   -0.9826 
 H                     0.9145    3.4466   -3.2549 
 H                     1.6796    2.2591   -2.1764 
 C                     3.1856   -0.3341   -2.0002 
 C                     4.5556   -0.4693   -2.2557 
 C                     2.2843   -0.4696   -3.0597 
 C                     5.0146   -0.7372   -3.5434 
 H                     5.2692   -0.364    -1.4413 
 C                     2.7397   -0.7327   -4.3521 
 H                     1.2205   -0.3609   -2.8668 
 C                     4.1057   -0.8689   -4.5951 
 H                     6.0807   -0.8415   -3.7287 
 H                     2.0278   -0.8325   -5.1677 
 H                     4.4628   -1.0764   -5.6006 
 C                     3.0295   -1.4797    0.6455 
 C                     3.8945   -1.4045    1.7399 
 C                     2.4669   -2.7171    0.3094 
 C                     4.1845   -2.5419    2.4952 
 H                     4.3355   -0.4455    1.9993 
 C                     2.7568   -3.8556    1.0573 
 H                     1.7926   -2.7901   -0.5415 
 C                     3.6151   -3.7682    2.1555 
 H                     4.856    -2.4704    3.3472 
 H                     2.313    -4.8105    0.7868 
 H                     3.8409   -4.6555    2.7415 
 
 Symmetry turned off by external request.
 Stoichiometry    C31H50BLiNO6P
 Framework group  C1[X(C31H50BLiNO6P)]
 Deg. of freedom   267
 Full point group                 C1      NOp   1
                          Input orientation:                          
 ---------------------------------------------------------------------
 Center     Atomic      Atomic             Coordinates (Angstroms)
 Number     Number       Type             X           Y           Z
 ---------------------------------------------------------------------
      1          6           0       -4.330000    1.090100    0.390200
      2          6           0       -3.573800    2.081600    1.189400
      3          1           0       -2.556000    2.192300    0.808300
      4          6           0       -4.173900    3.446800    1.465000
      5          1           0       -5.155600    3.377500    1.945100
      6          1           0       -3.509700    4.009400    2.129400
      7          1           0       -4.284100    4.007600    0.530400
      8          6           0       -5.813600    1.163100    0.367300
      9          1           0       -6.231700    1.409700    1.349400
     10          1           0       -6.103900    1.990900   -0.297300
     11          1           0       -6.258200    0.238700   -0.007500
     12          5           0       -3.566700    0.101600   -0.590500
     13          6           0       -3.667700    1.161100   -1.887800
     14          1           0       -2.929900    0.773900   -2.602800
     15          1           0       -4.658300    1.108000   -2.354800
     16          1           0       -3.427600    2.215500   -1.706600
     17          8           0       -2.200800   -0.249800   -0.139100
     18          8           0       -4.211800   -1.154400   -0.932700
     19          6           0       -3.495700   -2.200500   -0.295200
     20          6           0       -2.025700   -1.667300   -0.310700
     21          6           0       -3.692200   -3.492300   -1.081000
     22          1           0       -4.735000   -3.820300   -1.000500
     23          1           0       -3.463600   -3.352300   -2.141000
     24          1           0       -3.054000   -4.292700   -0.687600
     25          6           0       -4.042300   -2.391700    1.126700
     26          1           0       -3.576700   -3.244500    1.633400
     27          1           0       -3.887800   -1.501400    1.744600
     28          1           0       -5.120600   -2.576700    1.066700
     29          6           0       -1.323200   -1.896800   -1.651300
     30          1           0       -1.942300   -1.554700   -2.487400
     31          1           0       -0.388700   -1.327800   -1.645400
     32          1           0       -1.081600   -2.954800   -1.806600
     33          6           0       -1.150800   -2.196300    0.818400
     34          1           0       -1.092500   -3.290800    0.783100
     35          1           0       -0.136400   -1.802700    0.708400
     36          1           0       -1.533700   -1.899100    1.799100
     37         15           0        2.595400    0.029000   -0.303100
     38          8           0        1.070700    0.076200   -0.378600
     39          8           0        3.359800    1.202200    0.267400
     40          7           0       -3.509800    1.239600    2.392200
     41          1           0       -4.404900    0.954600    2.778300
     42          1           0       -2.867900    0.457500    2.295700
     43          3           0       -0.533600    0.712700    0.311000
     44          6           0       -0.536900    2.114800    3.093100
     45          8           0       -0.430900    0.906600    2.333700
     46          6           0        0.576300    0.127400    2.986700
     47          6           0        1.669400    1.131600    3.342300
     48          6           0        0.887300    2.445700    3.569400
     49          1           0       -0.983700    2.874300    2.449300
     50          1           0       -1.211400    1.937700    3.940500
     51          1           0        0.139700   -0.337700    3.883100
     52          1           0        0.897400   -0.653500    2.297400
     53          1           0        2.237200    0.816600    4.222700
     54          1           0        2.359600    1.236200    2.500000
     55          1           0        0.879600    2.747200    4.620900
     56          1           0        1.321600    3.264800    2.989300
     57          6           0       -0.456700    2.437800   -1.888400
     58          8           0       -0.597600    2.583000   -0.460300
     59          6           0        0.486100    3.380500    0.058300
     60          6           0        1.100600    4.075000   -1.148900
     61          6           0        0.902900    3.025900   -2.245300
     62          1           0       -0.546200    1.375700   -2.133600
     63          1           0       -1.275100    2.986800   -2.368500
     64          1           0        0.069000    4.074600    0.793400
     65          1           0        1.211400    2.714900    0.540700
     66          1           0        0.551600    4.993900   -1.387200
     67          1           0        2.151300    4.327700   -0.982600
     68          1           0        0.914500    3.446600   -3.254900
     69          1           0        1.679600    2.259100   -2.176400
     70          6           0        3.185600   -0.334100   -2.000200
     71          6           0        4.555600   -0.469300   -2.255700
     72          6           0        2.284300   -0.469600   -3.059700
     73          6           0        5.014600   -0.737200   -3.543400
     74          1           0        5.269200   -0.364000   -1.441300
     75          6           0        2.739700   -0.732700   -4.352100
     76          1           0        1.220500   -0.360900   -2.866800
     77          6           0        4.105700   -0.868900   -4.595100
     78          1           0        6.080700   -0.841500   -3.728700
     79          1           0        2.027800   -0.832500   -5.167700
     80          1           0        4.462800   -1.076400   -5.600600
     81          6           0        3.029500   -1.479700    0.645500
     82          6           0        3.894500   -1.404500    1.739900
     83          6           0        2.466900   -2.717100    0.309400
     84          6           0        4.184500   -2.541900    2.495200
     85          1           0        4.335500   -0.445500    1.999300
     86          6           0        2.756800   -3.855600    1.057300
     87          1           0        1.792600   -2.790100   -0.541500
     88          6           0        3.615100   -3.768200    2.155500
     89          1           0        4.856000   -2.470400    3.347200
     90          1           0        2.313000   -4.810500    0.786800
     91          1           0        3.840900   -4.655500    2.741500
 ---------------------------------------------------------------------
 Rotational constants (GHZ):           0.1117225           0.0650621           0.0642353
 Standard basis: 6-311++G(d,p) (5D, 7F)
  1260 basis functions,  1940 primitive gaussians,  1301 cartesian basis functions
   157 alpha electrons      157 beta electrons
       nuclear repulsion energy      5688.1508224834 Hartrees.
 NAtoms=   91 NActive=   91 NUniq=   91 SFac= 1.00D+00 NAtFMM=   60 NAOKFM=T Big=T
 Integral buffers will be    131072 words long.
 Raffenetti 2 integral format.
 Two-electron integral symmetry is turned off.
 Nuclear repulsion after empirical dispersion term =     5688.0324851069 Hartrees.
 ------------------------------------------------------------------------------
 Polarizable Continuum Model (PCM)
 =================================
 Model                : PCM.
 Atomic radii         : SMD-Coulomb.
 Polarization charges : Total charges.
 Charge compensation  : None.
 Solution method      : On-the-fly selection.
 Cavity type          : VdW (van der Waals Surface) (Alpha=1.000).
 Cavity algorithm     : GePol (No added spheres)
                        Default sphere list used, NSphG=   91.
                        Lebedev-Laikov grids with approx.  5.0 points / Ang**2.
                        Smoothing algorithm: York/Karplus (Gamma=1.0000).
                        Polarization charges: spherical gaussians, with
                                              point-specific exponents (IZeta= 3).
                        Self-potential: point-specific (ISelfS= 7).
                        Self-field    : sphere-specific E.n sum rule (ISelfD= 2).
 Solvent              : TetraHydroFuran, Eps=   7.425700 Eps(inf)=   1.974025
 ------------------------------------------------------------------------------
 ------------------------------------------------------------------------------
 Atomic radii for non-electrostatic terms: SMD-CDS.
 ------------------------------------------------------------------------------
 Nuclear repulsion after PCM non-electrostatic terms =     5688.0233114955 Hartrees.
 One-electron integrals computed using PRISM.
 NBasis=  1260 RedAO= T EigKep=  1.03D-06  NBF=  1260
 NBsUse=  1250 1.00D-06 EigRej=  8.58D-07 NBFU=  1250
 ExpMin= 7.40D-03 ExpMax= 7.75D+04 ExpMxC= 2.65D+03 IAcc=3 IRadAn=         5 AccDes= 0.00D+00
 Harris functional with IExCor= 4639 and IRadAn=       5 diagonalized for initial guess.
 HarFok:  IExCor= 4639 AccDes= 0.00D+00 IRadAn=         5 IDoV= 1 UseB2=F ITyADJ=14
 ICtDFT=  3500011 ScaDFX=  1.000000  1.000000  1.000000  1.000000
 FoFCou: FMM=F IPFlag=           0 FMFlag=      100000 FMFlg1=        2001
         NFxFlg=           0 DoJE=T BraDBF=F KetDBF=T FulRan=T
         wScrn=  0.000000 ICntrl=       500 IOpCl=  0 I1Cent=   200000004 NGrid=           0
         NMat0=    1 NMatS0=      1 NMatT0=    0 NMatD0=    1 NMtDS0=    0 NMtDT0=    0
 Symmetry not used in FoFCou.
 Requested convergence on RMS density matrix=1.00D-08 within 128 cycles.
 Requested convergence on MAX density matrix=1.00D-06.
 Requested convergence on             energy=1.00D-06.
 No special actions if energy rises.
 Inv3:  Mode=1 IEnd=    90321507.
 Iteration    1 A*A^-1 deviation from unit magnitude is 6.55D-15 for   5486.
 Iteration    1 A*A^-1 deviation from orthogonality  is 2.41D-15 for   2742    215.
 Iteration    1 A^-1*A deviation from unit magnitude is 6.55D-15 for   5486.
 Iteration    1 A^-1*A deviation from orthogonality  is 3.69D-15 for   5482    523.
 Error on total polarization charges =  0.07542
 SCF Done:  E(RwB97XD) =  -2091.44615602     A.U. after   17 cycles
            NFock= 17  Conv=0.63D-08     -V/T= 2.0040
 SMD-CDS (non-electrostatic) energy       (kcal/mol) =      -5.76
 (included in total energy above)

 **********************************************************************

            Population analysis using the SCF Density.

 **********************************************************************

 Alpha  occ. eigenvalues --  -77.25846 -19.26042 -19.25195 -19.21615 -19.20010
 Alpha  occ. eigenvalues --  -19.17371 -19.16313 -14.44467 -10.34212 -10.32888
 Alpha  occ. eigenvalues --  -10.32621 -10.32307 -10.32286 -10.31920 -10.31773
 Alpha  occ. eigenvalues --  -10.31588 -10.28706 -10.28659 -10.28628 -10.28612
 Alpha  occ. eigenvalues --  -10.28537 -10.28523 -10.28492 -10.28441 -10.28419
 Alpha  occ. eigenvalues --  -10.28399 -10.28381 -10.28026 -10.28015 -10.27514
 Alpha  occ. eigenvalues --  -10.27351 -10.27241 -10.26991 -10.26733 -10.25780
 Alpha  occ. eigenvalues --  -10.25709 -10.25594 -10.25048 -10.24369  -6.83734
 Alpha  occ. eigenvalues --   -6.70153  -4.84873  -4.84859  -4.84820  -1.98656
 Alpha  occ. eigenvalues --   -1.15004  -1.13728  -1.12477  -1.06387  -1.05732
 Alpha  occ. eigenvalues --   -1.02436  -1.00266  -0.95450  -0.95302  -0.89210
 Alpha  occ. eigenvalues --   -0.87888  -0.87738  -0.87260  -0.84891  -0.84256
 Alpha  occ. eigenvalues --   -0.84168  -0.83906  -0.83427  -0.83282  -0.82984
 Alpha  occ. eigenvalues --   -0.82892  -0.78686  -0.77795  -0.75990  -0.74812
 Alpha  occ. eigenvalues --   -0.71161  -0.69547  -0.69281  -0.69197  -0.68987
 Alpha  occ. eigenvalues --   -0.68632  -0.68161  -0.67950  -0.67756  -0.65452
 Alpha  occ. eigenvalues --   -0.63251  -0.62585  -0.61800  -0.60628  -0.60047
 Alpha  occ. eigenvalues --   -0.59387  -0.58903  -0.57934  -0.57776  -0.57393
 Alpha  occ. eigenvalues --   -0.56168  -0.54988  -0.54002  -0.53919  -0.53596
 Alpha  occ. eigenvalues --   -0.53351  -0.53314  -0.53034  -0.52475  -0.52376
 Alpha  occ. eigenvalues --   -0.51686  -0.51346  -0.51007  -0.50861  -0.50203
 Alpha  occ. eigenvalues --   -0.50067  -0.50047  -0.49988  -0.49804  -0.49273
 Alpha  occ. eigenvalues --   -0.48425  -0.48287  -0.48015  -0.47612  -0.47095
 Alpha  occ. eigenvalues --   -0.46937  -0.46769  -0.46204  -0.45891  -0.45752
 Alpha  occ. eigenvalues --   -0.45632  -0.45167  -0.44781  -0.44245  -0.43862
 Alpha  occ. eigenvalues --   -0.43703  -0.43263  -0.42961  -0.42901  -0.42666
 Alpha  occ. eigenvalues --   -0.42622  -0.42530  -0.42174  -0.41835  -0.41733
 Alpha  occ. eigenvalues --   -0.41576  -0.41473  -0.41334  -0.40529  -0.40343
 Alpha  occ. eigenvalues --   -0.39886  -0.39764  -0.39132  -0.36705  -0.36042
 Alpha  occ. eigenvalues --   -0.35492  -0.35229  -0.34474  -0.33954  -0.33489
 Alpha  occ. eigenvalues --   -0.33266  -0.32890  -0.32823  -0.32453  -0.32169
 Alpha  occ. eigenvalues --   -0.31130  -0.30003
 Alpha virt. eigenvalues --   -0.00021   0.02204   0.02501   0.02590   0.02790
 Alpha virt. eigenvalues --    0.03818   0.05111   0.05472   0.05633   0.05718
 Alpha virt. eigenvalues --    0.05841   0.05963   0.06149   0.06286   0.06798
 Alpha virt. eigenvalues --    0.06913   0.07012   0.07104   0.07341   0.07505
 Alpha virt. eigenvalues --    0.07644   0.07673   0.07892   0.08143   0.08168
 Alpha virt. eigenvalues --    0.08554   0.08789   0.09037   0.09339   0.09425
 Alpha virt. eigenvalues --    0.09978   0.10109   0.10181   0.10528   0.10752
 Alpha virt. eigenvalues --    0.11008   0.11223   0.11415   0.11687   0.12103
 Alpha virt. eigenvalues --    0.12333   0.12426   0.12815   0.12996   0.13370
 Alpha virt. eigenvalues --    0.13579   0.13667   0.13771   0.14036   0.14227
 Alpha virt. eigenvalues --    0.14380   0.14777   0.15051   0.15178   0.15276
 Alpha virt. eigenvalues --    0.15493   0.15682   0.15994   0.16291   0.16414
 Alpha virt. eigenvalues --    0.16476   0.16559   0.16698   0.16771   0.16943
 Alpha virt. eigenvalues --    0.17155   0.17385   0.17640   0.17722   0.17861
 Alpha virt. eigenvalues --    0.17912   0.18057   0.18198   0.18278   0.18524
 Alpha virt. eigenvalues --    0.18617   0.18707   0.18797   0.18838   0.19093
 Alpha virt. eigenvalues --    0.19191   0.19327   0.19522   0.19616   0.19860
 Alpha virt. eigenvalues --    0.19986   0.20132   0.20163   0.20291   0.20457
 Alpha virt. eigenvalues --    0.20530   0.20690   0.20724   0.20941   0.21054
 Alpha virt. eigenvalues --    0.21213   0.21256   0.21322   0.21443   0.21758
 Alpha virt. eigenvalues --    0.21864   0.22001   0.22126   0.22143   0.22221
 Alpha virt. eigenvalues --    0.22406   0.22501   0.22665   0.22793   0.23102
 Alpha virt. eigenvalues --    0.23163   0.23233   0.23385   0.23455   0.23572
 Alpha virt. eigenvalues --    0.23720   0.23839   0.24010   0.24065   0.24149
 Alpha virt. eigenvalues --    0.24336   0.24410   0.24630   0.24978   0.25039
 Alpha virt. eigenvalues --    0.25066   0.25099   0.25189   0.25379   0.25507
 Alpha virt. eigenvalues --    0.25765   0.25792   0.25840   0.25974   0.26129
 Alpha virt. eigenvalues --    0.26298   0.26490   0.26517   0.26682   0.26863
 Alpha virt. eigenvalues --    0.27082   0.27180   0.27353   0.27394   0.27627
 Alpha virt. eigenvalues --    0.27758   0.28009   0.28270   0.28422   0.28508
 Alpha virt. eigenvalues --    0.28680   0.28733   0.28866   0.29061   0.29199
 Alpha virt. eigenvalues --    0.29237   0.29409   0.29786   0.29849   0.29999
 Alpha virt. eigenvalues --    0.30071   0.30291   0.30487   0.30628   0.30750
 Alpha virt. eigenvalues --    0.30827   0.31053   0.31104   0.31380   0.31533
 Alpha virt. eigenvalues --    0.31870   0.31963   0.32062   0.32263   0.32361
 Alpha virt. eigenvalues --    0.32477   0.32570   0.32854   0.33065   0.33113
 Alpha virt. eigenvalues --    0.33231   0.33396   0.33621   0.33934   0.34000
 Alpha virt. eigenvalues --    0.34130   0.34384   0.34450   0.34648   0.34739
 Alpha virt. eigenvalues --    0.34849   0.35071   0.35174   0.35265   0.35461
 Alpha virt. eigenvalues --    0.35833   0.36036   0.36166   0.36266   0.36478
 Alpha virt. eigenvalues --    0.36571   0.36861   0.37034   0.37130   0.37289
 Alpha virt. eigenvalues --    0.37494   0.37789   0.38061   0.38123   0.38237
 Alpha virt. eigenvalues --    0.38446   0.38610   0.38815   0.38967   0.39045
 Alpha virt. eigenvalues --    0.39317   0.39415   0.39533   0.39677   0.39816
 Alpha virt. eigenvalues --    0.40095   0.40229   0.40247   0.40590   0.40703
 Alpha virt. eigenvalues --    0.40900   0.41137   0.41239   0.41411   0.41548
 Alpha virt. eigenvalues --    0.41678   0.41794   0.42015   0.42048   0.42349
 Alpha virt. eigenvalues --    0.42612   0.42775   0.42931   0.43223   0.43272
 Alpha virt. eigenvalues --    0.43390   0.43732   0.43842   0.44315   0.44367
 Alpha virt. eigenvalues --    0.44566   0.44865   0.45027   0.45084   0.45283
 Alpha virt. eigenvalues --    0.45445   0.45613   0.45908   0.46185   0.46254
 Alpha virt. eigenvalues --    0.46453   0.46686   0.46802   0.47158   0.47272
 Alpha virt. eigenvalues --    0.47802   0.47942   0.48243   0.48422   0.48490
 Alpha virt. eigenvalues --    0.48585   0.48911   0.49333   0.49519   0.49630
 Alpha virt. eigenvalues --    0.49822   0.50030   0.50043   0.50348   0.51301
 Alpha virt. eigenvalues --    0.51471   0.51757   0.52043   0.52247   0.52523
 Alpha virt. eigenvalues --    0.52976   0.53390   0.53608   0.53865   0.54202
 Alpha virt. eigenvalues --    0.54416   0.54854   0.54935   0.55333   0.55884
 Alpha virt. eigenvalues --    0.56088   0.56159   0.56397   0.57065   0.57559
 Alpha virt. eigenvalues --    0.57957   0.58131   0.58819   0.59063   0.59480
 Alpha virt. eigenvalues --    0.59743   0.60116   0.60633   0.61275   0.61814
 Alpha virt. eigenvalues --    0.61960   0.62190   0.62309   0.62773   0.62996
 Alpha virt. eigenvalues --    0.63496   0.64216   0.64275   0.64580   0.64651
 Alpha virt. eigenvalues --    0.64785   0.65217   0.65474   0.65602   0.65694
 Alpha virt. eigenvalues --    0.66219   0.66370   0.66631   0.66726   0.67777
 Alpha virt. eigenvalues --    0.67873   0.68111   0.68315   0.68482   0.69043
 Alpha virt. eigenvalues --    0.69121   0.69563   0.69930   0.70136   0.70497
 Alpha virt. eigenvalues --    0.70566   0.70828   0.71122   0.71274   0.71503
 Alpha virt. eigenvalues --    0.71656   0.71887   0.72195   0.72546   0.72818
 Alpha virt. eigenvalues --    0.72948   0.73308   0.73506   0.73554   0.73994
 Alpha virt. eigenvalues --    0.74194   0.74422   0.75190   0.75530   0.75682
 Alpha virt. eigenvalues --    0.75882   0.76201   0.76438   0.76510   0.77030
 Alpha virt. eigenvalues --    0.77116   0.77437   0.77919   0.78151   0.78234
 Alpha virt. eigenvalues --    0.78595   0.78732   0.79100   0.79386   0.79684
 Alpha virt. eigenvalues --    0.80032   0.80198   0.80450   0.80740   0.81131
 Alpha virt. eigenvalues --    0.81306   0.81436   0.81553   0.81946   0.82112
 Alpha virt. eigenvalues --    0.82277   0.82630   0.82973   0.83152   0.83247
 Alpha virt. eigenvalues --    0.83581   0.83813   0.84094   0.84564   0.84591
 Alpha virt. eigenvalues --    0.84858   0.85073   0.85112   0.85413   0.85676
 Alpha virt. eigenvalues --    0.85847   0.86106   0.86496   0.86558   0.86883
 Alpha virt. eigenvalues --    0.87114   0.87303   0.87435   0.87806   0.88158
 Alpha virt. eigenvalues --    0.88256   0.88415   0.88772   0.88861   0.89141
 Alpha virt. eigenvalues --    0.89270   0.89588   0.89822   0.90210   0.90384
 Alpha virt. eigenvalues --    0.90517   0.90576   0.91011   0.91354   0.91729
 Alpha virt. eigenvalues --    0.91780   0.91975   0.92457   0.92565   0.92780
 Alpha virt. eigenvalues --    0.93043   0.93338   0.94057   0.94089   0.94367
 Alpha virt. eigenvalues --    0.94606   0.94936   0.95235   0.95730   0.95874
 Alpha virt. eigenvalues --    0.96033   0.96174   0.96481   0.96929   0.97018
 Alpha virt. eigenvalues --    0.97580   0.97871   0.98222   0.98376   0.98589
 Alpha virt. eigenvalues --    0.99049   0.99475   0.99722   1.00514   1.00619
 Alpha virt. eigenvalues --    1.00646   1.01180   1.01598   1.01821   1.02114
 Alpha virt. eigenvalues --    1.02561   1.03356   1.03423   1.03683   1.04252
 Alpha virt. eigenvalues --    1.04511   1.05356   1.06390   1.06500   1.07152
 Alpha virt. eigenvalues --    1.07613   1.07945   1.08994   1.09225   1.09837
 Alpha virt. eigenvalues --    1.09943   1.10334   1.10471   1.11098   1.11809
 Alpha virt. eigenvalues --    1.11978   1.12669   1.12946   1.13550   1.13836
 Alpha virt. eigenvalues --    1.14725   1.15001   1.15496   1.16331   1.16489
 Alpha virt. eigenvalues --    1.17657   1.17923   1.18273   1.18691   1.18955
 Alpha virt. eigenvalues --    1.19514   1.19650   1.19933   1.20190   1.21258
 Alpha virt. eigenvalues --    1.21698   1.22187   1.22881   1.23081   1.23204
 Alpha virt. eigenvalues --    1.23709   1.23955   1.24926   1.25150   1.25345
 Alpha virt. eigenvalues --    1.25677   1.26641   1.27223   1.27415   1.27819
 Alpha virt. eigenvalues --    1.28421   1.28948   1.29557   1.29947   1.30349
 Alpha virt. eigenvalues --    1.30661   1.31582   1.32299   1.32873   1.33358
 Alpha virt. eigenvalues --    1.34440   1.34831   1.34850   1.34967   1.35718
 Alpha virt. eigenvalues --    1.36432   1.36854   1.37142   1.37901   1.38702
 Alpha virt. eigenvalues --    1.39569   1.40193   1.41025   1.41412   1.42129
 Alpha virt. eigenvalues --    1.42354   1.43147   1.43391   1.43851   1.44541
 Alpha virt. eigenvalues --    1.45234   1.45683   1.46248   1.46633   1.47440
 Alpha virt. eigenvalues --    1.47835   1.49249   1.50313   1.50989   1.51415
 Alpha virt. eigenvalues --    1.51568   1.52064   1.53237   1.53581   1.54091
 Alpha virt. eigenvalues --    1.54841   1.55034   1.56034   1.56162   1.56954
 Alpha virt. eigenvalues --    1.57298   1.58085   1.58366   1.58825   1.59078
 Alpha virt. eigenvalues --    1.59415   1.59713   1.60498   1.61335   1.61712
 Alpha virt. eigenvalues --    1.62463   1.62843   1.63223   1.63398   1.63779
 Alpha virt. eigenvalues --    1.63906   1.64097   1.64403   1.64940   1.65077
 Alpha virt. eigenvalues --    1.65296   1.65845   1.66478   1.66772   1.67095
 Alpha virt. eigenvalues --    1.67545   1.67694   1.67810   1.68364   1.68621
 Alpha virt. eigenvalues --    1.68873   1.69361   1.69457   1.69885   1.70255
 Alpha virt. eigenvalues --    1.70356   1.70680   1.70767   1.71278   1.71707
 Alpha virt. eigenvalues --    1.72020   1.72478   1.72819   1.73090   1.73618
 Alpha virt. eigenvalues --    1.73883   1.74363   1.74482   1.75105   1.75303
 Alpha virt. eigenvalues --    1.75655   1.76009   1.76080   1.76224   1.76392
 Alpha virt. eigenvalues --    1.76866   1.77133   1.77311   1.77827   1.78306
 Alpha virt. eigenvalues --    1.78871   1.78904   1.79198   1.79345   1.79575
 Alpha virt. eigenvalues --    1.80325   1.80482   1.80700   1.81039   1.81136
 Alpha virt. eigenvalues --    1.81655   1.81867   1.82346   1.82658   1.82755
 Alpha virt. eigenvalues --    1.83153   1.84111   1.84317   1.84498   1.84763
 Alpha virt. eigenvalues --    1.85057   1.85735   1.86161   1.86303   1.86433
 Alpha virt. eigenvalues --    1.86752   1.87306   1.87558   1.88216   1.88509
 Alpha virt. eigenvalues --    1.89220   1.89494   1.89698   1.89904   1.90164
 Alpha virt. eigenvalues --    1.90913   1.91224   1.91276   1.91482   1.91799
 Alpha virt. eigenvalues --    1.92525   1.92770   1.92931   1.93487   1.94040
 Alpha virt. eigenvalues --    1.94754   1.95162   1.95356   1.95806   1.96329
 Alpha virt. eigenvalues --    1.96860   1.97218   1.97629   1.98118   1.98388
 Alpha virt. eigenvalues --    1.98997   1.99062   1.99521   1.99800   2.00649
 Alpha virt. eigenvalues --    2.00801   2.01156   2.01450   2.01901   2.02530
 Alpha virt. eigenvalues --    2.02741   2.03313   2.03425   2.03722   2.04029
 Alpha virt. eigenvalues --    2.04411   2.05003   2.05223   2.05921   2.06292
 Alpha virt. eigenvalues --    2.06461   2.06698   2.07055   2.07547   2.08115
 Alpha virt. eigenvalues --    2.08357   2.08622   2.08723   2.09373   2.09582
 Alpha virt. eigenvalues --    2.10289   2.10487   2.11120   2.11355   2.11591
 Alpha virt. eigenvalues --    2.11944   2.12599   2.13395   2.13668   2.14098
 Alpha virt. eigenvalues --    2.14456   2.15113   2.15677   2.16013   2.16841
 Alpha virt. eigenvalues --    2.17217   2.17412   2.17708   2.18415   2.18851
 Alpha virt. eigenvalues --    2.19380   2.19751   2.20341   2.20860   2.21352
 Alpha virt. eigenvalues --    2.21745   2.22829   2.23433   2.23716   2.24180
 Alpha virt. eigenvalues --    2.24443   2.25116   2.25311   2.26454   2.26930
 Alpha virt. eigenvalues --    2.27447   2.28334   2.28952   2.29445   2.30127
 Alpha virt. eigenvalues --    2.30915   2.31823   2.32062   2.33115   2.33312
 Alpha virt. eigenvalues --    2.33681   2.34154   2.35255   2.36128   2.37644
 Alpha virt. eigenvalues --    2.37936   2.38117   2.39534   2.39842   2.40342
 Alpha virt. eigenvalues --    2.40903   2.41764   2.42212   2.42497   2.43022
 Alpha virt. eigenvalues --    2.43370   2.43530   2.44240   2.44779   2.44894
 Alpha virt. eigenvalues --    2.44976   2.46410   2.46860   2.47422   2.47491
 Alpha virt. eigenvalues --    2.48792   2.49712   2.50622   2.51535   2.52408
 Alpha virt. eigenvalues --    2.53099   2.53884   2.54359   2.54857   2.54981
 Alpha virt. eigenvalues --    2.56217   2.58617   2.59329   2.60089   2.60367
 Alpha virt. eigenvalues --    2.60614   2.60821   2.61160   2.61707   2.62194
 Alpha virt. eigenvalues --    2.62604   2.63184   2.63995   2.64788   2.64815
 Alpha virt. eigenvalues --    2.64979   2.65535   2.65722   2.66071   2.66322
 Alpha virt. eigenvalues --    2.67134   2.67210   2.67762   2.68456   2.68896
 Alpha virt. eigenvalues --    2.69302   2.70243   2.70801   2.71034   2.71464
 Alpha virt. eigenvalues --    2.71636   2.72606   2.73049   2.73732   2.73831
 Alpha virt. eigenvalues --    2.74319   2.74750   2.75274   2.75516   2.75807
 Alpha virt. eigenvalues --    2.76225   2.76535   2.76768   2.77797   2.78055
 Alpha virt. eigenvalues --    2.78943   2.79093   2.79831   2.80746   2.81341
 Alpha virt. eigenvalues --    2.81411   2.81804   2.82262   2.82944   2.83683
 Alpha virt. eigenvalues --    2.84013   2.84429   2.84786   2.85719   2.86279
 Alpha virt. eigenvalues --    2.86807   2.87105   2.87825   2.87974   2.88023
 Alpha virt. eigenvalues --    2.88237   2.88821   2.89228   2.89609   2.90157
 Alpha virt. eigenvalues --    2.90298   2.90574   2.91929   2.92777   2.93144
 Alpha virt. eigenvalues --    2.93165   2.93626   2.94579   2.94934   2.95411
 Alpha virt. eigenvalues --    2.95892   2.96154   2.96348   2.96769   2.97201
 Alpha virt. eigenvalues --    2.97875   2.97937   2.98122   2.98785   2.99106
 Alpha virt. eigenvalues --    2.99331   2.99808   3.00123   3.00512   3.01026
 Alpha virt. eigenvalues --    3.01364   3.01706   3.02214   3.02366   3.02586
 Alpha virt. eigenvalues --    3.03109   3.03596   3.04815   3.04884   3.05282
 Alpha virt. eigenvalues --    3.05871   3.06122   3.06505   3.07210   3.08000
 Alpha virt. eigenvalues --    3.08529   3.08900   3.09485   3.09786   3.10503
 Alpha virt. eigenvalues --    3.10651   3.11331   3.12275   3.12582   3.13252
 Alpha virt. eigenvalues --    3.13665   3.14947   3.15406   3.15636   3.16020
 Alpha virt. eigenvalues --    3.16982   3.17648   3.18815   3.19748   3.20551
 Alpha virt. eigenvalues --    3.20562   3.21104   3.21797   3.22889   3.23727
 Alpha virt. eigenvalues --    3.24511   3.24798   3.26386   3.26626   3.26911
 Alpha virt. eigenvalues --    3.27437   3.28174   3.29811   3.30048   3.30585
 Alpha virt. eigenvalues --    3.30976   3.31154   3.31980   3.32620   3.33094
 Alpha virt. eigenvalues --    3.34772   3.34937   3.35180   3.35933   3.36955
 Alpha virt. eigenvalues --    3.37921   3.38900   3.40285   3.40760   3.42522
 Alpha virt. eigenvalues --    3.43296   3.44039   3.44677   3.45613   3.46115
 Alpha virt. eigenvalues --    3.48898   3.49332   3.49878   3.50814   3.51963
 Alpha virt. eigenvalues --    3.53342   3.53919   3.55631   3.56152   3.57454
 Alpha virt. eigenvalues --    3.58435   3.63433   3.64137   3.65960   3.66384
 Alpha virt. eigenvalues --    3.67979   3.69326   3.70729   3.74046   3.74378
 Alpha virt. eigenvalues --    3.75931   3.77414   3.78859   3.79438   3.82477
 Alpha virt. eigenvalues --    3.87337   3.88034   3.88924   3.90662   3.91056
 Alpha virt. eigenvalues --    3.91454   3.92522   3.92832   3.93446   3.94619
 Alpha virt. eigenvalues --    3.95424   3.95770   3.96547   3.96797   3.97945
 Alpha virt. eigenvalues --    3.98448   3.99803   4.01011   4.01583   4.03567
 Alpha virt. eigenvalues --    4.04329   4.05602   4.10723   4.11701   4.12215
 Alpha virt. eigenvalues --    4.15630   4.15852   4.16083   4.18435   4.20269
 Alpha virt. eigenvalues --    4.22521   4.23237   4.25944   4.26834   4.28001
 Alpha virt. eigenvalues --    4.28563   4.29268   4.29415   4.30554   4.32127
 Alpha virt. eigenvalues --    4.33204   4.34195   4.36377   4.38837   4.42524
 Alpha virt. eigenvalues --    4.44952   4.45810   4.47127   4.50695   4.52793
 Alpha virt. eigenvalues --    4.54099   4.71945   4.90096   4.95974   4.96177
 Alpha virt. eigenvalues --    5.02594   5.36424   5.39726   5.40690   5.43514
 Alpha virt. eigenvalues --    5.44860   5.45383   5.51402   5.54306   5.55325
 Alpha virt. eigenvalues --    5.58595   5.63998   5.67650   5.69459   5.75770
 Alpha virt. eigenvalues --    5.76672   5.79612   5.82825   5.88901   7.71932
 Alpha virt. eigenvalues --   14.36803  14.41082  14.51833  14.99557  23.77637
 Alpha virt. eigenvalues --   23.81144  23.93256  23.98950  24.02395  24.02927
 Alpha virt. eigenvalues --   24.03771  24.04589  24.05825  24.07560  24.11261
 Alpha virt. eigenvalues --   24.11967  24.12204  24.12301  24.13199  24.13993
 Alpha virt. eigenvalues --   24.14052  24.14425  24.14622  24.15487  24.15862
 Alpha virt. eigenvalues --   24.16966  24.17919  24.19051  24.21789  24.22143
 Alpha virt. eigenvalues --   24.22167  24.23843  24.24018  24.33098  24.33199
 Alpha virt. eigenvalues --   35.76726  50.13786  50.17929  50.21001  50.21838
 Alpha virt. eigenvalues --   50.23015  50.25406 163.97278
          Condensed to atoms (all electrons):
 Mulliken charges:
               1
     1  C    0.268486
     2  C   -0.492872
     3  H   -0.144692
     4  C   -0.620984
     5  H    0.198205
     6  H    0.209280
     7  H    0.194345
     8  C   -0.314737
     9  H    0.225659
    10  H    0.276313
    11  H    0.216181
    12  B    0.932915
    13  C   -0.866173
    14  H    0.150643
    15  H    0.193488
    16  H    0.225177
    17  O    0.032295
    18  O   -0.068058
    19  C    0.170274
    20  C   -0.591864
    21  C   -0.757108
    22  H    0.195436
    23  H    0.191081
    24  H    0.189620
    25  C   -0.585687
    26  H    0.204032
    27  H    0.046446
    28  H    0.225370
    29  C   -0.266798
    30  H    0.206884
    31  H   -0.319918
    32  H    0.246340
    33  C   -0.789319
    34  H    0.290486
    35  H    0.164761
    36  H    0.236130
    37  P   -0.397695
    38  O    0.096521
    39  O   -0.076931
    40  N   -0.423138
    41  H    0.406103
    42  H    0.535541
    43  Li  -0.634723
    44  C   -0.140058
    45  O    0.032051
    46  C   -0.097358
    47  C   -0.407638
    48  C   -0.665415
    49  H    0.134783
    50  H    0.239731
    51  H    0.253924
    52  H   -0.023240
    53  H    0.251915
    54  H    0.117023
    55  H    0.224407
    56  H    0.191195
    57  C   -0.021078
    58  O    0.148457
    59  C   -0.122478
    60  C   -0.824644
    61  C   -0.464117
    62  H    0.073814
    63  H    0.164744
    64  H    0.149890
    65  H    0.082596
    66  H    0.199407
    67  H    0.255575
    68  H    0.271242
    69  H    0.162154
    70  C   -0.071896
    71  C   -0.008260
    72  C    0.280453
    73  C   -0.534450
    74  H    0.313589
    75  C   -0.206451
    76  H    0.149960
    77  C   -0.377500
    78  H    0.269195
    79  H    0.286837
    80  H    0.254233
    81  C    0.372576
    82  C   -0.061218
    83  C   -0.107713
    84  C   -0.555313
    85  H    0.287862
    86  C   -0.336877
    87  H    0.353176
    88  C   -0.482463
    89  H    0.271663
    90  H    0.277906
    91  H    0.260495
 Sum of Mulliken charges =  -0.00000
 Mulliken charges with hydrogens summed into heavy atoms:
               1
     1  C    0.268486
     2  C   -0.637564
     4  C   -0.019155
     8  C    0.403415
    12  B    0.932915
    13  C   -0.296865
    17  O    0.032295
    18  O   -0.068058
    19  C    0.170274
    20  C   -0.591864
    21  C   -0.180971
    25  C   -0.109839
    29  C   -0.133493
    33  C   -0.097941
    37  P   -0.397695
    38  O    0.096521
    39  O   -0.076931
    40  N    0.518506
    43  Li  -0.634723
    44  C    0.234456
    45  O    0.032051
    46  C    0.133326
    47  C   -0.038700
    48  C   -0.249813
    57  C    0.217480
    58  O    0.148457
    59  C    0.110007
    60  C   -0.369661
    61  C   -0.030721
    70  C   -0.071896
    71  C    0.305329
    72  C    0.430413
    73  C   -0.265255
    75  C    0.080386
    77  C   -0.123266
    81  C    0.372576
    82  C    0.226645
    83  C    0.245462
    84  C   -0.283650
    86  C   -0.058970
    88  C   -0.221967
 Electronic spatial extent (au):  <R**2>=          20598.7334
 Charge=             -0.0000 electrons
 Dipole moment (field-independent basis, Debye):
    X=             -9.4377    Y=              2.5875    Z=              4.8981  Tot=             10.9434
 Quadrupole moment (field-independent basis, Debye-Ang):
   XX=           -248.4473   YY=           -236.4063   ZZ=           -233.9636
   XY=            -23.6871   XZ=            -14.9400   YZ=             -0.6973
 Traceless Quadrupole moment (field-independent basis, Debye-Ang):
   XX=             -8.8415   YY=              3.1994   ZZ=              5.6421
   XY=            -23.6871   XZ=            -14.9400   YZ=             -0.6973
 Octapole moment (field-independent basis, Debye-Ang**2):
  XXX=           -187.9701  YYY=              7.9120  ZZZ=             18.3931  XYY=            -43.4034
  XXY=             45.7936  XXZ=             90.2774  XZZ=             35.5450  YZZ=              0.8735
  YYZ=             30.0683  XYZ=            -10.2296
 Hexadecapole moment (field-independent basis, Debye-Ang**3):
 XXXX=         -13637.4413 YYYY=          -6658.9544 ZZZZ=          -6216.0802 XXXY=            262.5890
 XXXZ=            239.1727 YYYX=            781.7584 YYYZ=           -296.9684 ZZZX=            634.8154
 ZZZY=           -103.7115 XXYY=          -3612.8064 XXZZ=          -3280.7599 YYZZ=          -2259.0338
 XXYZ=            -77.9835 YYXZ=            332.9076 ZZXY=            170.2855
 N-N= 5.688023311495D+03 E-N=-1.627050446642D+04  KE= 2.083090998200D+03
 Unable to Open any file for archive entry.
 1\1\GINC-NODE03\SP\RwB97XD\6-311++G(d,p)\C31H50B1Li1N1O6P1\WHUGHES2\08
 -Oct-2025\0\\# wb97xd/6-311++g** nosymm int=ultrafine scrf=(smd,solven
 t=tetrahydrofuran)\\openTS-phos-full-unfrz-c4_tzpop-sp\\0,1\C,0,-4.33,
 1.0901,0.3902\C,0,-3.5738,2.0816,1.1894\H,0,-2.556,2.1923,0.8083\C,0,-
 4.1739,3.4468,1.465\H,0,-5.1556,3.3775,1.9451\H,0,-3.5097,4.0094,2.129
 4\H,0,-4.2841,4.0076,0.5304\C,0,-5.8136,1.1631,0.3673\H,0,-6.2317,1.40
 97,1.3494\H,0,-6.1039,1.9909,-0.2973\H,0,-6.2582,0.2387,-0.0075\B,0,-3
 .5667,0.1016,-0.5905\C,0,-3.6677,1.1611,-1.8878\H,0,-2.9299,0.7739,-2.
 6028\H,0,-4.6583,1.108,-2.3548\H,0,-3.4276,2.2155,-1.7066\O,0,-2.2008,
 -0.2498,-0.1391\O,0,-4.2118,-1.1544,-0.9327\C,0,-3.4957,-2.2005,-0.295
 2\C,0,-2.0257,-1.6673,-0.3107\C,0,-3.6922,-3.4923,-1.081\H,0,-4.735,-3
 .8203,-1.0005\H,0,-3.4636,-3.3523,-2.141\H,0,-3.054,-4.2927,-0.6876\C,
 0,-4.0423,-2.3917,1.1267\H,0,-3.5767,-3.2445,1.6334\H,0,-3.8878,-1.501
 4,1.7446\H,0,-5.1206,-2.5767,1.0667\C,0,-1.3232,-1.8968,-1.6513\H,0,-1
 .9423,-1.5547,-2.4874\H,0,-0.3887,-1.3278,-1.6454\H,0,-1.0816,-2.9548,
 -1.8066\C,0,-1.1508,-2.1963,0.8184\H,0,-1.0925,-3.2908,0.7831\H,0,-0.1
 364,-1.8027,0.7084\H,0,-1.5337,-1.8991,1.7991\P,0,2.5954,0.029,-0.3031
 \O,0,1.0707,0.0762,-0.3786\O,0,3.3598,1.2022,0.2674\N,0,-3.5098,1.2396
 ,2.3922\H,0,-4.4049,0.9546,2.7783\H,0,-2.8679,0.4575,2.2957\Li,0,-0.53
 36,0.7127,0.311\C,0,-0.5369,2.1148,3.0931\O,0,-0.4309,0.9066,2.3337\C,
 0,0.5763,0.1274,2.9867\C,0,1.6694,1.1316,3.3423\C,0,0.8873,2.4457,3.56
 94\H,0,-0.9837,2.8743,2.4493\H,0,-1.2114,1.9377,3.9405\H,0,0.1397,-0.3
 377,3.8831\H,0,0.8974,-0.6535,2.2974\H,0,2.2372,0.8166,4.2227\H,0,2.35
 96,1.2362,2.5\H,0,0.8796,2.7472,4.6209\H,0,1.3216,3.2648,2.9893\C,0,-0
 .4567,2.4378,-1.8884\O,0,-0.5976,2.583,-0.4603\C,0,0.4861,3.3805,0.058
 3\C,0,1.1006,4.075,-1.1489\C,0,0.9029,3.0259,-2.2453\H,0,-0.5462,1.375
 7,-2.1336\H,0,-1.2751,2.9868,-2.3685\H,0,0.069,4.0746,0.7934\H,0,1.211
 4,2.7149,0.5407\H,0,0.5516,4.9939,-1.3872\H,0,2.1513,4.3277,-0.9826\H,
 0,0.9145,3.4466,-3.2549\H,0,1.6796,2.2591,-2.1764\C,0,3.1856,-0.3341,-
 2.0002\C,0,4.5556,-0.4693,-2.2557\C,0,2.2843,-0.4696,-3.0597\C,0,5.014
 6,-0.7372,-3.5434\H,0,5.2692,-0.364,-1.4413\C,0,2.7397,-0.7327,-4.3521
 \H,0,1.2205,-0.3609,-2.8668\C,0,4.1057,-0.8689,-4.5951\H,0,6.0807,-0.8
 415,-3.7287\H,0,2.0278,-0.8325,-5.1677\H,0,4.4628,-1.0764,-5.6006\C,0,
 3.0295,-1.4797,0.6455\C,0,3.8945,-1.4045,1.7399\C,0,2.4669,-2.7171,0.3
 094\C,0,4.1845,-2.5419,2.4952\H,0,4.3355,-0.4455,1.9993\C,0,2.7568,-3.
 8556,1.0573\H,0,1.7926,-2.7901,-0.5415\C,0,3.6151,-3.7682,2.1555\H,0,4
 .856,-2.4704,3.3472\H,0,2.313,-4.8105,0.7868\H,0,3.8409,-4.6555,2.7415
 \\Version=AS64L-G16RevC.01\HF=-2091.446156\RMSD=6.289e-09\Dipole=-3.71
 30851,1.018007,1.927061\Quadrupole=-6.5734686,2.3786924,4.1947762,-17.
 6107583,-11.1075445,-0.5184169\PG=C01 [X(C31H50B1Li1N1O6P1)]\\@
 The archive entry for this job was punched.


 THOUGH I SPEAK WITH THE TONGUES OF MEN AND OF ANGELS, 
 AND HAVE NOT LOVE,
 I AM BECOME AS SOUNDING BRASS, A TINKLING CYMBAL.
 AND THOUGH I HAVE THE GIFT OF PROPHECY,
 AND UNDERSTAND ALL MYSTERIES, AND ALL KNOWLEDGE.
 AND THOUGH I HAVE ALL FAITH, SO THAT I COULD REMOVE MOUNTAINS,
 AND HAVE NOT LOVE, I AM NOTHING.
 AND THOUGH I BESTOW ALL MY GOODS TO FEED THE POOR,
 AND THOUGH I GIVE MY BODY TO BE BURNED,
 AND HAVE NOT LOVE IT PROFITETH ME NOTHING.
 LOVE SUFFERETH LONG, AND IS KIND,
 LOVE ENVIETH NOT,
 LOVE VAUNTETH NOT ITSELF, IS NOT PUFFED UP,
 DOTH NOT BEHAVE ITSELF UNSEEMLY, SEEKETH NOT HER OWN,
 IS NOT EASILY PROVOKED, THINKETH NO EVIL,
 REJOICETH NOT IN INIQUITY, BUT REJOICETH IN THE TRUTH,
 BEARETH ALL THINGS, BELIEVETH ALL THINGS,
 HOPETH ALL THINGS, ENDURETH ALL THINGS.
 LOVE NEVER FAILETH, BUT WHETHER THERE BE PROPHECIES, THEY SHALL FAIL, 
 WHETHER THERE BE TONGUES, THEY SHALL CEASE,
 WHETHER THERE BE KNOWLEDGE, IT SHALL VANISH AWAY.
 FOR WE KNOW IN PART, AND WE PROPHESY IN PART.
 BUT WHEN THAT WHICH IS PERFECT IS COME, THEN THAT WHICH IS IN PART 
 SHALL BE DONE AWAY. 
 WHEN I WAS A CHILD, I SPAKE AS A CHILD, I UNDERSTOOD AS A CHILD, 
 I THOUGHT AS A CHILD.
 BUT WHEN I BECAME A MAN, I PUT AWAY CHILDISH THINGS.
 FOR NOW WE SEE THROUGH A GLASS, DARKLY, BUT THEN FACE TO FACE.
 NOW I KNOW IN PART. BUT THEN SHALL I KNOW EVEN AS ALSO I AM KNOWN.
 AND NOW ABIDETH FAITH, HOPE AND LOVE, THESE THREE.
 BUT THE GREATEST OF THESE IS LOVE.

                     I CORINTHIANS 13
 Job cpu time:       0 days  9 hours 43 minutes 19.3 seconds.
 Elapsed time:       0 days  2 hours 27 minutes 10.6 seconds.
 File lengths (MBytes):  RWF=   1327 Int=      0 D2E=      0 Chk=     95 Scr=      1
 Normal termination of Gaussian 16 at Wed Oct  8 17:54:56 2025.
