Job Start Time: Wed Oct  8 15:27:45 MDT 2025
SLURM Job ID: 768187
SLURM Job Name: openTS-phos-full-unfrz-c6_tzpop-sp
 Entering Gaussian System, Link 0=/opt/apps/Gaussian/G16C/g16/g16
 Initial command:
 /opt/apps/Gaussian/G16C/g16/l1.exe "/tmp/768187/Gau-946008.inp" -scrdir="/tmp/768187/"
 Entering Link 1 = /opt/apps/Gaussian/G16C/g16/l1.exe PID=    946012.
  
 Copyright (c) 1988-2019, Gaussian, Inc.  All Rights Reserved.
  
 This is part of the Gaussian(R) 16 program.  It is based on
 the Gaussian(R) 09 system (copyright 2009, Gaussian, Inc.),
 the Gaussian(R) 03 system (copyright 2003, Gaussian, Inc.),
 the Gaussian(R) 98 system (copyright 1998, Gaussian, Inc.),
 the Gaussian(R) 94 system (copyright 1995, Gaussian, Inc.),
 the Gaussian 92(TM) system (copyright 1992, Gaussian, Inc.),
 the Gaussian 90(TM) system (copyright 1990, Gaussian, Inc.),
 the Gaussian 88(TM) system (copyright 1988, Gaussian, Inc.),
 the Gaussian 86(TM) system (copyright 1986, Carnegie Mellon
 University), and the Gaussian 82(TM) system (copyright 1983,
 Carnegie Mellon University). Gaussian is a federally registered
 trademark of Gaussian, Inc.
  
 This software contains proprietary and confidential information,
 including trade secrets, belonging to Gaussian, Inc.
  
 This software is provided under written license and may be
 used, copied, transmitted, or stored only in accord with that
 written license.
  
 The following legend is applicable only to US Government
 contracts under FAR:
  
                    RESTRICTED RIGHTS LEGEND
  
 Use, reproduction and disclosure by the US Government is
 subject to restrictions as set forth in subparagraphs (a)
 and (c) of the Commercial Computer Software - Restricted
 Rights clause in FAR 52.227-19.
  
 Gaussian, Inc.
 340 Quinnipiac St., Bldg. 40, Wallingford CT 06492
  
  
 ---------------------------------------------------------------
 Warning -- This program may not be used in any manner that
 competes with the business of Gaussian, Inc. or will provide
 assistance to any competitor of Gaussian, Inc.  The licensee
 of this program is prohibited from giving any competitor of
 Gaussian, Inc. access to this program.  By using this program,
 the user acknowledges that Gaussian, Inc. is engaged in the
 business of creating and licensing software in the field of
 computational chemistry and represents and warrants to the
 licensee that it is not a competitor of Gaussian, Inc. and that
 it will not use this program in any manner prohibited above.
 ---------------------------------------------------------------
  

 Cite this work as:
 Gaussian 16, Revision C.01,
 M. J. Frisch, G. W. Trucks, H. B. Schlegel, G. E. Scuseria, 
 M. A. Robb, J. R. Cheeseman, G. Scalmani, V. Barone, 
 G. A. Petersson, H. Nakatsuji, X. Li, M. Caricato, A. V. Marenich, 
 J. Bloino, B. G. Janesko, R. Gomperts, B. Mennucci, H. P. Hratchian, 
 J. V. Ortiz, A. F. Izmaylov, J. L. Sonnenberg, D. Williams-Young, 
 F. Ding, F. Lipparini, F. Egidi, J. Goings, B. Peng, A. Petrone, 
 T. Henderson, D. Ranasinghe, V. G. Zakrzewski, J. Gao, N. Rega, 
 G. Zheng, W. Liang, M. Hada, M. Ehara, K. Toyota, R. Fukuda, 
 J. Hasegawa, M. Ishida, T. Nakajima, Y. Honda, O. Kitao, H. Nakai, 
 T. Vreven, K. Throssell, J. A. Montgomery, Jr., J. E. Peralta, 
 F. Ogliaro, M. J. Bearpark, J. J. Heyd, E. N. Brothers, K. N. Kudin, 
 V. N. Staroverov, T. A. Keith, R. Kobayashi, J. Normand, 
 K. Raghavachari, A. P. Rendell, J. C. Burant, S. S. Iyengar, 
 J. Tomasi, M. Cossi, J. M. Millam, M. Klene, C. Adamo, R. Cammi, 
 J. W. Ochterski, R. L. Martin, K. Morokuma, O. Farkas, 
 J. B. Foresman, and D. J. Fox, Gaussian, Inc., Wallingford CT, 2019.
 
 ******************************************
 Gaussian 16:  AS64L-G16RevC.01  3-Jul-2019
                 8-Oct-2025 
 ******************************************
 %chk=openTS-phos-full-unfrz-c6_tzpop-sp.chk
 %nprocshared=4
 Will use up to    4 processors via shared memory.
 %mem=8GB
 ----------------------------------------------------------------------
 # wb97xd/6-311++g** nosymm int=ultrafine scrf=(smd,solvent=tetrahydrof
 uran)
 ----------------------------------------------------------------------
 1/38=1,172=1/1;
 2/12=2,15=1,17=6,18=5,40=1/2;
 3/5=4,6=6,7=1111,11=2,25=1,30=1,70=32201,72=20,74=-58,75=-5/1,2,3;
 4//1;
 5/5=2,38=5,53=20/2;
 6/7=2,8=2,9=2,10=2,28=1/1;
 99/5=1,9=1/99;
 ----------------------------------
 openTS-phos-full-unfrz-c6_tzpop-sp
 ----------------------------------
 Symbolic Z-matrix:
 Charge =  0 Multiplicity = 1
 C                    -1.6821    1.5413   -2.198 
 C                    -0.6715    2.3315   -1.4605 
 H                    -0.1105    1.7011   -0.7659 
 C                     0.2804    3.2313   -2.2235 
 H                     0.9404    2.6295   -2.8572 
 H                    -0.2459    3.9547   -2.8561 
 H                     0.9008    3.7865   -1.5128 
 C                    -2.1542    2.0437   -3.5145 
 H                    -3.0671    1.5408   -3.8397 
 H                    -2.3058    3.1291   -3.508 
 H                    -1.3613    1.8604   -4.2546 
 B                    -2.1014    0.0799   -1.7149 
 C                    -0.7913   -0.6715   -2.4282 
 H                     0.13     -0.4759   -1.8737 
 H                    -1.018    -1.7447   -2.368 
 H                    -0.6202   -0.439    -3.4874 
 O                    -2.1405   -0.1714   -0.2521 
 O                    -3.3998   -0.3603   -2.2219 
 C                    -4.0672   -1.0816   -1.2002 
 C                    -3.5092   -0.4204    0.1013 
 C                    -3.6983   -2.5694   -1.2969 
 H                    -3.8882   -2.9123   -2.3199 
 H                    -2.6402   -2.7386   -1.0728 
 H                    -4.2979   -3.1825   -0.6139 
 C                    -5.5741   -0.9287   -1.383 
 H                    -6.1208   -1.3655   -0.5385 
 H                    -5.8606    0.1223   -1.48 
 H                    -5.8896   -1.4492   -2.2945 
 C                    -3.5547   -1.3151    1.3307 
 H                    -3.1303   -0.7987    2.1983 
 H                    -4.59     -1.5859    1.5691 
 H                    -2.9844   -2.2332    1.1756 
 C                    -4.2013    0.9112    0.4098 
 H                    -4.2414    1.5573   -0.4736 
 H                    -5.2251    0.7566    0.7678 
 H                    -3.6483    1.4329    1.1977 
 P                     2.4968    0.0845    0.2812 
 O                     0.9868    0.3011    0.3632 
 O                     3.3808    0.5713    1.4054 
 N                    -1.6616    3.0909   -0.678 
 H                    -2.3438    3.616    -1.2177 
 H                    -2.1049    2.5364    0.0483 
 Li                   -0.6949   -0.004     1.0758 
 C                    -1.8018    1.8141    3.3178 
 O                    -1.0574    1.7008    2.1075 
 C                    -0.0604    2.7247    2.1823 
 C                    -0.7781    3.9362    2.7938 
 C                    -2.0095    3.319     3.5008 
 H                    -2.7237    1.2401    3.2087 
 H                    -1.2147    1.3881    4.1443 
 H                     0.7591    2.3753    2.8247 
 H                     0.3285    2.8878    1.1781 
 H                    -0.1234    4.4698    3.4884 
 H                    -1.0857    4.6372    2.0128 
 H                    -2.0743    3.5911    4.558 
 H                    -2.9364    3.6354    3.0124 
 C                    -0.6358   -2.7079    2.6038 
 O                    -0.5197   -1.2762    2.631 
 C                     0.5574   -0.8899    3.4964 
 C                     1.4976   -2.0843    3.5194 
 C                     0.5178   -3.2606    3.4494 
 H                    -1.6162   -2.9902    3.0019 
 H                    -0.5769   -3.0285    1.5585 
 H                     1.0071    0.0144    3.0809 
 H                     0.1551   -0.6767    4.4971 
 H                     2.1495   -2.0659    2.6415 
 H                     2.1233   -2.1015    4.4163 
 H                     0.9593   -4.1542    2.9996 
 H                     0.1633   -3.5221    4.4526 
 C                     3.0506    0.8572   -1.2916 
 C                     3.6783    2.1065   -1.2553 
 C                     2.8175    0.2573   -2.5348 
 C                     4.0502    2.7521   -2.4343 
 H                     3.8799    2.5721   -0.2938 
 C                     3.1931    0.8961   -3.7154 
 H                     2.3451   -0.7208   -2.5875 
 C                     3.8071    2.1483   -3.6675 
 H                     4.5346    3.7243   -2.3895 
 H                     3.0089    0.4148   -4.6726 
 H                     4.1002    2.6477   -4.5874 
 C                     2.7446   -1.7124    0.0179 
 C                     1.6536   -2.5501   -0.2296 
 C                     4.0249   -2.2723    0.091 
 C                     1.8327   -3.9231   -0.3954 
 H                     0.6576   -2.1193   -0.2816 
 C                     4.2098   -3.6434   -0.0769 
 H                     4.8811   -1.6321    0.2903 
 C                     3.1124   -4.4717   -0.3189 
 H                     0.9741   -4.5635   -0.583 
 H                     5.2087   -4.0675   -0.0147 
 H                     3.2559   -5.5416   -0.447 
 
 Symmetry turned off by external request.
 Stoichiometry    C31H50BLiNO6P
 Framework group  C1[X(C31H50BLiNO6P)]
 Deg. of freedom   267
 Full point group                 C1      NOp   1
                          Input orientation:                          
 ---------------------------------------------------------------------
 Center     Atomic      Atomic             Coordinates (Angstroms)
 Number     Number       Type             X           Y           Z
 ---------------------------------------------------------------------
      1          6           0       -1.682100    1.541300   -2.198000
      2          6           0       -0.671500    2.331500   -1.460500
      3          1           0       -0.110500    1.701100   -0.765900
      4          6           0        0.280400    3.231300   -2.223500
      5          1           0        0.940400    2.629500   -2.857200
      6          1           0       -0.245900    3.954700   -2.856100
      7          1           0        0.900800    3.786500   -1.512800
      8          6           0       -2.154200    2.043700   -3.514500
      9          1           0       -3.067100    1.540800   -3.839700
     10          1           0       -2.305800    3.129100   -3.508000
     11          1           0       -1.361300    1.860400   -4.254600
     12          5           0       -2.101400    0.079900   -1.714900
     13          6           0       -0.791300   -0.671500   -2.428200
     14          1           0        0.130000   -0.475900   -1.873700
     15          1           0       -1.018000   -1.744700   -2.368000
     16          1           0       -0.620200   -0.439000   -3.487400
     17          8           0       -2.140500   -0.171400   -0.252100
     18          8           0       -3.399800   -0.360300   -2.221900
     19          6           0       -4.067200   -1.081600   -1.200200
     20          6           0       -3.509200   -0.420400    0.101300
     21          6           0       -3.698300   -2.569400   -1.296900
     22          1           0       -3.888200   -2.912300   -2.319900
     23          1           0       -2.640200   -2.738600   -1.072800
     24          1           0       -4.297900   -3.182500   -0.613900
     25          6           0       -5.574100   -0.928700   -1.383000
     26          1           0       -6.120800   -1.365500   -0.538500
     27          1           0       -5.860600    0.122300   -1.480000
     28          1           0       -5.889600   -1.449200   -2.294500
     29          6           0       -3.554700   -1.315100    1.330700
     30          1           0       -3.130300   -0.798700    2.198300
     31          1           0       -4.590000   -1.585900    1.569100
     32          1           0       -2.984400   -2.233200    1.175600
     33          6           0       -4.201300    0.911200    0.409800
     34          1           0       -4.241400    1.557300   -0.473600
     35          1           0       -5.225100    0.756600    0.767800
     36          1           0       -3.648300    1.432900    1.197700
     37         15           0        2.496800    0.084500    0.281200
     38          8           0        0.986800    0.301100    0.363200
     39          8           0        3.380800    0.571300    1.405400
     40          7           0       -1.661600    3.090900   -0.678000
     41          1           0       -2.343800    3.616000   -1.217700
     42          1           0       -2.104900    2.536400    0.048300
     43          3           0       -0.694900   -0.004000    1.075800
     44          6           0       -1.801800    1.814100    3.317800
     45          8           0       -1.057400    1.700800    2.107500
     46          6           0       -0.060400    2.724700    2.182300
     47          6           0       -0.778100    3.936200    2.793800
     48          6           0       -2.009500    3.319000    3.500800
     49          1           0       -2.723700    1.240100    3.208700
     50          1           0       -1.214700    1.388100    4.144300
     51          1           0        0.759100    2.375300    2.824700
     52          1           0        0.328500    2.887800    1.178100
     53          1           0       -0.123400    4.469800    3.488400
     54          1           0       -1.085700    4.637200    2.012800
     55          1           0       -2.074300    3.591100    4.558000
     56          1           0       -2.936400    3.635400    3.012400
     57          6           0       -0.635800   -2.707900    2.603800
     58          8           0       -0.519700   -1.276200    2.631000
     59          6           0        0.557400   -0.889900    3.496400
     60          6           0        1.497600   -2.084300    3.519400
     61          6           0        0.517800   -3.260600    3.449400
     62          1           0       -1.616200   -2.990200    3.001900
     63          1           0       -0.576900   -3.028500    1.558500
     64          1           0        1.007100    0.014400    3.080900
     65          1           0        0.155100   -0.676700    4.497100
     66          1           0        2.149500   -2.065900    2.641500
     67          1           0        2.123300   -2.101500    4.416300
     68          1           0        0.959300   -4.154200    2.999600
     69          1           0        0.163300   -3.522100    4.452600
     70          6           0        3.050600    0.857200   -1.291600
     71          6           0        3.678300    2.106500   -1.255300
     72          6           0        2.817500    0.257300   -2.534800
     73          6           0        4.050200    2.752100   -2.434300
     74          1           0        3.879900    2.572100   -0.293800
     75          6           0        3.193100    0.896100   -3.715400
     76          1           0        2.345100   -0.720800   -2.587500
     77          6           0        3.807100    2.148300   -3.667500
     78          1           0        4.534600    3.724300   -2.389500
     79          1           0        3.008900    0.414800   -4.672600
     80          1           0        4.100200    2.647700   -4.587400
     81          6           0        2.744600   -1.712400    0.017900
     82          6           0        1.653600   -2.550100   -0.229600
     83          6           0        4.024900   -2.272300    0.091000
     84          6           0        1.832700   -3.923100   -0.395400
     85          1           0        0.657600   -2.119300   -0.281600
     86          6           0        4.209800   -3.643400   -0.076900
     87          1           0        4.881100   -1.632100    0.290300
     88          6           0        3.112400   -4.471700   -0.318900
     89          1           0        0.974100   -4.563500   -0.583000
     90          1           0        5.208700   -4.067500   -0.014700
     91          1           0        3.255900   -5.541600   -0.447000
 ---------------------------------------------------------------------
 Rotational constants (GHZ):           0.0967756           0.0774981           0.0687406
 Standard basis: 6-311++G(d,p) (5D, 7F)
  1260 basis functions,  1940 primitive gaussians,  1301 cartesian basis functions
   157 alpha electrons      157 beta electrons
       nuclear repulsion energy      5727.8696974580 Hartrees.
 NAtoms=   91 NActive=   91 NUniq=   91 SFac= 1.00D+00 NAtFMM=   60 NAOKFM=T Big=T
 Integral buffers will be    131072 words long.
 Raffenetti 2 integral format.
 Two-electron integral symmetry is turned off.
 Nuclear repulsion after empirical dispersion term =     5727.7515444646 Hartrees.
 ------------------------------------------------------------------------------
 Polarizable Continuum Model (PCM)
 =================================
 Model                : PCM.
 Atomic radii         : SMD-Coulomb.
 Polarization charges : Total charges.
 Charge compensation  : None.
 Solution method      : On-the-fly selection.
 Cavity type          : VdW (van der Waals Surface) (Alpha=1.000).
 Cavity algorithm     : GePol (No added spheres)
                        Default sphere list used, NSphG=   91.
                        Lebedev-Laikov grids with approx.  5.0 points / Ang**2.
                        Smoothing algorithm: York/Karplus (Gamma=1.0000).
                        Polarization charges: spherical gaussians, with
                                              point-specific exponents (IZeta= 3).
                        Self-potential: point-specific (ISelfS= 7).
                        Self-field    : sphere-specific E.n sum rule (ISelfD= 2).
 Solvent              : TetraHydroFuran, Eps=   7.425700 Eps(inf)=   1.974025
 ------------------------------------------------------------------------------
 ------------------------------------------------------------------------------
 Atomic radii for non-electrostatic terms: SMD-CDS.
 ------------------------------------------------------------------------------
 Nuclear repulsion after PCM non-electrostatic terms =     5727.7420542914 Hartrees.
 One-electron integrals computed using PRISM.
 NBasis=  1260 RedAO= T EigKep=  1.01D-06  NBF=  1260
 NBsUse=  1251 1.00D-06 EigRej=  7.19D-07 NBFU=  1251
 ExpMin= 7.40D-03 ExpMax= 7.75D+04 ExpMxC= 2.65D+03 IAcc=3 IRadAn=         5 AccDes= 0.00D+00
 Harris functional with IExCor= 4639 and IRadAn=       5 diagonalized for initial guess.
 HarFok:  IExCor= 4639 AccDes= 0.00D+00 IRadAn=         5 IDoV= 1 UseB2=F ITyADJ=14
 ICtDFT=  3500011 ScaDFX=  1.000000  1.000000  1.000000  1.000000
 FoFCou: FMM=F IPFlag=           0 FMFlag=      100000 FMFlg1=        2001
         NFxFlg=           0 DoJE=T BraDBF=F KetDBF=T FulRan=T
         wScrn=  0.000000 ICntrl=       500 IOpCl=  0 I1Cent=   200000004 NGrid=           0
         NMat0=    1 NMatS0=      1 NMatT0=    0 NMatD0=    1 NMtDS0=    0 NMtDT0=    0
 Symmetry not used in FoFCou.
 Requested convergence on RMS density matrix=1.00D-08 within 128 cycles.
 Requested convergence on MAX density matrix=1.00D-06.
 Requested convergence on             energy=1.00D-06.
 No special actions if energy rises.
 Inv3:  Mode=1 IEnd=    93777843.
 Iteration    1 A*A^-1 deviation from unit magnitude is 1.03D-14 for   5556.
 Iteration    1 A*A^-1 deviation from orthogonality  is 3.08D-15 for   5556   1793.
 Iteration    1 A^-1*A deviation from unit magnitude is 1.03D-14 for   5556.
 Iteration    1 A^-1*A deviation from orthogonality  is 5.02D-15 for   5589   1258.
 Error on total polarization charges =  0.07364
 SCF Done:  E(RwB97XD) =  -2091.44522084     A.U. after   18 cycles
            NFock= 18  Conv=0.27D-08     -V/T= 2.0040
 SMD-CDS (non-electrostatic) energy       (kcal/mol) =      -5.96
 (included in total energy above)

 **********************************************************************

            Population analysis using the SCF Density.

 **********************************************************************

 Alpha  occ. eigenvalues --  -77.25786 -19.26063 -19.25319 -19.21832 -19.19695
 Alpha  occ. eigenvalues --  -19.17277 -19.16138 -14.44224 -10.34044 -10.32960
 Alpha  occ. eigenvalues --  -10.32494 -10.32346 -10.32198 -10.31876 -10.31820
 Alpha  occ. eigenvalues --  -10.31756 -10.28739 -10.28590 -10.28560 -10.28541
 Alpha  occ. eigenvalues --  -10.28529 -10.28483 -10.28449 -10.28449 -10.28415
 Alpha  occ. eigenvalues --  -10.28344 -10.28333 -10.28074 -10.27995 -10.27733
 Alpha  occ. eigenvalues --  -10.27517 -10.27457 -10.27023 -10.26722 -10.26161
 Alpha  occ. eigenvalues --  -10.26128 -10.25819 -10.25510 -10.23433  -6.83520
 Alpha  occ. eigenvalues --   -6.70080  -4.84805  -4.84790  -4.84740  -1.98340
 Alpha  occ. eigenvalues --   -1.15237  -1.14094  -1.12480  -1.06268  -1.05601
 Alpha  occ. eigenvalues --   -1.01956  -1.00096  -0.95466  -0.95299  -0.89167
 Alpha  occ. eigenvalues --   -0.87798  -0.87743  -0.87573  -0.84916  -0.84272
 Alpha  occ. eigenvalues --   -0.84168  -0.83862  -0.83436  -0.83383  -0.83150
 Alpha  occ. eigenvalues --   -0.82539  -0.79025  -0.77378  -0.76297  -0.74127
 Alpha  occ. eigenvalues --   -0.71125  -0.69577  -0.69446  -0.69300  -0.69258
 Alpha  occ. eigenvalues --   -0.68609  -0.68271  -0.68179  -0.68027  -0.65016
 Alpha  occ. eigenvalues --   -0.63267  -0.62056  -0.62016  -0.60625  -0.60291
 Alpha  occ. eigenvalues --   -0.59275  -0.58816  -0.58394  -0.57854  -0.57471
 Alpha  occ. eigenvalues --   -0.55598  -0.54514  -0.54044  -0.53944  -0.53865
 Alpha  occ. eigenvalues --   -0.53832  -0.53452  -0.53233  -0.52469  -0.52198
 Alpha  occ. eigenvalues --   -0.51775  -0.51502  -0.51248  -0.50497  -0.50279
 Alpha  occ. eigenvalues --   -0.50154  -0.50022  -0.49954  -0.49821  -0.49324
 Alpha  occ. eigenvalues --   -0.48483  -0.48253  -0.47765  -0.47513  -0.47341
 Alpha  occ. eigenvalues --   -0.46868  -0.46675  -0.46360  -0.45780  -0.45683
 Alpha  occ. eigenvalues --   -0.45360  -0.44974  -0.44229  -0.44096  -0.44041
 Alpha  occ. eigenvalues --   -0.43850  -0.43378  -0.43193  -0.43021  -0.42695
 Alpha  occ. eigenvalues --   -0.42556  -0.42479  -0.42267  -0.41956  -0.41763
 Alpha  occ. eigenvalues --   -0.41455  -0.41431  -0.41274  -0.40975  -0.40402
 Alpha  occ. eigenvalues --   -0.39953  -0.39764  -0.39153  -0.36345  -0.35970
 Alpha  occ. eigenvalues --   -0.35679  -0.35284  -0.34281  -0.33885  -0.33743
 Alpha  occ. eigenvalues --   -0.33238  -0.32941  -0.32742  -0.32629  -0.31919
 Alpha  occ. eigenvalues --   -0.31180  -0.29466
 Alpha virt. eigenvalues --   -0.00071   0.02220   0.02449   0.02548   0.02725
 Alpha virt. eigenvalues --    0.04159   0.05112   0.05347   0.05428   0.05763
 Alpha virt. eigenvalues --    0.05816   0.05959   0.06040   0.06126   0.06966
 Alpha virt. eigenvalues --    0.06982   0.07080   0.07247   0.07305   0.07434
 Alpha virt. eigenvalues --    0.07588   0.07704   0.07799   0.07953   0.08136
 Alpha virt. eigenvalues --    0.08696   0.08913   0.09025   0.09273   0.09497
 Alpha virt. eigenvalues --    0.09797   0.10007   0.10165   0.10586   0.10766
 Alpha virt. eigenvalues --    0.10979   0.11196   0.11824   0.11989   0.12178
 Alpha virt. eigenvalues --    0.12403   0.12603   0.12692   0.12888   0.12978
 Alpha virt. eigenvalues --    0.13061   0.13765   0.13940   0.14134   0.14218
 Alpha virt. eigenvalues --    0.14510   0.14668   0.14992   0.15302   0.15396
 Alpha virt. eigenvalues --    0.15554   0.15628   0.16024   0.16073   0.16229
 Alpha virt. eigenvalues --    0.16358   0.16518   0.16636   0.16768   0.16961
 Alpha virt. eigenvalues --    0.17143   0.17282   0.17359   0.17475   0.17604
 Alpha virt. eigenvalues --    0.17863   0.17946   0.18121   0.18221   0.18453
 Alpha virt. eigenvalues --    0.18523   0.18665   0.18747   0.19106   0.19117
 Alpha virt. eigenvalues --    0.19329   0.19455   0.19684   0.19772   0.19868
 Alpha virt. eigenvalues --    0.19995   0.20021   0.20283   0.20352   0.20523
 Alpha virt. eigenvalues --    0.20626   0.20654   0.20703   0.20981   0.21043
 Alpha virt. eigenvalues --    0.21178   0.21377   0.21458   0.21664   0.21703
 Alpha virt. eigenvalues --    0.21784   0.21827   0.21971   0.22138   0.22413
 Alpha virt. eigenvalues --    0.22502   0.22598   0.22637   0.22824   0.22916
 Alpha virt. eigenvalues --    0.23051   0.23156   0.23331   0.23400   0.23659
 Alpha virt. eigenvalues --    0.23750   0.23867   0.23931   0.24140   0.24303
 Alpha virt. eigenvalues --    0.24352   0.24500   0.24767   0.24881   0.25120
 Alpha virt. eigenvalues --    0.25154   0.25368   0.25387   0.25559   0.25600
 Alpha virt. eigenvalues --    0.25734   0.25819   0.26017   0.26134   0.26265
 Alpha virt. eigenvalues --    0.26304   0.26459   0.26754   0.26913   0.26991
 Alpha virt. eigenvalues --    0.27014   0.27159   0.27250   0.27526   0.27626
 Alpha virt. eigenvalues --    0.27787   0.28044   0.28085   0.28234   0.28381
 Alpha virt. eigenvalues --    0.28602   0.28866   0.28983   0.29005   0.29097
 Alpha virt. eigenvalues --    0.29180   0.29397   0.29662   0.29900   0.29935
 Alpha virt. eigenvalues --    0.30129   0.30270   0.30353   0.30549   0.30591
 Alpha virt. eigenvalues --    0.30883   0.30926   0.31132   0.31386   0.31528
 Alpha virt. eigenvalues --    0.31647   0.31772   0.31848   0.31920   0.32181
 Alpha virt. eigenvalues --    0.32299   0.32573   0.32712   0.33026   0.33197
 Alpha virt. eigenvalues --    0.33309   0.33429   0.33587   0.33745   0.33977
 Alpha virt. eigenvalues --    0.34164   0.34405   0.34583   0.34755   0.34927
 Alpha virt. eigenvalues --    0.35068   0.35148   0.35314   0.35493   0.35633
 Alpha virt. eigenvalues --    0.35814   0.36001   0.36183   0.36314   0.36622
 Alpha virt. eigenvalues --    0.36725   0.36870   0.37037   0.37166   0.37457
 Alpha virt. eigenvalues --    0.37578   0.37614   0.37805   0.37988   0.38182
 Alpha virt. eigenvalues --    0.38258   0.38416   0.38634   0.38855   0.38981
 Alpha virt. eigenvalues --    0.39054   0.39266   0.39367   0.39413   0.39775
 Alpha virt. eigenvalues --    0.39929   0.40024   0.40165   0.40473   0.40609
 Alpha virt. eigenvalues --    0.40631   0.40925   0.41049   0.41411   0.41513
 Alpha virt. eigenvalues --    0.41714   0.41931   0.42040   0.42153   0.42330
 Alpha virt. eigenvalues --    0.42548   0.42572   0.42750   0.43067   0.43237
 Alpha virt. eigenvalues --    0.43317   0.43486   0.43570   0.43864   0.44134
 Alpha virt. eigenvalues --    0.44327   0.44390   0.44744   0.44893   0.45205
 Alpha virt. eigenvalues --    0.45326   0.45516   0.46048   0.46160   0.46303
 Alpha virt. eigenvalues --    0.46383   0.46702   0.46751   0.47020   0.47272
 Alpha virt. eigenvalues --    0.47426   0.47619   0.47841   0.48084   0.48285
 Alpha virt. eigenvalues --    0.48394   0.49059   0.49284   0.49397   0.49755
 Alpha virt. eigenvalues --    0.50439   0.50661   0.50869   0.51166   0.51196
 Alpha virt. eigenvalues --    0.51450   0.51616   0.52005   0.52427   0.52910
 Alpha virt. eigenvalues --    0.53192   0.53347   0.53761   0.53953   0.54172
 Alpha virt. eigenvalues --    0.54772   0.54869   0.55140   0.55449   0.55816
 Alpha virt. eigenvalues --    0.56322   0.56648   0.56960   0.57611   0.57815
 Alpha virt. eigenvalues --    0.58126   0.58427   0.58878   0.59037   0.59355
 Alpha virt. eigenvalues --    0.59511   0.60093   0.60364   0.60762   0.61142
 Alpha virt. eigenvalues --    0.61557   0.61936   0.62348   0.62674   0.62913
 Alpha virt. eigenvalues --    0.63595   0.63899   0.64081   0.64155   0.64551
 Alpha virt. eigenvalues --    0.64914   0.65271   0.65496   0.65684   0.66058
 Alpha virt. eigenvalues --    0.66155   0.66532   0.66873   0.67067   0.67458
 Alpha virt. eigenvalues --    0.67852   0.67967   0.68333   0.68589   0.68647
 Alpha virt. eigenvalues --    0.69040   0.69082   0.69429   0.69797   0.70241
 Alpha virt. eigenvalues --    0.70359   0.70706   0.71024   0.71233   0.71352
 Alpha virt. eigenvalues --    0.71689   0.71886   0.72035   0.72294   0.72499
 Alpha virt. eigenvalues --    0.72989   0.73145   0.73634   0.73658   0.73905
 Alpha virt. eigenvalues --    0.74188   0.74382   0.74827   0.75031   0.75290
 Alpha virt. eigenvalues --    0.75668   0.76013   0.76242   0.76452   0.76807
 Alpha virt. eigenvalues --    0.76929   0.77466   0.77657   0.78069   0.78378
 Alpha virt. eigenvalues --    0.78394   0.78777   0.78980   0.79406   0.79655
 Alpha virt. eigenvalues --    0.79867   0.80179   0.80474   0.80661   0.80864
 Alpha virt. eigenvalues --    0.81245   0.81595   0.81701   0.81817   0.82129
 Alpha virt. eigenvalues --    0.82316   0.82554   0.82689   0.82737   0.82890
 Alpha virt. eigenvalues --    0.83275   0.83470   0.83548   0.83911   0.84091
 Alpha virt. eigenvalues --    0.84503   0.84697   0.84824   0.85197   0.85398
 Alpha virt. eigenvalues --    0.85666   0.85848   0.86088   0.86412   0.86646
 Alpha virt. eigenvalues --    0.86844   0.87159   0.87329   0.87756   0.87937
 Alpha virt. eigenvalues --    0.88109   0.88302   0.88517   0.88828   0.88937
 Alpha virt. eigenvalues --    0.89344   0.89564   0.89596   0.89754   0.90003
 Alpha virt. eigenvalues --    0.90121   0.90534   0.90629   0.90726   0.90956
 Alpha virt. eigenvalues --    0.91509   0.91681   0.91884   0.92172   0.92593
 Alpha virt. eigenvalues --    0.92697   0.93080   0.93308   0.93609   0.93998
 Alpha virt. eigenvalues --    0.94570   0.94727   0.95236   0.95489   0.95635
 Alpha virt. eigenvalues --    0.95851   0.96286   0.96467   0.96712   0.96898
 Alpha virt. eigenvalues --    0.97119   0.97234   0.97746   0.98259   0.98398
 Alpha virt. eigenvalues --    0.98974   0.99116   0.99269   0.99718   1.00199
 Alpha virt. eigenvalues --    1.00416   1.01085   1.01346   1.01595   1.02342
 Alpha virt. eigenvalues --    1.02438   1.03054   1.03672   1.03991   1.04111
 Alpha virt. eigenvalues --    1.04428   1.05040   1.05998   1.06113   1.06720
 Alpha virt. eigenvalues --    1.07405   1.08111   1.08554   1.08988   1.09573
 Alpha virt. eigenvalues --    1.10290   1.10769   1.11666   1.11995   1.12240
 Alpha virt. eigenvalues --    1.12316   1.13002   1.13459   1.14069   1.14474
 Alpha virt. eigenvalues --    1.14656   1.15564   1.15972   1.16372   1.16788
 Alpha virt. eigenvalues --    1.16973   1.17678   1.17892   1.18050   1.19216
 Alpha virt. eigenvalues --    1.19309   1.19717   1.20093   1.20603   1.21149
 Alpha virt. eigenvalues --    1.21420   1.21597   1.22636   1.23026   1.23395
 Alpha virt. eigenvalues --    1.24070   1.24148   1.24869   1.25256   1.25405
 Alpha virt. eigenvalues --    1.26070   1.26390   1.27052   1.27791   1.28691
 Alpha virt. eigenvalues --    1.29042   1.29608   1.29847   1.30530   1.30911
 Alpha virt. eigenvalues --    1.31307   1.31829   1.31951   1.32183   1.33065
 Alpha virt. eigenvalues --    1.34025   1.34693   1.35105   1.35258   1.36161
 Alpha virt. eigenvalues --    1.36728   1.37015   1.38035   1.38289   1.38884
 Alpha virt. eigenvalues --    1.39873   1.40466   1.40985   1.41574   1.41916
 Alpha virt. eigenvalues --    1.42210   1.42543   1.43223   1.43566   1.44125
 Alpha virt. eigenvalues --    1.44642   1.44989   1.45510   1.46073   1.46254
 Alpha virt. eigenvalues --    1.47172   1.47463   1.48471   1.49139   1.50660
 Alpha virt. eigenvalues --    1.51032   1.51845   1.52351   1.53004   1.53110
 Alpha virt. eigenvalues --    1.53531   1.53962   1.54552   1.55143   1.55460
 Alpha virt. eigenvalues --    1.56374   1.56913   1.57559   1.58037   1.58691
 Alpha virt. eigenvalues --    1.59295   1.59996   1.60543   1.60842   1.61740
 Alpha virt. eigenvalues --    1.62447   1.62608   1.63321   1.63489   1.63573
 Alpha virt. eigenvalues --    1.63738   1.64076   1.64731   1.65016   1.65232
 Alpha virt. eigenvalues --    1.65514   1.65743   1.65867   1.66311   1.66575
 Alpha virt. eigenvalues --    1.66753   1.66947   1.67634   1.67702   1.68096
 Alpha virt. eigenvalues --    1.68481   1.68608   1.68891   1.69089   1.69745
 Alpha virt. eigenvalues --    1.69912   1.70469   1.70589   1.71028   1.71151
 Alpha virt. eigenvalues --    1.71351   1.72085   1.72372   1.72473   1.72893
 Alpha virt. eigenvalues --    1.73528   1.73864   1.74117   1.74637   1.74960
 Alpha virt. eigenvalues --    1.74989   1.75238   1.75673   1.76029   1.76403
 Alpha virt. eigenvalues --    1.76890   1.77245   1.77305   1.77578   1.78057
 Alpha virt. eigenvalues --    1.78276   1.78495   1.79009   1.79547   1.79623
 Alpha virt. eigenvalues --    1.79676   1.80326   1.80639   1.81044   1.81379
 Alpha virt. eigenvalues --    1.81558   1.81714   1.82477   1.82691   1.82879
 Alpha virt. eigenvalues --    1.83139   1.83620   1.83810   1.84516   1.84722
 Alpha virt. eigenvalues --    1.85071   1.85346   1.85781   1.86450   1.86596
 Alpha virt. eigenvalues --    1.86915   1.87300   1.87470   1.87761   1.88256
 Alpha virt. eigenvalues --    1.88875   1.89053   1.89237   1.89793   1.90552
 Alpha virt. eigenvalues --    1.90755   1.91001   1.91428   1.91985   1.92494
 Alpha virt. eigenvalues --    1.92593   1.92745   1.93192   1.93393   1.93940
 Alpha virt. eigenvalues --    1.94251   1.94572   1.95088   1.95330   1.95754
 Alpha virt. eigenvalues --    1.95761   1.96344   1.97048   1.97510   1.98083
 Alpha virt. eigenvalues --    1.98498   1.98641   1.98908   1.99708   2.00265
 Alpha virt. eigenvalues --    2.00600   2.00760   2.01100   2.01517   2.02048
 Alpha virt. eigenvalues --    2.02581   2.03006   2.03163   2.03418   2.03903
 Alpha virt. eigenvalues --    2.04319   2.04438   2.05178   2.05365   2.05644
 Alpha virt. eigenvalues --    2.05976   2.06354   2.06776   2.07176   2.07464
 Alpha virt. eigenvalues --    2.07703   2.08362   2.08841   2.09366   2.09927
 Alpha virt. eigenvalues --    2.10247   2.10720   2.11038   2.11457   2.11565
 Alpha virt. eigenvalues --    2.11653   2.12534   2.12832   2.12965   2.13798
 Alpha virt. eigenvalues --    2.14424   2.14581   2.14897   2.15348   2.15670
 Alpha virt. eigenvalues --    2.16169   2.16750   2.17340   2.18083   2.18487
 Alpha virt. eigenvalues --    2.18885   2.19292   2.19899   2.20574   2.20974
 Alpha virt. eigenvalues --    2.21900   2.22116   2.22582   2.22977   2.23768
 Alpha virt. eigenvalues --    2.24132   2.24468   2.25260   2.25555   2.26180
 Alpha virt. eigenvalues --    2.27447   2.27876   2.28370   2.28853   2.29463
 Alpha virt. eigenvalues --    2.30023   2.30542   2.31817   2.31984   2.32428
 Alpha virt. eigenvalues --    2.32937   2.33446   2.34382   2.34806   2.35681
 Alpha virt. eigenvalues --    2.36159   2.37911   2.38580   2.39294   2.39535
 Alpha virt. eigenvalues --    2.40252   2.40769   2.40936   2.41524   2.42156
 Alpha virt. eigenvalues --    2.43300   2.43430   2.43598   2.44068   2.44455
 Alpha virt. eigenvalues --    2.44854   2.45301   2.46369   2.46742   2.47340
 Alpha virt. eigenvalues --    2.49030   2.49315   2.49772   2.50366   2.51464
 Alpha virt. eigenvalues --    2.51836   2.52904   2.54047   2.54418   2.54595
 Alpha virt. eigenvalues --    2.54971   2.55698   2.58627   2.59331   2.59667
 Alpha virt. eigenvalues --    2.60152   2.60666   2.61057   2.61733   2.62365
 Alpha virt. eigenvalues --    2.62446   2.63190   2.63351   2.64017   2.64176
 Alpha virt. eigenvalues --    2.64736   2.65054   2.65551   2.65856   2.66124
 Alpha virt. eigenvalues --    2.66693   2.66983   2.67314   2.67674   2.67860
 Alpha virt. eigenvalues --    2.68366   2.68979   2.69520   2.69766   2.70648
 Alpha virt. eigenvalues --    2.71350   2.71932   2.72086   2.72611   2.73319
 Alpha virt. eigenvalues --    2.74139   2.74552   2.74712   2.75163   2.75863
 Alpha virt. eigenvalues --    2.76449   2.76558   2.76917   2.77721   2.78126
 Alpha virt. eigenvalues --    2.78269   2.78684   2.80213   2.80483   2.80894
 Alpha virt. eigenvalues --    2.81339   2.81623   2.82240   2.82693   2.83085
 Alpha virt. eigenvalues --    2.83839   2.84355   2.84719   2.84891   2.86312
 Alpha virt. eigenvalues --    2.86490   2.86535   2.87193   2.87444   2.88365
 Alpha virt. eigenvalues --    2.88652   2.88927   2.89142   2.89515   2.90285
 Alpha virt. eigenvalues --    2.90502   2.91099   2.91298   2.92022   2.92487
 Alpha virt. eigenvalues --    2.92794   2.93100   2.93539   2.94315   2.94791
 Alpha virt. eigenvalues --    2.94999   2.95110   2.95628   2.95925   2.96869
 Alpha virt. eigenvalues --    2.97123   2.97367   2.98070   2.98368   2.98716
 Alpha virt. eigenvalues --    2.99669   2.99811   3.00413   3.00767   3.01040
 Alpha virt. eigenvalues --    3.01798   3.01959   3.02206   3.02658   3.03339
 Alpha virt. eigenvalues --    3.03768   3.04014   3.04706   3.04964   3.05072
 Alpha virt. eigenvalues --    3.05505   3.06358   3.06743   3.07448   3.08092
 Alpha virt. eigenvalues --    3.08160   3.08393   3.08560   3.09223   3.10130
 Alpha virt. eigenvalues --    3.10721   3.11545   3.12296   3.12503   3.12791
 Alpha virt. eigenvalues --    3.13205   3.14324   3.15148   3.15431   3.15799
 Alpha virt. eigenvalues --    3.16461   3.17367   3.17886   3.18323   3.19337
 Alpha virt. eigenvalues --    3.19698   3.20851   3.21757   3.22096   3.23305
 Alpha virt. eigenvalues --    3.23944   3.24227   3.24732   3.25683   3.25988
 Alpha virt. eigenvalues --    3.26845   3.27248   3.27472   3.28159   3.28603
 Alpha virt. eigenvalues --    3.29549   3.30559   3.31305   3.31801   3.32718
 Alpha virt. eigenvalues --    3.34072   3.34707   3.35339   3.36400   3.36946
 Alpha virt. eigenvalues --    3.38339   3.38702   3.39564   3.40464   3.41313
 Alpha virt. eigenvalues --    3.42349   3.43111   3.44086   3.45335   3.45782
 Alpha virt. eigenvalues --    3.47185   3.47590   3.48806   3.50515   3.50949
 Alpha virt. eigenvalues --    3.51870   3.53485   3.54372   3.55817   3.56252
 Alpha virt. eigenvalues --    3.56901   3.60124   3.64411   3.65787   3.66568
 Alpha virt. eigenvalues --    3.67433   3.69185   3.70276   3.70905   3.74260
 Alpha virt. eigenvalues --    3.74871   3.75075   3.76428   3.78974   3.79628
 Alpha virt. eigenvalues --    3.83078   3.87895   3.88683   3.89107   3.89935
 Alpha virt. eigenvalues --    3.90611   3.91827   3.92735   3.93416   3.94318
 Alpha virt. eigenvalues --    3.94612   3.94878   3.95872   3.96255   3.97584
 Alpha virt. eigenvalues --    3.98338   3.98454   3.99157   4.00911   4.01708
 Alpha virt. eigenvalues --    4.03873   4.04591   4.05943   4.11489   4.12156
 Alpha virt. eigenvalues --    4.12987   4.15309   4.16015   4.16062   4.18553
 Alpha virt. eigenvalues --    4.20023   4.21884   4.24673   4.25280   4.26995
 Alpha virt. eigenvalues --    4.28158   4.28465   4.28800   4.30150   4.30748
 Alpha virt. eigenvalues --    4.32365   4.32671   4.34691   4.38183   4.40640
 Alpha virt. eigenvalues --    4.42929   4.45055   4.46182   4.46684   4.50568
 Alpha virt. eigenvalues --    4.51931   4.54818   4.74708   4.90157   4.95886
 Alpha virt. eigenvalues --    4.96546   5.02871   5.34880   5.36452   5.39052
 Alpha virt. eigenvalues --    5.41437   5.43770   5.44438   5.53385   5.54636
 Alpha virt. eigenvalues --    5.57840   5.58756   5.67213   5.68067   5.71018
 Alpha virt. eigenvalues --    5.75661   5.78525   5.80204   5.83060   5.87919
 Alpha virt. eigenvalues --    7.66080  14.37534  14.39558  14.49880  14.99569
 Alpha virt. eigenvalues --   23.80343  23.84052  23.94474  23.96715  24.02304
 Alpha virt. eigenvalues --   24.03300  24.03570  24.05154  24.05811  24.05994
 Alpha virt. eigenvalues --   24.09978  24.11687  24.12321  24.13018  24.13304
 Alpha virt. eigenvalues --   24.13820  24.13899  24.14321  24.15445  24.15885
 Alpha virt. eigenvalues --   24.16548  24.17332  24.18027  24.21202  24.22014
 Alpha virt. eigenvalues --   24.22619  24.22826  24.23764  24.24172  24.33056
 Alpha virt. eigenvalues --   24.33312  35.77070  50.14171  50.17406  50.19139
 Alpha virt. eigenvalues --   50.23123  50.24142  50.24537 163.90801
          Condensed to atoms (all electrons):
 Mulliken charges:
               1
     1  C   -0.143873
     2  C   -0.375934
     3  H   -0.071302
     4  C   -0.402125
     5  H    0.200970
     6  H    0.201801
     7  H    0.217168
     8  C   -0.410520
     9  H    0.227608
    10  H    0.231357
    11  H    0.259404
    12  B    0.656785
    13  C   -0.794097
    14  H    0.250704
    15  H    0.149351
    16  H    0.163824
    17  O    0.216195
    18  O   -0.049057
    19  C   -0.066445
    20  C   -0.756954
    21  C   -0.274208
    22  H    0.202668
    23  H    0.131728
    24  H    0.206054
    25  C   -0.870079
    26  H    0.189160
    27  H    0.192785
    28  H    0.204155
    29  C   -0.707673
    30  H    0.158558
    31  H    0.255809
    32  H    0.167339
    33  C   -0.257066
    34  H    0.248845
    35  H    0.245633
    36  H    0.100581
    37  P    0.057065
    38  O   -0.016712
    39  O   -0.090409
    40  N   -0.335219
    41  H    0.415607
    42  H    0.419049
    43  Li  -0.921909
    44  C   -0.124782
    45  O    0.152455
    46  C    0.113606
    47  C   -0.667565
    48  C   -0.545242
    49  H    0.206536
    50  H    0.169814
    51  H    0.249468
    52  H    0.210946
    53  H    0.207002
    54  H    0.199869
    55  H    0.219996
    56  H    0.195704
    57  C    0.238363
    58  O    0.140684
    59  C   -0.177143
    60  C   -0.387707
    61  C   -0.895602
    62  H    0.202864
    63  H    0.132224
    64  H    0.067661
    65  H    0.199285
    66  H    0.167483
    67  H    0.260358
    68  H    0.213427
    69  H    0.203274
    70  C    0.080238
    71  C   -0.146136
    72  C   -0.200807
    73  C   -0.516454
    74  H    0.302819
    75  C   -0.442554
    76  H    0.306031
    77  C   -0.495733
    78  H    0.270478
    79  H    0.277759
    80  H    0.252376
    81  C    0.155612
    82  C    0.103688
    83  C   -0.090883
    84  C   -0.222313
    85  H    0.018896
    86  C   -0.678956
    87  H    0.306975
    88  C   -0.483324
    89  H    0.284879
    90  H    0.272657
    91  H    0.265156
 Sum of Mulliken charges =  -0.00000
 Mulliken charges with hydrogens summed into heavy atoms:
               1
     1  C   -0.143873
     2  C   -0.447236
     4  C    0.217814
     8  C    0.307849
    12  B    0.656785
    13  C   -0.230218
    17  O    0.216195
    18  O   -0.049057
    19  C   -0.066445
    20  C   -0.756954
    21  C    0.266243
    25  C   -0.283980
    29  C   -0.125967
    33  C    0.337992
    37  P    0.057065
    38  O   -0.016712
    39  O   -0.090409
    40  N    0.499437
    43  Li  -0.921909
    44  C    0.251568
    45  O    0.152455
    46  C    0.574020
    47  C   -0.260694
    48  C   -0.129542
    57  C    0.573451
    58  O    0.140684
    59  C    0.089802
    60  C    0.040135
    61  C   -0.478902
    70  C    0.080238
    71  C    0.156684
    72  C    0.105224
    73  C   -0.245975
    75  C   -0.164795
    77  C   -0.243358
    81  C    0.155612
    82  C    0.122584
    83  C    0.216092
    84  C    0.062566
    86  C   -0.406299
    88  C   -0.218168
 Electronic spatial extent (au):  <R**2>=          19612.5332
 Charge=             -0.0000 electrons
 Dipole moment (field-independent basis, Debye):
    X=             -8.8113    Y=              2.1478    Z=              1.2076  Tot=              9.1493
 Quadrupole moment (field-independent basis, Debye-Ang):
   XX=           -269.4051   YY=           -222.2031   ZZ=           -232.0118
   XY=            -13.3177   XZ=            -18.9763   YZ=            -14.1611
 Traceless Quadrupole moment (field-independent basis, Debye-Ang):
   XX=            -28.1984   YY=             19.0036   ZZ=              9.1949
   XY=            -13.3177   XZ=            -18.9763   YZ=            -14.1611
 Octapole moment (field-independent basis, Debye-Ang**2):
  XXX=           -109.5234  YYY=            -23.6968  ZZZ=             54.6069  XYY=             -0.4130
  XXY=             -6.0604  XXZ=              5.5870  XZZ=            -16.4024  YZZ=             52.7342
  YYZ=              4.2720  XYZ=             -3.0547
 Hexadecapole moment (field-independent basis, Debye-Ang**3):
 XXXX=         -11960.0299 YYYY=          -7271.9860 ZZZZ=          -6797.1007 XXXY=            268.0492
 XXXZ=            134.2616 YYYX=            279.8185 YYYZ=            443.6835 ZZZX=            189.7316
 ZZZY=            368.6173 XXYY=          -2944.4488 XXZZ=          -3299.3818 YYZZ=          -2329.3351
 XXYZ=             29.4205 YYXZ=            110.6689 ZZXY=            118.6173
 N-N= 5.727742054291D+03 E-N=-1.634988698565D+04  KE= 2.083076171723D+03
 Unable to Open any file for archive entry.
 1\1\GINC-NODE04\SP\RwB97XD\6-311++G(d,p)\C31H50B1Li1N1O6P1\WHUGHES2\08
 -Oct-2025\0\\# wb97xd/6-311++g** nosymm int=ultrafine scrf=(smd,solven
 t=tetrahydrofuran)\\openTS-phos-full-unfrz-c6_tzpop-sp\\0,1\C,0,-1.682
 1,1.5413,-2.198\C,0,-0.6715,2.3315,-1.4605\H,0,-0.1105,1.7011,-0.7659\
 C,0,0.2804,3.2313,-2.2235\H,0,0.9404,2.6295,-2.8572\H,0,-0.2459,3.9547
 ,-2.8561\H,0,0.9008,3.7865,-1.5128\C,0,-2.1542,2.0437,-3.5145\H,0,-3.0
 671,1.5408,-3.8397\H,0,-2.3058,3.1291,-3.508\H,0,-1.3613,1.8604,-4.254
 6\B,0,-2.1014,0.0799,-1.7149\C,0,-0.7913,-0.6715,-2.4282\H,0,0.13,-0.4
 759,-1.8737\H,0,-1.018,-1.7447,-2.368\H,0,-0.6202,-0.439,-3.4874\O,0,-
 2.1405,-0.1714,-0.2521\O,0,-3.3998,-0.3603,-2.2219\C,0,-4.0672,-1.0816
 ,-1.2002\C,0,-3.5092,-0.4204,0.1013\C,0,-3.6983,-2.5694,-1.2969\H,0,-3
 .8882,-2.9123,-2.3199\H,0,-2.6402,-2.7386,-1.0728\H,0,-4.2979,-3.1825,
 -0.6139\C,0,-5.5741,-0.9287,-1.383\H,0,-6.1208,-1.3655,-0.5385\H,0,-5.
 8606,0.1223,-1.48\H,0,-5.8896,-1.4492,-2.2945\C,0,-3.5547,-1.3151,1.33
 07\H,0,-3.1303,-0.7987,2.1983\H,0,-4.59,-1.5859,1.5691\H,0,-2.9844,-2.
 2332,1.1756\C,0,-4.2013,0.9112,0.4098\H,0,-4.2414,1.5573,-0.4736\H,0,-
 5.2251,0.7566,0.7678\H,0,-3.6483,1.4329,1.1977\P,0,2.4968,0.0845,0.281
 2\O,0,0.9868,0.3011,0.3632\O,0,3.3808,0.5713,1.4054\N,0,-1.6616,3.0909
 ,-0.678\H,0,-2.3438,3.616,-1.2177\H,0,-2.1049,2.5364,0.0483\Li,0,-0.69
 49,-0.004,1.0758\C,0,-1.8018,1.8141,3.3178\O,0,-1.0574,1.7008,2.1075\C
 ,0,-0.0604,2.7247,2.1823\C,0,-0.7781,3.9362,2.7938\C,0,-2.0095,3.319,3
 .5008\H,0,-2.7237,1.2401,3.2087\H,0,-1.2147,1.3881,4.1443\H,0,0.7591,2
 .3753,2.8247\H,0,0.3285,2.8878,1.1781\H,0,-0.1234,4.4698,3.4884\H,0,-1
 .0857,4.6372,2.0128\H,0,-2.0743,3.5911,4.558\H,0,-2.9364,3.6354,3.0124
 \C,0,-0.6358,-2.7079,2.6038\O,0,-0.5197,-1.2762,2.631\C,0,0.5574,-0.88
 99,3.4964\C,0,1.4976,-2.0843,3.5194\C,0,0.5178,-3.2606,3.4494\H,0,-1.6
 162,-2.9902,3.0019\H,0,-0.5769,-3.0285,1.5585\H,0,1.0071,0.0144,3.0809
 \H,0,0.1551,-0.6767,4.4971\H,0,2.1495,-2.0659,2.6415\H,0,2.1233,-2.101
 5,4.4163\H,0,0.9593,-4.1542,2.9996\H,0,0.1633,-3.5221,4.4526\C,0,3.050
 6,0.8572,-1.2916\C,0,3.6783,2.1065,-1.2553\C,0,2.8175,0.2573,-2.5348\C
 ,0,4.0502,2.7521,-2.4343\H,0,3.8799,2.5721,-0.2938\C,0,3.1931,0.8961,-
 3.7154\H,0,2.3451,-0.7208,-2.5875\C,0,3.8071,2.1483,-3.6675\H,0,4.5346
 ,3.7243,-2.3895\H,0,3.0089,0.4148,-4.6726\H,0,4.1002,2.6477,-4.5874\C,
 0,2.7446,-1.7124,0.0179\C,0,1.6536,-2.5501,-0.2296\C,0,4.0249,-2.2723,
 0.091\C,0,1.8327,-3.9231,-0.3954\H,0,0.6576,-2.1193,-0.2816\C,0,4.2098
 ,-3.6434,-0.0769\H,0,4.8811,-1.6321,0.2903\C,0,3.1124,-4.4717,-0.3189\
 H,0,0.9741,-4.5635,-0.583\H,0,5.2087,-4.0675,-0.0147\H,0,3.2559,-5.541
 6,-0.447\\Version=AS64L-G16RevC.01\HF=-2091.4452208\RMSD=2.703e-09\Dip
 ole=-3.4666261,0.8450078,0.475106\Quadrupole=-20.9648446,14.1286867,6.
 8361579,-9.901405,-14.1084459,-10.5284046\PG=C01 [X(C31H50B1Li1N1O6P1)
 ]\\@
 The archive entry for this job was punched.


 I take a simple view of life: keep your eyes open and get on with it.
 -- Laurence Olivier
 Job cpu time:       0 days 10 hours 29 minutes 18.6 seconds.
 Elapsed time:       0 days  2 hours 38 minutes 40.5 seconds.
 File lengths (MBytes):  RWF=   1346 Int=      0 D2E=      0 Chk=     95 Scr=      1
 Normal termination of Gaussian 16 at Wed Oct  8 18:06:26 2025.
