Job Start Time: Wed Oct  8 15:27:45 MDT 2025
SLURM Job ID: 768200
SLURM Job Name: r1-li-3thf-c5_tzpop-sp
 Entering Gaussian System, Link 0=/opt/apps/Gaussian/G16C/g16/g16
 Initial command:
 /opt/apps/Gaussian/G16C/g16/l1.exe "/tmp/768200/Gau-239479.inp" -scrdir="/tmp/768200/"
 Entering Link 1 = /opt/apps/Gaussian/G16C/g16/l1.exe PID=    239483.
  
 Copyright (c) 1988-2019, Gaussian, Inc.  All Rights Reserved.
  
 This is part of the Gaussian(R) 16 program.  It is based on
 the Gaussian(R) 09 system (copyright 2009, Gaussian, Inc.),
 the Gaussian(R) 03 system (copyright 2003, Gaussian, Inc.),
 the Gaussian(R) 98 system (copyright 1998, Gaussian, Inc.),
 the Gaussian(R) 94 system (copyright 1995, Gaussian, Inc.),
 the Gaussian 92(TM) system (copyright 1992, Gaussian, Inc.),
 the Gaussian 90(TM) system (copyright 1990, Gaussian, Inc.),
 the Gaussian 88(TM) system (copyright 1988, Gaussian, Inc.),
 the Gaussian 86(TM) system (copyright 1986, Carnegie Mellon
 University), and the Gaussian 82(TM) system (copyright 1983,
 Carnegie Mellon University). Gaussian is a federally registered
 trademark of Gaussian, Inc.
  
 This software contains proprietary and confidential information,
 including trade secrets, belonging to Gaussian, Inc.
  
 This software is provided under written license and may be
 used, copied, transmitted, or stored only in accord with that
 written license.
  
 The following legend is applicable only to US Government
 contracts under FAR:
  
                    RESTRICTED RIGHTS LEGEND
  
 Use, reproduction and disclosure by the US Government is
 subject to restrictions as set forth in subparagraphs (a)
 and (c) of the Commercial Computer Software - Restricted
 Rights clause in FAR 52.227-19.
  
 Gaussian, Inc.
 340 Quinnipiac St., Bldg. 40, Wallingford CT 06492
  
  
 ---------------------------------------------------------------
 Warning -- This program may not be used in any manner that
 competes with the business of Gaussian, Inc. or will provide
 assistance to any competitor of Gaussian, Inc.  The licensee
 of this program is prohibited from giving any competitor of
 Gaussian, Inc. access to this program.  By using this program,
 the user acknowledges that Gaussian, Inc. is engaged in the
 business of creating and licensing software in the field of
 computational chemistry and represents and warrants to the
 licensee that it is not a competitor of Gaussian, Inc. and that
 it will not use this program in any manner prohibited above.
 ---------------------------------------------------------------
  

 Cite this work as:
 Gaussian 16, Revision C.01,
 M. J. Frisch, G. W. Trucks, H. B. Schlegel, G. E. Scuseria, 
 M. A. Robb, J. R. Cheeseman, G. Scalmani, V. Barone, 
 G. A. Petersson, H. Nakatsuji, X. Li, M. Caricato, A. V. Marenich, 
 J. Bloino, B. G. Janesko, R. Gomperts, B. Mennucci, H. P. Hratchian, 
 J. V. Ortiz, A. F. Izmaylov, J. L. Sonnenberg, D. Williams-Young, 
 F. Ding, F. Lipparini, F. Egidi, J. Goings, B. Peng, A. Petrone, 
 T. Henderson, D. Ranasinghe, V. G. Zakrzewski, J. Gao, N. Rega, 
 G. Zheng, W. Liang, M. Hada, M. Ehara, K. Toyota, R. Fukuda, 
 J. Hasegawa, M. Ishida, T. Nakajima, Y. Honda, O. Kitao, H. Nakai, 
 T. Vreven, K. Throssell, J. A. Montgomery, Jr., J. E. Peralta, 
 F. Ogliaro, M. J. Bearpark, J. J. Heyd, E. N. Brothers, K. N. Kudin, 
 V. N. Staroverov, T. A. Keith, R. Kobayashi, J. Normand, 
 K. Raghavachari, A. P. Rendell, J. C. Burant, S. S. Iyengar, 
 J. Tomasi, M. Cossi, J. M. Millam, M. Klene, C. Adamo, R. Cammi, 
 J. W. Ochterski, R. L. Martin, K. Morokuma, O. Farkas, 
 J. B. Foresman, and D. J. Fox, Gaussian, Inc., Wallingford CT, 2019.
 
 ******************************************
 Gaussian 16:  AS64L-G16RevC.01  3-Jul-2019
                 8-Oct-2025 
 ******************************************
 %chk=r1-li-3thf-c5_tzpop-sp.chk
 %nprocshared=4
 Will use up to    4 processors via shared memory.
 %mem=8GB
 ----------------------------------------------------------------------
 # wb97xd/6-311++g** nosymm int=ultrafine scrf=(smd,solvent=tetrahydrof
 uran)
 ----------------------------------------------------------------------
 1/38=1,172=1/1;
 2/12=2,15=1,17=6,18=5,40=1/2;
 3/5=4,6=6,7=1111,11=2,25=1,30=1,70=32201,72=20,74=-58,75=-5/1,2,3;
 4//1;
 5/5=2,38=5,53=20/2;
 6/7=2,8=2,9=2,10=2,28=1/1;
 99/5=1,9=1/99;
 ----------------------
 r1-li-3thf-c5_tzpop-sp
 ----------------------
 Symbolic Z-matrix:
 Charge =  0 Multiplicity = 1
 Li                    0.7382    0.1578   -0.2609 
 C                     1.7471    2.9681   -0.3474 
 O                     1.8541    1.8773    0.5854 
 C                     1.2602    4.1909    0.4407 
 H                     1.043     2.6682   -1.1296 
 C                     1.6244    2.3786    1.9084 
 C                     0.7052    3.5729    1.7263 
 H                     0.5128    4.7634   -0.1162 
 H                     2.0988    4.8582    0.6685 
 H                     1.1878    1.5768    2.5046 
 H                     2.5859    2.6741    2.3542 
 H                    -0.3186    3.2197    1.5787 
 H                     0.7305    4.256     2.5803 
 C                     3.4362    0.6506   -1.9163 
 O                     2.0566    0.2901   -1.8911 
 C                     4.1049   -0.4628   -2.7124 
 H                     3.7746    0.7406   -0.8828 
 C                     1.7303   -0.2288   -3.1844 
 C                     3.0349   -0.8142   -3.7652 
 H                     4.3097   -1.3173   -2.0596 
 H                     5.0495   -0.1401   -3.159 
 H                     0.9412   -0.9684   -3.0395 
 H                     1.346     0.5884   -3.8091 
 H                     2.959    -1.8937   -3.9224 
 H                     3.2645   -0.3528   -4.7301 
 C                    -0.6422   -2.6058   -0.6264 
 O                     0.5552   -1.8319   -0.7882 
 C                    -0.2102   -3.9009    0.0458 
 H                    -1.0662   -2.8      -1.6227 
 C                     1.7139   -2.6594   -0.6296 
 C                     1.2029   -4.0948   -0.5126 
 H                    -0.8821   -4.7315   -0.189 
 H                    -0.1848   -3.7717    1.1318 
 H                     2.3689   -2.5111   -1.4928 
 H                     2.2468   -2.3391    0.2744 
 H                     1.1598   -4.565    -1.5019 
 H                     1.8424   -4.7068    0.1298 
 O                    -0.9665    0.7478    0.4186 
 H                     3.5543    1.6209   -2.4216 
 H                     2.725     3.1391   -0.8094 
 H                    -1.3483   -2.0143   -0.04 
 C                    -0.7259   -1.0694    2.3086 
 C                     0.6166   -1.1165    2.3298 
 H                     1.1766   -0.3328    1.8167 
 C                     1.4977   -2.1396    3.0178 
 H                     1.2596   -2.2431    4.0845 
 H                     1.4129   -3.1422    2.5761 
 H                     2.5522   -1.8486    2.9502 
 C                    -1.531    -2.1372    3.0151 
 H                    -2.2048   -2.6303    2.3024 
 H                    -0.923    -2.9096    3.5015 
 H                    -2.1807   -1.6913    3.7813 
 B                    -1.6178    0.1289    1.6415 
 C                    -1.9256    1.2477    2.8155 
 H                    -1.0031    1.6028    3.3002 
 H                    -2.4605    2.1402    2.4597 
 H                    -2.5474    0.8086    3.6125 
 O                    -2.8606   -0.4387    1.0496 
 C                    -3.2765    0.324    -0.0566 
 C                    -1.9668    1.1184   -0.5234 
 C                    -4.4418    1.2409    0.3582 
 H                    -4.8154    1.8412   -0.4804 
 H                    -5.266     0.6126    0.7155 
 H                    -4.1675    1.9153    1.1724 
 C                    -3.8251   -0.6394   -1.1177 
 H                    -3.0764   -1.3672   -1.4395 
 H                    -4.6642   -1.197    -0.6855 
 H                    -4.1945   -0.1061   -2.0021 
 C                    -2.1345    2.6441   -0.5233 
 H                    -2.8914    2.963    -1.2499 
 H                    -2.4163    3.03      0.4585 
 H                    -1.184     3.1103   -0.805 
 C                    -1.4587    0.7209   -1.9139 
 H                    -1.2334   -0.3463   -1.9779 
 H                    -2.1806    0.969    -2.6996 
 H                    -0.537     1.2747   -2.1343 
 
 Symmetry turned off by external request.
 Stoichiometry    C23H46BLiO5
 Framework group  C1[X(C23H46BLiO5)]
 Deg. of freedom   222
 Full point group                 C1      NOp   1
                          Input orientation:                          
 ---------------------------------------------------------------------
 Center     Atomic      Atomic             Coordinates (Angstroms)
 Number     Number       Type             X           Y           Z
 ---------------------------------------------------------------------
      1          3           0        0.738200    0.157800   -0.260900
      2          6           0        1.747100    2.968100   -0.347400
      3          8           0        1.854100    1.877300    0.585400
      4          6           0        1.260200    4.190900    0.440700
      5          1           0        1.043000    2.668200   -1.129600
      6          6           0        1.624400    2.378600    1.908400
      7          6           0        0.705200    3.572900    1.726300
      8          1           0        0.512800    4.763400   -0.116200
      9          1           0        2.098800    4.858200    0.668500
     10          1           0        1.187800    1.576800    2.504600
     11          1           0        2.585900    2.674100    2.354200
     12          1           0       -0.318600    3.219700    1.578700
     13          1           0        0.730500    4.256000    2.580300
     14          6           0        3.436200    0.650600   -1.916300
     15          8           0        2.056600    0.290100   -1.891100
     16          6           0        4.104900   -0.462800   -2.712400
     17          1           0        3.774600    0.740600   -0.882800
     18          6           0        1.730300   -0.228800   -3.184400
     19          6           0        3.034900   -0.814200   -3.765200
     20          1           0        4.309700   -1.317300   -2.059600
     21          1           0        5.049500   -0.140100   -3.159000
     22          1           0        0.941200   -0.968400   -3.039500
     23          1           0        1.346000    0.588400   -3.809100
     24          1           0        2.959000   -1.893700   -3.922400
     25          1           0        3.264500   -0.352800   -4.730100
     26          6           0       -0.642200   -2.605800   -0.626400
     27          8           0        0.555200   -1.831900   -0.788200
     28          6           0       -0.210200   -3.900900    0.045800
     29          1           0       -1.066200   -2.800000   -1.622700
     30          6           0        1.713900   -2.659400   -0.629600
     31          6           0        1.202900   -4.094800   -0.512600
     32          1           0       -0.882100   -4.731500   -0.189000
     33          1           0       -0.184800   -3.771700    1.131800
     34          1           0        2.368900   -2.511100   -1.492800
     35          1           0        2.246800   -2.339100    0.274400
     36          1           0        1.159800   -4.565000   -1.501900
     37          1           0        1.842400   -4.706800    0.129800
     38          8           0       -0.966500    0.747800    0.418600
     39          1           0        3.554300    1.620900   -2.421600
     40          1           0        2.725000    3.139100   -0.809400
     41          1           0       -1.348300   -2.014300   -0.040000
     42          6           0       -0.725900   -1.069400    2.308600
     43          6           0        0.616600   -1.116500    2.329800
     44          1           0        1.176600   -0.332800    1.816700
     45          6           0        1.497700   -2.139600    3.017800
     46          1           0        1.259600   -2.243100    4.084500
     47          1           0        1.412900   -3.142200    2.576100
     48          1           0        2.552200   -1.848600    2.950200
     49          6           0       -1.531000   -2.137200    3.015100
     50          1           0       -2.204800   -2.630300    2.302400
     51          1           0       -0.923000   -2.909600    3.501500
     52          1           0       -2.180700   -1.691300    3.781300
     53          5           0       -1.617800    0.128900    1.641500
     54          6           0       -1.925600    1.247700    2.815500
     55          1           0       -1.003100    1.602800    3.300200
     56          1           0       -2.460500    2.140200    2.459700
     57          1           0       -2.547400    0.808600    3.612500
     58          8           0       -2.860600   -0.438700    1.049600
     59          6           0       -3.276500    0.324000   -0.056600
     60          6           0       -1.966800    1.118400   -0.523400
     61          6           0       -4.441800    1.240900    0.358200
     62          1           0       -4.815400    1.841200   -0.480400
     63          1           0       -5.266000    0.612600    0.715500
     64          1           0       -4.167500    1.915300    1.172400
     65          6           0       -3.825100   -0.639400   -1.117700
     66          1           0       -3.076400   -1.367200   -1.439500
     67          1           0       -4.664200   -1.197000   -0.685500
     68          1           0       -4.194500   -0.106100   -2.002100
     69          6           0       -2.134500    2.644100   -0.523300
     70          1           0       -2.891400    2.963000   -1.249900
     71          1           0       -2.416300    3.030000    0.458500
     72          1           0       -1.184000    3.110300   -0.805000
     73          6           0       -1.458700    0.720900   -1.913900
     74          1           0       -1.233400   -0.346300   -1.977900
     75          1           0       -2.180600    0.969000   -2.699600
     76          1           0       -0.537000    1.274700   -2.134300
 ---------------------------------------------------------------------
 Rotational constants (GHZ):           0.1758047           0.1466847           0.1210597
 Standard basis: 6-311++G(d,p) (5D, 7F)
   982 basis functions,  1494 primitive gaussians,  1012 cartesian basis functions
   116 alpha electrons      116 beta electrons
       nuclear repulsion energy      3497.8138970225 Hartrees.
 NAtoms=   76 NActive=   76 NUniq=   76 SFac= 1.00D+00 NAtFMM=   60 NAOKFM=T Big=T
 Integral buffers will be    131072 words long.
 Raffenetti 2 integral format.
 Two-electron integral symmetry is turned off.
 Nuclear repulsion after empirical dispersion term =     3497.7111055503 Hartrees.
 ------------------------------------------------------------------------------
 Polarizable Continuum Model (PCM)
 =================================
 Model                : PCM.
 Atomic radii         : SMD-Coulomb.
 Polarization charges : Total charges.
 Charge compensation  : None.
 Solution method      : On-the-fly selection.
 Cavity type          : VdW (van der Waals Surface) (Alpha=1.000).
 Cavity algorithm     : GePol (No added spheres)
                        Default sphere list used, NSphG=   76.
                        Lebedev-Laikov grids with approx.  5.0 points / Ang**2.
                        Smoothing algorithm: York/Karplus (Gamma=1.0000).
                        Polarization charges: spherical gaussians, with
                                              point-specific exponents (IZeta= 3).
                        Self-potential: point-specific (ISelfS= 7).
                        Self-field    : sphere-specific E.n sum rule (ISelfD= 2).
 Solvent              : TetraHydroFuran, Eps=   7.425700 Eps(inf)=   1.974025
 ------------------------------------------------------------------------------
 ------------------------------------------------------------------------------
 Atomic radii for non-electrostatic terms: SMD-CDS.
 ------------------------------------------------------------------------------
 Nuclear repulsion after PCM non-electrostatic terms =     3497.7047478331 Hartrees.
 One-electron integrals computed using PRISM.
 NBasis=   982 RedAO= T EigKep=  1.05D-06  NBF=   982
 NBsUse=   980 1.00D-06 EigRej=  5.22D-07 NBFU=   980
 ExpMin= 7.40D-03 ExpMax= 8.59D+03 ExpMxC= 1.30D+03 IAcc=3 IRadAn=         5 AccDes= 0.00D+00
 Harris functional with IExCor= 4639 and IRadAn=       5 diagonalized for initial guess.
 HarFok:  IExCor= 4639 AccDes= 0.00D+00 IRadAn=         5 IDoV= 1 UseB2=F ITyADJ=14
 ICtDFT=  3500011 ScaDFX=  1.000000  1.000000  1.000000  1.000000
 FoFCou: FMM=F IPFlag=           0 FMFlag=      100000 FMFlg1=        2001
         NFxFlg=           0 DoJE=T BraDBF=F KetDBF=T FulRan=T
         wScrn=  0.000000 ICntrl=       500 IOpCl=  0 I1Cent=   200000004 NGrid=           0
         NMat0=    1 NMatS0=      1 NMatT0=    0 NMatD0=    1 NMtDS0=    0 NMtDT0=    0
 Symmetry not used in FoFCou.
 Requested convergence on RMS density matrix=1.00D-08 within 128 cycles.
 Requested convergence on MAX density matrix=1.00D-06.
 Requested convergence on             energy=1.00D-06.
 No special actions if energy rises.
 Inv3:  Mode=1 IEnd=    57316923.
 Iteration    1 A*A^-1 deviation from unit magnitude is 6.88D-15 for   4350.
 Iteration    1 A*A^-1 deviation from orthogonality  is 2.86D-15 for   4365    711.
 Iteration    1 A^-1*A deviation from unit magnitude is 6.88D-15 for   4350.
 Iteration    1 A^-1*A deviation from orthogonality  is 3.93D-15 for   4362    999.
 Error on total polarization charges =  0.07400
 SCF Done:  E(RwB97XD) =  -1312.79405117     A.U. after   15 cycles
            NFock= 15  Conv=0.40D-08     -V/T= 2.0046
 SMD-CDS (non-electrostatic) energy       (kcal/mol) =      -3.99
 (included in total energy above)

 **********************************************************************

            Population analysis using the SCF Density.

 **********************************************************************

 Alpha  occ. eigenvalues --  -19.25951 -19.25048 -19.24949 -19.19293 -19.17527
 Alpha  occ. eigenvalues --  -10.32467 -10.32314 -10.32143 -10.32048 -10.32016
 Alpha  occ. eigenvalues --  -10.31559 -10.31391 -10.31290 -10.27938 -10.27871
 Alpha  occ. eigenvalues --  -10.27671 -10.27473 -10.27210 -10.26813 -10.25891
 Alpha  occ. eigenvalues --  -10.25741 -10.25178 -10.24921 -10.24849 -10.24758
 Alpha  occ. eigenvalues --  -10.24646 -10.23159 -10.20631  -6.80331  -2.01069
 Alpha  occ. eigenvalues --   -1.15111  -1.13865  -1.13721  -1.09982  -1.03601
 Alpha  occ. eigenvalues --   -0.88046  -0.87916  -0.87725  -0.87576  -0.86404
 Alpha  occ. eigenvalues --   -0.83758  -0.83286  -0.83045  -0.81938  -0.79312
 Alpha  occ. eigenvalues --   -0.78358  -0.75123  -0.74204  -0.72151  -0.69270
 Alpha  occ. eigenvalues --   -0.68641  -0.68474  -0.68254  -0.68077  -0.67936
 Alpha  occ. eigenvalues --   -0.67775  -0.61030  -0.60294  -0.60146  -0.59137
 Alpha  occ. eigenvalues --   -0.58844  -0.58554  -0.57898  -0.57650  -0.57125
 Alpha  occ. eigenvalues --   -0.54818  -0.53801  -0.52765  -0.52264  -0.51954
 Alpha  occ. eigenvalues --   -0.51603  -0.50762  -0.50532  -0.50223  -0.49819
 Alpha  occ. eigenvalues --   -0.49084  -0.48676  -0.48445  -0.48099  -0.47928
 Alpha  occ. eigenvalues --   -0.47284  -0.47092  -0.46799  -0.46305  -0.46203
 Alpha  occ. eigenvalues --   -0.45876  -0.44516  -0.44401  -0.44322  -0.43774
 Alpha  occ. eigenvalues --   -0.43464  -0.43211  -0.42969  -0.42624  -0.42512
 Alpha  occ. eigenvalues --   -0.42496  -0.42217  -0.41781  -0.41380  -0.41032
 Alpha  occ. eigenvalues --   -0.40764  -0.40601  -0.40396  -0.40219  -0.40031
 Alpha  occ. eigenvalues --   -0.39846  -0.39673  -0.36314  -0.35178  -0.35083
 Alpha  occ. eigenvalues --   -0.34023  -0.33829  -0.33618  -0.30507  -0.28780
 Alpha  occ. eigenvalues --   -0.27271
 Alpha virt. eigenvalues --    0.02147   0.02392   0.02420   0.02671   0.06039
 Alpha virt. eigenvalues --    0.06126   0.06168   0.06274   0.06441   0.06941
 Alpha virt. eigenvalues --    0.07199   0.07452   0.07593   0.07755   0.07795
 Alpha virt. eigenvalues --    0.07907   0.07966   0.08040   0.08225   0.08534
 Alpha virt. eigenvalues --    0.09499   0.09595   0.09821   0.10010   0.10271
 Alpha virt. eigenvalues --    0.10491   0.10542   0.10733   0.11124   0.11268
 Alpha virt. eigenvalues --    0.12061   0.12371   0.12604   0.12611   0.12913
 Alpha virt. eigenvalues --    0.13222   0.13426   0.13563   0.13813   0.13909
 Alpha virt. eigenvalues --    0.14358   0.14504   0.14688   0.14881   0.14936
 Alpha virt. eigenvalues --    0.15458   0.15490   0.15929   0.16119   0.16175
 Alpha virt. eigenvalues --    0.16563   0.16752   0.16888   0.16989   0.17130
 Alpha virt. eigenvalues --    0.17179   0.17642   0.17947   0.18012   0.18194
 Alpha virt. eigenvalues --    0.18436   0.18596   0.18733   0.18952   0.19096
 Alpha virt. eigenvalues --    0.19211   0.19269   0.19565   0.19660   0.19828
 Alpha virt. eigenvalues --    0.20002   0.20338   0.20382   0.20495   0.20797
 Alpha virt. eigenvalues --    0.20963   0.21106   0.21181   0.21311   0.21567
 Alpha virt. eigenvalues --    0.21634   0.21838   0.21888   0.21930   0.22328
 Alpha virt. eigenvalues --    0.22433   0.22491   0.22562   0.22778   0.22979
 Alpha virt. eigenvalues --    0.23118   0.23257   0.23368   0.23451   0.23581
 Alpha virt. eigenvalues --    0.23618   0.24004   0.24200   0.24381   0.24467
 Alpha virt. eigenvalues --    0.24641   0.24755   0.24858   0.25029   0.25077
 Alpha virt. eigenvalues --    0.25315   0.25555   0.25663   0.25744   0.25865
 Alpha virt. eigenvalues --    0.26282   0.26399   0.26494   0.26610   0.26671
 Alpha virt. eigenvalues --    0.26950   0.27013   0.27167   0.27307   0.27616
 Alpha virt. eigenvalues --    0.27813   0.28013   0.28099   0.28260   0.28387
 Alpha virt. eigenvalues --    0.28790   0.29045   0.29172   0.29312   0.29457
 Alpha virt. eigenvalues --    0.29669   0.29767   0.29976   0.30127   0.30244
 Alpha virt. eigenvalues --    0.30419   0.30852   0.30950   0.31064   0.31317
 Alpha virt. eigenvalues --    0.31469   0.31616   0.32009   0.32208   0.32335
 Alpha virt. eigenvalues --    0.32584   0.32665   0.32827   0.32908   0.33428
 Alpha virt. eigenvalues --    0.33698   0.33817   0.33973   0.34134   0.34346
 Alpha virt. eigenvalues --    0.34729   0.35005   0.35128   0.35401   0.35594
 Alpha virt. eigenvalues --    0.35773   0.36247   0.36444   0.36561   0.36739
 Alpha virt. eigenvalues --    0.37106   0.37233   0.37609   0.37912   0.38111
 Alpha virt. eigenvalues --    0.38178   0.38321   0.38571   0.38739   0.38873
 Alpha virt. eigenvalues --    0.39161   0.39250   0.39845   0.39901   0.40441
 Alpha virt. eigenvalues --    0.40515   0.40567   0.40747   0.40938   0.41189
 Alpha virt. eigenvalues --    0.41250   0.41426   0.41967   0.42042   0.42294
 Alpha virt. eigenvalues --    0.42716   0.42768   0.43186   0.43211   0.43432
 Alpha virt. eigenvalues --    0.43531   0.43859   0.44119   0.44161   0.44680
 Alpha virt. eigenvalues --    0.44824   0.44964   0.45286   0.45497   0.45673
 Alpha virt. eigenvalues --    0.46177   0.46217   0.46281   0.46581   0.46917
 Alpha virt. eigenvalues --    0.47474   0.47630   0.47736   0.48063   0.48256
 Alpha virt. eigenvalues --    0.48611   0.49010   0.49551   0.49687   0.49912
 Alpha virt. eigenvalues --    0.50247   0.50945   0.51427   0.51619   0.51714
 Alpha virt. eigenvalues --    0.52359   0.52814   0.53363   0.53699   0.54083
 Alpha virt. eigenvalues --    0.54924   0.55168   0.55989   0.56383   0.56946
 Alpha virt. eigenvalues --    0.57016   0.57568   0.57871   0.58334   0.58695
 Alpha virt. eigenvalues --    0.59244   0.59757   0.59930   0.60613   0.61184
 Alpha virt. eigenvalues --    0.61298   0.61972   0.62329   0.63160   0.63322
 Alpha virt. eigenvalues --    0.63996   0.64150   0.64688   0.64788   0.65190
 Alpha virt. eigenvalues --    0.65665   0.65876   0.66419   0.66706   0.66782
 Alpha virt. eigenvalues --    0.67344   0.67721   0.67936   0.68343   0.68582
 Alpha virt. eigenvalues --    0.69114   0.69389   0.69685   0.70135   0.70507
 Alpha virt. eigenvalues --    0.70701   0.71274   0.71412   0.71526   0.71949
 Alpha virt. eigenvalues --    0.72420   0.72582   0.72747   0.73290   0.73665
 Alpha virt. eigenvalues --    0.73927   0.74398   0.74551   0.75033   0.75202
 Alpha virt. eigenvalues --    0.75586   0.75845   0.76425   0.76896   0.76961
 Alpha virt. eigenvalues --    0.77177   0.77916   0.78154   0.78253   0.78554
 Alpha virt. eigenvalues --    0.78771   0.79444   0.79515   0.79868   0.80090
 Alpha virt. eigenvalues --    0.80409   0.80929   0.81305   0.81535   0.81759
 Alpha virt. eigenvalues --    0.82118   0.82330   0.82538   0.82848   0.83002
 Alpha virt. eigenvalues --    0.83398   0.83543   0.83790   0.83816   0.84210
 Alpha virt. eigenvalues --    0.84492   0.84720   0.85109   0.85605   0.85687
 Alpha virt. eigenvalues --    0.85777   0.86123   0.86369   0.86813   0.87035
 Alpha virt. eigenvalues --    0.87096   0.87446   0.87979   0.88248   0.88537
 Alpha virt. eigenvalues --    0.88846   0.89115   0.89410   0.89444   0.90042
 Alpha virt. eigenvalues --    0.90175   0.90608   0.90833   0.91157   0.91180
 Alpha virt. eigenvalues --    0.91977   0.92077   0.92285   0.92660   0.93067
 Alpha virt. eigenvalues --    0.93117   0.93753   0.93890   0.94147   0.94439
 Alpha virt. eigenvalues --    0.95149   0.95794   0.96001   0.96855   0.96965
 Alpha virt. eigenvalues --    0.97910   0.98109   0.98289   0.98652   0.99839
 Alpha virt. eigenvalues --    1.00027   1.00788   1.01448   1.01999   1.02559
 Alpha virt. eigenvalues --    1.03887   1.04281   1.04443   1.05801   1.06569
 Alpha virt. eigenvalues --    1.06994   1.08644   1.09732   1.10227   1.11189
 Alpha virt. eigenvalues --    1.12011   1.13094   1.13656   1.14852   1.15180
 Alpha virt. eigenvalues --    1.15588   1.16116   1.16978   1.17632   1.19519
 Alpha virt. eigenvalues --    1.20189   1.20649   1.20743   1.21226   1.22728
 Alpha virt. eigenvalues --    1.22939   1.23428   1.25391   1.25963   1.26710
 Alpha virt. eigenvalues --    1.27466   1.28272   1.28905   1.29521   1.29998
 Alpha virt. eigenvalues --    1.30553   1.31725   1.32818   1.33323   1.34096
 Alpha virt. eigenvalues --    1.34611   1.35305   1.36087   1.36728   1.36993
 Alpha virt. eigenvalues --    1.37775   1.38019   1.38985   1.39280   1.39472
 Alpha virt. eigenvalues --    1.40264   1.40774   1.41640   1.42802   1.43192
 Alpha virt. eigenvalues --    1.43584   1.44773   1.45809   1.46877   1.47164
 Alpha virt. eigenvalues --    1.47492   1.48851   1.49485   1.49513   1.50404
 Alpha virt. eigenvalues --    1.52057   1.52454   1.53369   1.53736   1.54884
 Alpha virt. eigenvalues --    1.56165   1.57258   1.57632   1.57909   1.58592
 Alpha virt. eigenvalues --    1.58823   1.59356   1.59997   1.60612   1.60911
 Alpha virt. eigenvalues --    1.61833   1.61983   1.62472   1.62774   1.62933
 Alpha virt. eigenvalues --    1.63612   1.63879   1.64023   1.64763   1.64944
 Alpha virt. eigenvalues --    1.65242   1.65790   1.66288   1.66543   1.67201
 Alpha virt. eigenvalues --    1.67413   1.67649   1.68244   1.68911   1.69297
 Alpha virt. eigenvalues --    1.69773   1.70066   1.70208   1.70823   1.70900
 Alpha virt. eigenvalues --    1.71279   1.71487   1.71956   1.72156   1.72956
 Alpha virt. eigenvalues --    1.73153   1.73498   1.73597   1.74107   1.74469
 Alpha virt. eigenvalues --    1.74777   1.74941   1.75302   1.75638   1.76129
 Alpha virt. eigenvalues --    1.76937   1.77368   1.77511   1.78532   1.78703
 Alpha virt. eigenvalues --    1.78844   1.79543   1.79742   1.80062   1.80702
 Alpha virt. eigenvalues --    1.81451   1.81586   1.81966   1.82572   1.82998
 Alpha virt. eigenvalues --    1.83515   1.83590   1.83851   1.84177   1.84630
 Alpha virt. eigenvalues --    1.84718   1.85172   1.86046   1.86211   1.86617
 Alpha virt. eigenvalues --    1.87150   1.87515   1.87839   1.88192   1.88687
 Alpha virt. eigenvalues --    1.89174   1.89858   1.89984   1.90545   1.91208
 Alpha virt. eigenvalues --    1.91482   1.92033   1.92127   1.92375   1.92487
 Alpha virt. eigenvalues --    1.93203   1.93932   1.93943   1.94549   1.95066
 Alpha virt. eigenvalues --    1.95186   1.95931   1.96182   1.96823   1.97084
 Alpha virt. eigenvalues --    1.97990   1.98367   1.98913   1.99607   1.99987
 Alpha virt. eigenvalues --    2.00356   2.01302   2.01429   2.02150   2.02872
 Alpha virt. eigenvalues --    2.03222   2.03485   2.04627   2.05232   2.05887
 Alpha virt. eigenvalues --    2.06405   2.06550   2.06784   2.07255   2.08221
 Alpha virt. eigenvalues --    2.08468   2.10104   2.10533   2.10688   2.11095
 Alpha virt. eigenvalues --    2.12030   2.12165   2.13017   2.13428   2.14037
 Alpha virt. eigenvalues --    2.14966   2.15296   2.16253   2.17020   2.17641
 Alpha virt. eigenvalues --    2.18177   2.18507   2.20045   2.20794   2.20891
 Alpha virt. eigenvalues --    2.21470   2.22843   2.23226   2.24305   2.25142
 Alpha virt. eigenvalues --    2.25409   2.25595   2.26551   2.27435   2.27789
 Alpha virt. eigenvalues --    2.28510   2.29720   2.30498   2.30894   2.31526
 Alpha virt. eigenvalues --    2.32007   2.32433   2.33523   2.34040   2.34701
 Alpha virt. eigenvalues --    2.35832   2.36169   2.36801   2.37471   2.38100
 Alpha virt. eigenvalues --    2.38755   2.39906   2.40736   2.41290   2.41418
 Alpha virt. eigenvalues --    2.41881   2.42581   2.42635   2.43343   2.44176
 Alpha virt. eigenvalues --    2.45123   2.45586   2.46708   2.47437   2.47997
 Alpha virt. eigenvalues --    2.48469   2.48985   2.49497   2.50490   2.50651
 Alpha virt. eigenvalues --    2.52552   2.53667   2.55007   2.55432   2.56100
 Alpha virt. eigenvalues --    2.56628   2.58260   2.58906   2.59964   2.61096
 Alpha virt. eigenvalues --    2.61300   2.62013   2.62497   2.63173   2.63638
 Alpha virt. eigenvalues --    2.64525   2.65521   2.65983   2.66188   2.66743
 Alpha virt. eigenvalues --    2.66938   2.67531   2.67605   2.68402   2.69440
 Alpha virt. eigenvalues --    2.70090   2.70356   2.70607   2.71371   2.71589
 Alpha virt. eigenvalues --    2.71883   2.72114   2.72355   2.73219   2.73486
 Alpha virt. eigenvalues --    2.73825   2.74230   2.74400   2.74858   2.75222
 Alpha virt. eigenvalues --    2.76364   2.77603   2.77941   2.78971   2.79335
 Alpha virt. eigenvalues --    2.79596   2.79960   2.80805   2.81768   2.82008
 Alpha virt. eigenvalues --    2.82177   2.82441   2.82932   2.83469   2.84305
 Alpha virt. eigenvalues --    2.84459   2.85910   2.86606   2.86815   2.87906
 Alpha virt. eigenvalues --    2.88200   2.88600   2.89694   2.90017   2.91269
 Alpha virt. eigenvalues --    2.92250   2.92484   2.92962   2.93956   2.94237
 Alpha virt. eigenvalues --    2.95052   2.95221   2.96046   2.96505   2.97425
 Alpha virt. eigenvalues --    2.98041   2.98751   2.99627   3.00176   3.00583
 Alpha virt. eigenvalues --    3.01149   3.01815   3.02028   3.02438   3.03312
 Alpha virt. eigenvalues --    3.03915   3.04091   3.04967   3.06103   3.06480
 Alpha virt. eigenvalues --    3.07453   3.07944   3.08708   3.09988   3.10925
 Alpha virt. eigenvalues --    3.11244   3.11570   3.13834   3.14405   3.14601
 Alpha virt. eigenvalues --    3.15638   3.17360   3.17929   3.18251   3.19478
 Alpha virt. eigenvalues --    3.19801   3.21017   3.21605   3.22329   3.22465
 Alpha virt. eigenvalues --    3.23546   3.24994   3.25990   3.27394   3.27429
 Alpha virt. eigenvalues --    3.27534   3.28955   3.29397   3.31088   3.31436
 Alpha virt. eigenvalues --    3.32307   3.32993   3.34537   3.35300   3.36337
 Alpha virt. eigenvalues --    3.37113   3.39744   3.39909   3.40634   3.41479
 Alpha virt. eigenvalues --    3.42727   3.43082   3.43334   3.44253   3.44728
 Alpha virt. eigenvalues --    3.45868   3.47151   3.49015   3.49658   3.50927
 Alpha virt. eigenvalues --    3.51454   3.52281   3.54861   3.60426   3.66161
 Alpha virt. eigenvalues --    3.72687   3.74403   3.77270   3.77566   3.80677
 Alpha virt. eigenvalues --    3.83956   3.87035   3.89052   3.89447   3.90851
 Alpha virt. eigenvalues --    3.91037   3.92103   3.92337   3.93734   3.94490
 Alpha virt. eigenvalues --    3.94767   3.95274   3.95975   3.96711   3.97484
 Alpha virt. eigenvalues --    3.98609   3.99783   4.00131   4.01168   4.01754
 Alpha virt. eigenvalues --    4.02991   4.03693   4.06226   4.10755   4.11578
 Alpha virt. eigenvalues --    4.14091   4.17099   4.17725   4.17841   4.19649
 Alpha virt. eigenvalues --    4.23027   4.24434   4.26492   4.27917   4.28238
 Alpha virt. eigenvalues --    4.29751   4.30832   4.32855   4.35573   4.41084
 Alpha virt. eigenvalues --    4.41538   4.42542   4.44459   4.46322   4.46715
 Alpha virt. eigenvalues --    4.48415   4.50018   4.54531   4.55664   4.75220
 Alpha virt. eigenvalues --    5.36336   5.40438   5.40981   5.50404   5.58666
 Alpha virt. eigenvalues --    5.61907   5.66380   5.68335   5.72215   5.74241
 Alpha virt. eigenvalues --    5.77333   5.79042   5.79585   5.80462   5.95912
 Alpha virt. eigenvalues --   14.94578  23.96906  23.97983  24.00735  24.01701
 Alpha virt. eigenvalues --   24.02567  24.03108  24.03377  24.05505  24.07141
 Alpha virt. eigenvalues --   24.09415  24.11350  24.11761  24.12752  24.13818
 Alpha virt. eigenvalues --   24.14949  24.15427  24.16193  24.16706  24.17275
 Alpha virt. eigenvalues --   24.18490  24.19995  24.22853  24.43769  50.14854
 Alpha virt. eigenvalues --   50.17410  50.20031  50.26724  50.29002
          Condensed to atoms (all electrons):
 Mulliken charges:
               1
     1  Li  -0.491857
     2  C    0.102171
     3  O    0.045677
     4  C   -0.945243
     5  H    0.099538
     6  C   -0.037369
     7  C   -0.273832
     8  H    0.191617
     9  H    0.221854
    10  H    0.175821
    11  H    0.212147
    12  H    0.088133
    13  H    0.245792
    14  C    0.001233
    15  O    0.050367
    16  C   -0.671788
    17  H    0.180656
    18  C   -0.048899
    19  C   -0.695524
    20  H    0.186748
    21  H    0.238176
    22  H    0.193672
    23  H    0.225710
    24  H    0.207549
    25  H    0.211286
    26  C    0.202186
    27  O    0.168562
    28  C   -0.591097
    29  H    0.240515
    30  C    0.045434
    31  C   -0.838464
    32  H    0.244375
    33  H    0.159735
    34  H    0.115662
    35  H    0.193773
    36  H    0.194136
    37  H    0.240126
    38  O    0.308958
    39  H    0.206596
    40  H    0.145657
    41  H    0.159971
    42  C    0.238581
    43  C   -0.035900
    44  H    0.067007
    45  C   -0.820591
    46  H    0.197031
    47  H    0.189759
    48  H    0.169806
    49  C   -0.724122
    50  H    0.194389
    51  H    0.151501
    52  H    0.177338
    53  B   -0.251428
    54  C   -0.673932
    55  H    0.179579
    56  H    0.142696
    57  H    0.163471
    58  O   -0.018605
    59  C    0.186367
    60  C   -0.727215
    61  C   -0.436393
    62  H    0.169610
    63  H    0.179910
    64  H    0.139506
    65  C   -0.582515
    66  H    0.090863
    67  H    0.203321
    68  H    0.187842
    69  C   -0.397217
    70  H    0.198510
    71  H    0.200445
    72  H    0.149748
    73  C   -0.437755
    74  H    0.229409
    75  H    0.256059
    76  H    0.133163
 Sum of Mulliken charges =  -0.00000
 Mulliken charges with hydrogens summed into heavy atoms:
               1
     1  Li  -0.491857
     2  C    0.347366
     3  O    0.045677
     4  C   -0.531773
     6  C    0.350599
     7  C    0.060093
    14  C    0.388486
    15  O    0.050367
    16  C   -0.246864
    18  C    0.370483
    19  C   -0.276689
    26  C    0.602672
    27  O    0.168562
    28  C   -0.186987
    30  C    0.354869
    31  C   -0.404202
    38  O    0.308958
    42  C    0.238581
    43  C    0.031107
    45  C   -0.263995
    49  C   -0.200895
    53  B   -0.251428
    54  C   -0.188186
    58  O   -0.018605
    59  C    0.186367
    60  C   -0.727215
    61  C    0.052633
    65  C   -0.100489
    69  C    0.151486
    73  C    0.180877
 Electronic spatial extent (au):  <R**2>=          11265.3533
 Charge=             -0.0000 electrons
 Dipole moment (field-independent basis, Debye):
    X=              9.2683    Y=              0.1412    Z=             -8.6819  Tot=             12.7002
 Quadrupole moment (field-independent basis, Debye-Ang):
   XX=           -186.6579   YY=           -169.6464   ZZ=           -188.7051
   XY=              0.9760   XZ=              3.7739   YZ=              1.6579
 Traceless Quadrupole moment (field-independent basis, Debye-Ang):
   XX=             -4.9881   YY=             12.0234   ZZ=             -7.0353
   XY=              0.9760   XZ=              3.7739   YZ=              1.6579
 Octapole moment (field-independent basis, Debye-Ang**2):
  XXX=            121.2549  YYY=             -9.8506  ZZZ=           -107.2270  XYY=             41.6197
  XXY=              9.5521  XXZ=            -70.0549  XZZ=             62.7522  YZZ=             -1.1120
  YYZ=            -22.5862  XYZ=              8.2725
 Hexadecapole moment (field-independent basis, Debye-Ang**3):
 XXXX=          -5909.0003 YYYY=          -5108.6701 ZZZZ=          -4254.5815 XXXY=            155.0129
 XXXZ=            709.5583 YYYX=            188.4929 YYYZ=            -33.6201 ZZZX=            713.4574
 ZZZY=           -110.4165 XXYY=          -1843.2947 XXZZ=          -1650.3279 YYZZ=          -1589.4435
 XXYZ=            -48.8292 YYXZ=            278.5043 ZZXY=             75.1114
 N-N= 3.497704747833D+03 E-N=-1.005661775832D+04  KE= 1.306740911447D+03
 Unable to Open any file for archive entry.
 1\1\GINC-NODE10\SP\RwB97XD\6-311++G(d,p)\C23H46B1Li1O5\WHUGHES2\08-Oct
 -2025\0\\# wb97xd/6-311++g** nosymm int=ultrafine scrf=(smd,solvent=te
 trahydrofuran)\\r1-li-3thf-c5_tzpop-sp\\0,1\Li,0,0.7382,0.1578,-0.2609
 \C,0,1.7471,2.9681,-0.3474\O,0,1.8541,1.8773,0.5854\C,0,1.2602,4.1909,
 0.4407\H,0,1.043,2.6682,-1.1296\C,0,1.6244,2.3786,1.9084\C,0,0.7052,3.
 5729,1.7263\H,0,0.5128,4.7634,-0.1162\H,0,2.0988,4.8582,0.6685\H,0,1.1
 878,1.5768,2.5046\H,0,2.5859,2.6741,2.3542\H,0,-0.3186,3.2197,1.5787\H
 ,0,0.7305,4.256,2.5803\C,0,3.4362,0.6506,-1.9163\O,0,2.0566,0.2901,-1.
 8911\C,0,4.1049,-0.4628,-2.7124\H,0,3.7746,0.7406,-0.8828\C,0,1.7303,-
 0.2288,-3.1844\C,0,3.0349,-0.8142,-3.7652\H,0,4.3097,-1.3173,-2.0596\H
 ,0,5.0495,-0.1401,-3.159\H,0,0.9412,-0.9684,-3.0395\H,0,1.346,0.5884,-
 3.8091\H,0,2.959,-1.8937,-3.9224\H,0,3.2645,-0.3528,-4.7301\C,0,-0.642
 2,-2.6058,-0.6264\O,0,0.5552,-1.8319,-0.7882\C,0,-0.2102,-3.9009,0.045
 8\H,0,-1.0662,-2.8,-1.6227\C,0,1.7139,-2.6594,-0.6296\C,0,1.2029,-4.09
 48,-0.5126\H,0,-0.8821,-4.7315,-0.189\H,0,-0.1848,-3.7717,1.1318\H,0,2
 .3689,-2.5111,-1.4928\H,0,2.2468,-2.3391,0.2744\H,0,1.1598,-4.565,-1.5
 019\H,0,1.8424,-4.7068,0.1298\O,0,-0.9665,0.7478,0.4186\H,0,3.5543,1.6
 209,-2.4216\H,0,2.725,3.1391,-0.8094\H,0,-1.3483,-2.0143,-0.04\C,0,-0.
 7259,-1.0694,2.3086\C,0,0.6166,-1.1165,2.3298\H,0,1.1766,-0.3328,1.816
 7\C,0,1.4977,-2.1396,3.0178\H,0,1.2596,-2.2431,4.0845\H,0,1.4129,-3.14
 22,2.5761\H,0,2.5522,-1.8486,2.9502\C,0,-1.531,-2.1372,3.0151\H,0,-2.2
 048,-2.6303,2.3024\H,0,-0.923,-2.9096,3.5015\H,0,-2.1807,-1.6913,3.781
 3\B,0,-1.6178,0.1289,1.6415\C,0,-1.9256,1.2477,2.8155\H,0,-1.0031,1.60
 28,3.3002\H,0,-2.4605,2.1402,2.4597\H,0,-2.5474,0.8086,3.6125\O,0,-2.8
 606,-0.4387,1.0496\C,0,-3.2765,0.324,-0.0566\C,0,-1.9668,1.1184,-0.523
 4\C,0,-4.4418,1.2409,0.3582\H,0,-4.8154,1.8412,-0.4804\H,0,-5.266,0.61
 26,0.7155\H,0,-4.1675,1.9153,1.1724\C,0,-3.8251,-0.6394,-1.1177\H,0,-3
 .0764,-1.3672,-1.4395\H,0,-4.6642,-1.197,-0.6855\H,0,-4.1945,-0.1061,-
 2.0021\C,0,-2.1345,2.6441,-0.5233\H,0,-2.8914,2.963,-1.2499\H,0,-2.416
 3,3.03,0.4585\H,0,-1.184,3.1103,-0.805\C,0,-1.4587,0.7209,-1.9139\H,0,
 -1.2334,-0.3463,-1.9779\H,0,-2.1806,0.969,-2.6996\H,0,-0.537,1.2747,-2
 .1343\\Version=AS64L-G16RevC.01\HF=-1312.7940512\RMSD=4.020e-09\Dipole
 =3.6464138,0.0555606,-3.4157261\Quadrupole=-3.7085349,8.9391048,-5.230
 5699,0.7256161,2.8057678,1.2326364\PG=C01 [X(C23H46B1Li1O5)]\\@
 The archive entry for this job was punched.


 THE SECRET OF SUCCESS IN LIFE IS TO EAT WHAT YOU LIKE, AND LET THE FOOD
 FIGHT IT OUT INSIDE YOU. -- FROM A FORTUNE COOKIE
 Job cpu time:       0 days  4 hours 47 minutes 59.4 seconds.
 Elapsed time:       0 days  1 hours 12 minutes 38.6 seconds.
 File lengths (MBytes):  RWF=    823 Int=      0 D2E=      0 Chk=     59 Scr=      1
 Normal termination of Gaussian 16 at Wed Oct  8 16:40:24 2025.
