Job Start Time: Wed Oct  8 15:56:06 MDT 2025
SLURM Job ID: 768202
SLURM Job Name: r1-li-3thf-c7_tzpop-sp
 Entering Gaussian System, Link 0=/opt/apps/Gaussian/G16C/g16/g16
 Initial command:
 /opt/apps/Gaussian/G16C/g16/l1.exe "/tmp/768202/Gau-2785161.inp" -scrdir="/tmp/768202/"
 Entering Link 1 = /opt/apps/Gaussian/G16C/g16/l1.exe PID=   2785162.
  
 Copyright (c) 1988-2019, Gaussian, Inc.  All Rights Reserved.
  
 This is part of the Gaussian(R) 16 program.  It is based on
 the Gaussian(R) 09 system (copyright 2009, Gaussian, Inc.),
 the Gaussian(R) 03 system (copyright 2003, Gaussian, Inc.),
 the Gaussian(R) 98 system (copyright 1998, Gaussian, Inc.),
 the Gaussian(R) 94 system (copyright 1995, Gaussian, Inc.),
 the Gaussian 92(TM) system (copyright 1992, Gaussian, Inc.),
 the Gaussian 90(TM) system (copyright 1990, Gaussian, Inc.),
 the Gaussian 88(TM) system (copyright 1988, Gaussian, Inc.),
 the Gaussian 86(TM) system (copyright 1986, Carnegie Mellon
 University), and the Gaussian 82(TM) system (copyright 1983,
 Carnegie Mellon University). Gaussian is a federally registered
 trademark of Gaussian, Inc.
  
 This software contains proprietary and confidential information,
 including trade secrets, belonging to Gaussian, Inc.
  
 This software is provided under written license and may be
 used, copied, transmitted, or stored only in accord with that
 written license.
  
 The following legend is applicable only to US Government
 contracts under FAR:
  
                    RESTRICTED RIGHTS LEGEND
  
 Use, reproduction and disclosure by the US Government is
 subject to restrictions as set forth in subparagraphs (a)
 and (c) of the Commercial Computer Software - Restricted
 Rights clause in FAR 52.227-19.
  
 Gaussian, Inc.
 340 Quinnipiac St., Bldg. 40, Wallingford CT 06492
  
  
 ---------------------------------------------------------------
 Warning -- This program may not be used in any manner that
 competes with the business of Gaussian, Inc. or will provide
 assistance to any competitor of Gaussian, Inc.  The licensee
 of this program is prohibited from giving any competitor of
 Gaussian, Inc. access to this program.  By using this program,
 the user acknowledges that Gaussian, Inc. is engaged in the
 business of creating and licensing software in the field of
 computational chemistry and represents and warrants to the
 licensee that it is not a competitor of Gaussian, Inc. and that
 it will not use this program in any manner prohibited above.
 ---------------------------------------------------------------
  

 Cite this work as:
 Gaussian 16, Revision C.01,
 M. J. Frisch, G. W. Trucks, H. B. Schlegel, G. E. Scuseria, 
 M. A. Robb, J. R. Cheeseman, G. Scalmani, V. Barone, 
 G. A. Petersson, H. Nakatsuji, X. Li, M. Caricato, A. V. Marenich, 
 J. Bloino, B. G. Janesko, R. Gomperts, B. Mennucci, H. P. Hratchian, 
 J. V. Ortiz, A. F. Izmaylov, J. L. Sonnenberg, D. Williams-Young, 
 F. Ding, F. Lipparini, F. Egidi, J. Goings, B. Peng, A. Petrone, 
 T. Henderson, D. Ranasinghe, V. G. Zakrzewski, J. Gao, N. Rega, 
 G. Zheng, W. Liang, M. Hada, M. Ehara, K. Toyota, R. Fukuda, 
 J. Hasegawa, M. Ishida, T. Nakajima, Y. Honda, O. Kitao, H. Nakai, 
 T. Vreven, K. Throssell, J. A. Montgomery, Jr., J. E. Peralta, 
 F. Ogliaro, M. J. Bearpark, J. J. Heyd, E. N. Brothers, K. N. Kudin, 
 V. N. Staroverov, T. A. Keith, R. Kobayashi, J. Normand, 
 K. Raghavachari, A. P. Rendell, J. C. Burant, S. S. Iyengar, 
 J. Tomasi, M. Cossi, J. M. Millam, M. Klene, C. Adamo, R. Cammi, 
 J. W. Ochterski, R. L. Martin, K. Morokuma, O. Farkas, 
 J. B. Foresman, and D. J. Fox, Gaussian, Inc., Wallingford CT, 2019.
 
 ******************************************
 Gaussian 16:  AS64L-G16RevC.01  3-Jul-2019
                 8-Oct-2025 
 ******************************************
 %chk=r1-li-3thf-c7_tzpop-sp.chk
 %nprocshared=4
 Will use up to    4 processors via shared memory.
 %mem=8GB
 ----------------------------------------------------------------------
 # wb97xd/6-311++g** nosymm int=ultrafine scrf=(smd,solvent=tetrahydrof
 uran)
 ----------------------------------------------------------------------
 1/38=1,172=1/1;
 2/12=2,15=1,17=6,18=5,40=1/2;
 3/5=4,6=6,7=1111,11=2,25=1,30=1,70=32201,72=20,74=-58,75=-5/1,2,3;
 4//1;
 5/5=2,38=5,53=20/2;
 6/7=2,8=2,9=2,10=2,28=1/1;
 99/5=1,9=1/99;
 ----------------------
 r1-li-3thf-c7_tzpop-sp
 ----------------------
 Symbolic Z-matrix:
 Charge =  0 Multiplicity = 1
 Li                    0.5025   -0.0058   -0.1296 
 C                     1.5504    0.4369    2.6828 
 O                     1.3999   -0.443     1.5696 
 C                     2.8626    0.0095    3.3602 
 H                     0.6918    0.303     3.3532 
 C                     1.8186   -1.7212    2.0406 
 C                     3.0918   -1.4297    2.8375 
 H                     2.7677    0.0455    4.449 
 H                     3.6878    0.6684    3.0742 
 H                     1.0324   -2.1385    2.6847 
 H                     1.9542   -2.3696    1.1745 
 H                     3.2393   -2.1547    3.6427 
 H                     3.9667   -1.4698    2.1807 
 C                     2.5611   -1.5536   -1.5227 
 O                     1.1978   -1.6663   -1.1148 
 C                     2.4818   -1.2716   -3.0226 
 H                     3.0755   -2.5047   -1.3196 
 C                     0.5888   -2.4842   -2.1148 
 C                     1.1869   -2.0079   -3.4484 
 H                     3.3691   -1.6274   -3.5534 
 H                     2.3899   -0.1945   -3.1931 
 H                     0.8478   -3.5331   -1.9131 
 H                    -0.4925   -2.3719   -2.0332 
 H                     1.3896   -2.8542   -4.1105 
 H                     0.501    -1.3314   -3.9661 
 C                     3.0922    1.7383   -0.0636 
 O                     1.8446    1.4717   -0.706 
 C                     4.0752    1.9678   -1.2094 
 H                     3.3308    0.8839    0.5716 
 C                     1.7561    2.4012   -1.7887 
 C                     3.191     2.5847   -2.3154 
 H                     4.4982    1.0137   -1.5397 
 H                     4.9006    2.62     -0.9115 
 H                     1.0662    1.9899   -2.5269 
 H                     1.3476    3.3481   -1.4115 
 H                     3.3341    2.0709   -3.2698 
 H                     3.4104    3.6447   -2.4707 
 O                    -1.3201    0.4857   -0.1381 
 H                     3.0237   -0.7642   -0.9325 
 H                     1.5486    1.4604    2.3028 
 H                     2.9924    2.6357    0.5642 
 C                    -1.8719   -0.9827    1.9225 
 C                    -1.9466   -1.0903    3.2621 
 H                    -2.137    -0.1904    3.8491 
 C                    -1.8028   -2.363     4.0684 
 H                    -2.0998   -2.2044    5.1114 
 H                    -2.4225   -3.178     3.6711 
 H                    -0.7667   -2.7341    4.0827 
 C                    -1.5941   -2.2388    1.1204 
 H                    -1.1303   -1.9984    0.159 
 H                    -0.9329   -2.9433    1.6419 
 H                    -2.5245   -2.7829    0.8996 
 B                    -2.1635    0.4367    1.1379 
 C                    -1.9031    1.7446    2.0934 
 H                    -2.0139    2.683     1.5331 
 H                    -2.6303    1.7931    2.9191 
 H                    -0.9036    1.7641    2.5516 
 O                    -3.555     0.5024    0.5796 
 C                    -3.5548    0.4583   -0.8266 
 C                    -2.1173    0.9559   -1.2165 
 C                    -4.6784    1.3498   -1.3611 
 H                    -5.6493    0.9209   -1.0853 
 H                    -4.6273    2.3571   -0.9381 
 H                    -4.6434    1.4267   -2.4555 
 C                    -3.8246   -0.9792   -1.3023 
 H                    -3.0066   -1.6517   -1.0339 
 H                    -4.7338   -1.3432   -0.8099 
 H                    -3.9785   -1.0347   -2.3874 
 C                    -2.0249    2.4866   -1.3021 
 H                    -2.5019    2.9734   -0.449 
 H                    -0.9696    2.779    -1.31 
 H                    -2.4927    2.867    -2.2181 
 C                    -1.589     0.3721   -2.524 
 H                    -2.2095    0.6845   -3.3725 
 H                    -0.5683    0.7249   -2.7108 
 H                    -1.5688   -0.718    -2.5003 
 
 Symmetry turned off by external request.
 Stoichiometry    C23H46BLiO5
 Framework group  C1[X(C23H46BLiO5)]
 Deg. of freedom   222
 Full point group                 C1      NOp   1
                          Input orientation:                          
 ---------------------------------------------------------------------
 Center     Atomic      Atomic             Coordinates (Angstroms)
 Number     Number       Type             X           Y           Z
 ---------------------------------------------------------------------
      1          3           0        0.502500   -0.005800   -0.129600
      2          6           0        1.550400    0.436900    2.682800
      3          8           0        1.399900   -0.443000    1.569600
      4          6           0        2.862600    0.009500    3.360200
      5          1           0        0.691800    0.303000    3.353200
      6          6           0        1.818600   -1.721200    2.040600
      7          6           0        3.091800   -1.429700    2.837500
      8          1           0        2.767700    0.045500    4.449000
      9          1           0        3.687800    0.668400    3.074200
     10          1           0        1.032400   -2.138500    2.684700
     11          1           0        1.954200   -2.369600    1.174500
     12          1           0        3.239300   -2.154700    3.642700
     13          1           0        3.966700   -1.469800    2.180700
     14          6           0        2.561100   -1.553600   -1.522700
     15          8           0        1.197800   -1.666300   -1.114800
     16          6           0        2.481800   -1.271600   -3.022600
     17          1           0        3.075500   -2.504700   -1.319600
     18          6           0        0.588800   -2.484200   -2.114800
     19          6           0        1.186900   -2.007900   -3.448400
     20          1           0        3.369100   -1.627400   -3.553400
     21          1           0        2.389900   -0.194500   -3.193100
     22          1           0        0.847800   -3.533100   -1.913100
     23          1           0       -0.492500   -2.371900   -2.033200
     24          1           0        1.389600   -2.854200   -4.110500
     25          1           0        0.501000   -1.331400   -3.966100
     26          6           0        3.092200    1.738300   -0.063600
     27          8           0        1.844600    1.471700   -0.706000
     28          6           0        4.075200    1.967800   -1.209400
     29          1           0        3.330800    0.883900    0.571600
     30          6           0        1.756100    2.401200   -1.788700
     31          6           0        3.191000    2.584700   -2.315400
     32          1           0        4.498200    1.013700   -1.539700
     33          1           0        4.900600    2.620000   -0.911500
     34          1           0        1.066200    1.989900   -2.526900
     35          1           0        1.347600    3.348100   -1.411500
     36          1           0        3.334100    2.070900   -3.269800
     37          1           0        3.410400    3.644700   -2.470700
     38          8           0       -1.320100    0.485700   -0.138100
     39          1           0        3.023700   -0.764200   -0.932500
     40          1           0        1.548600    1.460400    2.302800
     41          1           0        2.992400    2.635700    0.564200
     42          6           0       -1.871900   -0.982700    1.922500
     43          6           0       -1.946600   -1.090300    3.262100
     44          1           0       -2.137000   -0.190400    3.849100
     45          6           0       -1.802800   -2.363000    4.068400
     46          1           0       -2.099800   -2.204400    5.111400
     47          1           0       -2.422500   -3.178000    3.671100
     48          1           0       -0.766700   -2.734100    4.082700
     49          6           0       -1.594100   -2.238800    1.120400
     50          1           0       -1.130300   -1.998400    0.159000
     51          1           0       -0.932900   -2.943300    1.641900
     52          1           0       -2.524500   -2.782900    0.899600
     53          5           0       -2.163500    0.436700    1.137900
     54          6           0       -1.903100    1.744600    2.093400
     55          1           0       -2.013900    2.683000    1.533100
     56          1           0       -2.630300    1.793100    2.919100
     57          1           0       -0.903600    1.764100    2.551600
     58          8           0       -3.555000    0.502400    0.579600
     59          6           0       -3.554800    0.458300   -0.826600
     60          6           0       -2.117300    0.955900   -1.216500
     61          6           0       -4.678400    1.349800   -1.361100
     62          1           0       -5.649300    0.920900   -1.085300
     63          1           0       -4.627300    2.357100   -0.938100
     64          1           0       -4.643400    1.426700   -2.455500
     65          6           0       -3.824600   -0.979200   -1.302300
     66          1           0       -3.006600   -1.651700   -1.033900
     67          1           0       -4.733800   -1.343200   -0.809900
     68          1           0       -3.978500   -1.034700   -2.387400
     69          6           0       -2.024900    2.486600   -1.302100
     70          1           0       -2.501900    2.973400   -0.449000
     71          1           0       -0.969600    2.779000   -1.310000
     72          1           0       -2.492700    2.867000   -2.218100
     73          6           0       -1.589000    0.372100   -2.524000
     74          1           0       -2.209500    0.684500   -3.372500
     75          1           0       -0.568300    0.724900   -2.710800
     76          1           0       -1.568800   -0.718000   -2.500300
 ---------------------------------------------------------------------
 Rotational constants (GHZ):           0.1760097           0.1399794           0.1115747
 Standard basis: 6-311++G(d,p) (5D, 7F)
   982 basis functions,  1494 primitive gaussians,  1012 cartesian basis functions
   116 alpha electrons      116 beta electrons
       nuclear repulsion energy      3449.7358013296 Hartrees.
 NAtoms=   76 NActive=   76 NUniq=   76 SFac= 1.00D+00 NAtFMM=   60 NAOKFM=T Big=T
 Integral buffers will be    131072 words long.
 Raffenetti 2 integral format.
 Two-electron integral symmetry is turned off.
 Nuclear repulsion after empirical dispersion term =     3449.6400797045 Hartrees.
 ------------------------------------------------------------------------------
 Polarizable Continuum Model (PCM)
 =================================
 Model                : PCM.
 Atomic radii         : SMD-Coulomb.
 Polarization charges : Total charges.
 Charge compensation  : None.
 Solution method      : On-the-fly selection.
 Cavity type          : VdW (van der Waals Surface) (Alpha=1.000).
 Cavity algorithm     : GePol (No added spheres)
                        Default sphere list used, NSphG=   76.
                        Lebedev-Laikov grids with approx.  5.0 points / Ang**2.
                        Smoothing algorithm: York/Karplus (Gamma=1.0000).
                        Polarization charges: spherical gaussians, with
                                              point-specific exponents (IZeta= 3).
                        Self-potential: point-specific (ISelfS= 7).
                        Self-field    : sphere-specific E.n sum rule (ISelfD= 2).
 Solvent              : TetraHydroFuran, Eps=   7.425700 Eps(inf)=   1.974025
 ------------------------------------------------------------------------------
 ------------------------------------------------------------------------------
 Atomic radii for non-electrostatic terms: SMD-CDS.
 ------------------------------------------------------------------------------
 Nuclear repulsion after PCM non-electrostatic terms =     3449.6334741710 Hartrees.
 One-electron integrals computed using PRISM.
 NBasis=   982 RedAO= T EigKep=  1.00D-06  NBF=   982
 NBsUse=   979 1.00D-06 EigRej=  8.85D-07 NBFU=   979
 ExpMin= 7.40D-03 ExpMax= 8.59D+03 ExpMxC= 1.30D+03 IAcc=3 IRadAn=         5 AccDes= 0.00D+00
 Harris functional with IExCor= 4639 and IRadAn=       5 diagonalized for initial guess.
 HarFok:  IExCor= 4639 AccDes= 0.00D+00 IRadAn=         5 IDoV= 1 UseB2=F ITyADJ=14
 ICtDFT=  3500011 ScaDFX=  1.000000  1.000000  1.000000  1.000000
 FoFCou: FMM=F IPFlag=           0 FMFlag=      100000 FMFlg1=        2001
         NFxFlg=           0 DoJE=T BraDBF=F KetDBF=T FulRan=T
         wScrn=  0.000000 ICntrl=       500 IOpCl=  0 I1Cent=   200000004 NGrid=           0
         NMat0=    1 NMatS0=      1 NMatT0=    0 NMatD0=    1 NMtDS0=    0 NMtDT0=    0
 Symmetry not used in FoFCou.
 Requested convergence on RMS density matrix=1.00D-08 within 128 cycles.
 Requested convergence on MAX density matrix=1.00D-06.
 Requested convergence on             energy=1.00D-06.
 No special actions if energy rises.
 Inv3:  Mode=1 IEnd=    58291392.
 Iteration    1 A*A^-1 deviation from unit magnitude is 1.10D-14 for   4400.
 Iteration    1 A*A^-1 deviation from orthogonality  is 2.49D-15 for   1992   1254.
 Iteration    1 A^-1*A deviation from unit magnitude is 1.10D-14 for   4400.
 Iteration    1 A^-1*A deviation from orthogonality  is 5.73D-11 for   2112   2088.
 Error on total polarization charges =  0.07357
 SCF Done:  E(RwB97XD) =  -1312.79814089     A.U. after   15 cycles
            NFock= 15  Conv=0.39D-08     -V/T= 2.0046
 SMD-CDS (non-electrostatic) energy       (kcal/mol) =      -4.15
 (included in total energy above)

 **********************************************************************

            Population analysis using the SCF Density.

 **********************************************************************

 Alpha  occ. eigenvalues --  -19.26585 -19.26505 -19.26062 -19.19393 -19.17073
 Alpha  occ. eigenvalues --  -10.32819 -10.32806 -10.32803 -10.32746 -10.32182
 Alpha  occ. eigenvalues --  -10.32154 -10.31625 -10.30840 -10.28129 -10.28115
 Alpha  occ. eigenvalues --  -10.28079 -10.28014 -10.27775 -10.27726 -10.25711
 Alpha  occ. eigenvalues --  -10.25529 -10.24874 -10.24831 -10.24570 -10.24481
 Alpha  occ. eigenvalues --  -10.24140 -10.22593 -10.20250  -6.80230  -1.99851
 Alpha  occ. eigenvalues --   -1.15905  -1.15558  -1.15282  -1.09848  -1.03134
 Alpha  occ. eigenvalues --   -0.88223  -0.88005  -0.87680  -0.87360  -0.86165
 Alpha  occ. eigenvalues --   -0.84114  -0.83920  -0.83325  -0.81819  -0.78832
 Alpha  occ. eigenvalues --   -0.78021  -0.75180  -0.74444  -0.71213  -0.69891
 Alpha  occ. eigenvalues --   -0.69736  -0.69289  -0.68821  -0.68678  -0.68254
 Alpha  occ. eigenvalues --   -0.67991  -0.61489  -0.60460  -0.59801  -0.59729
 Alpha  occ. eigenvalues --   -0.59295  -0.58198  -0.58064  -0.57892  -0.56891
 Alpha  occ. eigenvalues --   -0.54576  -0.54320  -0.54093  -0.53790  -0.52853
 Alpha  occ. eigenvalues --   -0.51495  -0.51183  -0.50665  -0.50434  -0.50257
 Alpha  occ. eigenvalues --   -0.49557  -0.49088  -0.48369  -0.48138  -0.47935
 Alpha  occ. eigenvalues --   -0.47326  -0.46647  -0.46393  -0.46028  -0.45846
 Alpha  occ. eigenvalues --   -0.45196  -0.44594  -0.44514  -0.44259  -0.44036
 Alpha  occ. eigenvalues --   -0.43660  -0.43319  -0.43190  -0.43018  -0.42888
 Alpha  occ. eigenvalues --   -0.42423  -0.42326  -0.42132  -0.41868  -0.41759
 Alpha  occ. eigenvalues --   -0.41371  -0.40710  -0.40432  -0.40221  -0.40052
 Alpha  occ. eigenvalues --   -0.39013  -0.38173  -0.36744  -0.35979  -0.35646
 Alpha  occ. eigenvalues --   -0.35565  -0.35073  -0.33860  -0.30793  -0.28200
 Alpha  occ. eigenvalues --   -0.26960
 Alpha virt. eigenvalues --    0.02124   0.02448   0.02459   0.02710   0.05981
 Alpha virt. eigenvalues --    0.06072   0.06178   0.06233   0.06284   0.06954
 Alpha virt. eigenvalues --    0.07454   0.07506   0.07567   0.07655   0.07856
 Alpha virt. eigenvalues --    0.07895   0.08035   0.08157   0.08241   0.08407
 Alpha virt. eigenvalues --    0.09422   0.09745   0.09828   0.10119   0.10358
 Alpha virt. eigenvalues --    0.10412   0.10527   0.10642   0.11061   0.11150
 Alpha virt. eigenvalues --    0.11698   0.11980   0.12436   0.12656   0.12872
 Alpha virt. eigenvalues --    0.13077   0.13166   0.13372   0.13558   0.13912
 Alpha virt. eigenvalues --    0.14004   0.14186   0.14555   0.14787   0.14955
 Alpha virt. eigenvalues --    0.15223   0.15506   0.15841   0.15931   0.16244
 Alpha virt. eigenvalues --    0.16323   0.16551   0.16707   0.16981   0.17315
 Alpha virt. eigenvalues --    0.17417   0.17575   0.17877   0.17914   0.18139
 Alpha virt. eigenvalues --    0.18314   0.18454   0.18721   0.19088   0.19180
 Alpha virt. eigenvalues --    0.19235   0.19327   0.19377   0.19548   0.19939
 Alpha virt. eigenvalues --    0.20063   0.20177   0.20265   0.20346   0.20460
 Alpha virt. eigenvalues --    0.20660   0.20985   0.21085   0.21285   0.21477
 Alpha virt. eigenvalues --    0.21607   0.21904   0.22060   0.22224   0.22327
 Alpha virt. eigenvalues --    0.22412   0.22445   0.22686   0.22811   0.22917
 Alpha virt. eigenvalues --    0.23076   0.23125   0.23316   0.23406   0.23551
 Alpha virt. eigenvalues --    0.23791   0.23813   0.23965   0.24097   0.24177
 Alpha virt. eigenvalues --    0.24359   0.24455   0.24658   0.24866   0.24931
 Alpha virt. eigenvalues --    0.25150   0.25442   0.25495   0.25569   0.25704
 Alpha virt. eigenvalues --    0.25848   0.26129   0.26261   0.26392   0.26698
 Alpha virt. eigenvalues --    0.26842   0.27060   0.27259   0.27326   0.27514
 Alpha virt. eigenvalues --    0.27664   0.27930   0.27992   0.28198   0.28346
 Alpha virt. eigenvalues --    0.28507   0.28832   0.28854   0.29112   0.29358
 Alpha virt. eigenvalues --    0.29686   0.29736   0.30009   0.30154   0.30464
 Alpha virt. eigenvalues --    0.30603   0.30823   0.30977   0.31283   0.31462
 Alpha virt. eigenvalues --    0.31503   0.31607   0.32227   0.32370   0.32460
 Alpha virt. eigenvalues --    0.32576   0.32862   0.33105   0.33544   0.33568
 Alpha virt. eigenvalues --    0.33846   0.33916   0.34121   0.34426   0.34604
 Alpha virt. eigenvalues --    0.34847   0.35082   0.35250   0.35639   0.35707
 Alpha virt. eigenvalues --    0.35957   0.36165   0.36284   0.36590   0.36933
 Alpha virt. eigenvalues --    0.37283   0.37454   0.37683   0.37891   0.37975
 Alpha virt. eigenvalues --    0.38145   0.38339   0.38465   0.38790   0.38837
 Alpha virt. eigenvalues --    0.39072   0.39395   0.39579   0.39668   0.39918
 Alpha virt. eigenvalues --    0.40153   0.40315   0.40785   0.40915   0.40996
 Alpha virt. eigenvalues --    0.41318   0.41478   0.41611   0.41924   0.42293
 Alpha virt. eigenvalues --    0.42495   0.42537   0.42787   0.43053   0.43377
 Alpha virt. eigenvalues --    0.43702   0.43812   0.44094   0.44326   0.44542
 Alpha virt. eigenvalues --    0.44645   0.44867   0.45406   0.45545   0.45742
 Alpha virt. eigenvalues --    0.45939   0.46105   0.46228   0.46578   0.46727
 Alpha virt. eigenvalues --    0.47389   0.47514   0.47719   0.48053   0.48096
 Alpha virt. eigenvalues --    0.48425   0.49086   0.49112   0.49514   0.49702
 Alpha virt. eigenvalues --    0.49894   0.50523   0.50939   0.51298   0.51451
 Alpha virt. eigenvalues --    0.52565   0.52788   0.53215   0.54027   0.54368
 Alpha virt. eigenvalues --    0.54740   0.55048   0.55605   0.55841   0.56194
 Alpha virt. eigenvalues --    0.57039   0.57335   0.57706   0.58021   0.58957
 Alpha virt. eigenvalues --    0.59194   0.59611   0.59873   0.60338   0.60760
 Alpha virt. eigenvalues --    0.61092   0.61657   0.61809   0.62284   0.62646
 Alpha virt. eigenvalues --    0.63171   0.63319   0.63710   0.64073   0.64295
 Alpha virt. eigenvalues --    0.65214   0.65357   0.65485   0.65924   0.66209
 Alpha virt. eigenvalues --    0.66639   0.66892   0.67391   0.67949   0.68126
 Alpha virt. eigenvalues --    0.68605   0.69072   0.69286   0.69723   0.69990
 Alpha virt. eigenvalues --    0.70366   0.71172   0.71406   0.71980   0.72110
 Alpha virt. eigenvalues --    0.72308   0.72948   0.72996   0.73669   0.73947
 Alpha virt. eigenvalues --    0.74030   0.74425   0.74800   0.75040   0.75306
 Alpha virt. eigenvalues --    0.75675   0.75718   0.76257   0.76388   0.76874
 Alpha virt. eigenvalues --    0.77412   0.77511   0.77577   0.78417   0.78528
 Alpha virt. eigenvalues --    0.78817   0.79193   0.79413   0.79661   0.80001
 Alpha virt. eigenvalues --    0.80525   0.81012   0.81085   0.81225   0.81486
 Alpha virt. eigenvalues --    0.81782   0.81922   0.82264   0.82869   0.83124
 Alpha virt. eigenvalues --    0.83309   0.83665   0.83805   0.84306   0.84541
 Alpha virt. eigenvalues --    0.84894   0.84970   0.85185   0.85341   0.85665
 Alpha virt. eigenvalues --    0.86298   0.86496   0.86773   0.86934   0.87201
 Alpha virt. eigenvalues --    0.87253   0.87908   0.88071   0.88320   0.88357
 Alpha virt. eigenvalues --    0.88598   0.88788   0.88871   0.89241   0.89653
 Alpha virt. eigenvalues --    0.89915   0.90155   0.90422   0.90778   0.91226
 Alpha virt. eigenvalues --    0.91408   0.91644   0.92199   0.92555   0.93049
 Alpha virt. eigenvalues --    0.93297   0.93401   0.93871   0.94016   0.94434
 Alpha virt. eigenvalues --    0.95307   0.95868   0.96241   0.96531   0.97040
 Alpha virt. eigenvalues --    0.97829   0.98015   0.98506   0.99033   0.99259
 Alpha virt. eigenvalues --    1.00137   1.00780   1.01252   1.02443   1.02807
 Alpha virt. eigenvalues --    1.03910   1.04266   1.04962   1.05859   1.06069
 Alpha virt. eigenvalues --    1.06539   1.08667   1.09420   1.10334   1.10762
 Alpha virt. eigenvalues --    1.11698   1.11847   1.13968   1.14253   1.15297
 Alpha virt. eigenvalues --    1.15556   1.16483   1.17453   1.18036   1.18236
 Alpha virt. eigenvalues --    1.19503   1.19967   1.20883   1.21229   1.21810
 Alpha virt. eigenvalues --    1.22466   1.23539   1.23889   1.24428   1.26013
 Alpha virt. eigenvalues --    1.26266   1.26641   1.27565   1.28662   1.28954
 Alpha virt. eigenvalues --    1.29168   1.29791   1.30957   1.32248   1.32651
 Alpha virt. eigenvalues --    1.33567   1.34319   1.35110   1.37016   1.37502
 Alpha virt. eigenvalues --    1.38559   1.38779   1.38943   1.39894   1.40818
 Alpha virt. eigenvalues --    1.41698   1.42499   1.43296   1.43495   1.43943
 Alpha virt. eigenvalues --    1.44596   1.45107   1.45310   1.46725   1.47670
 Alpha virt. eigenvalues --    1.48462   1.48872   1.49601   1.50644   1.51092
 Alpha virt. eigenvalues --    1.51780   1.52634   1.53029   1.53914   1.54129
 Alpha virt. eigenvalues --    1.54390   1.55025   1.56356   1.56839   1.57412
 Alpha virt. eigenvalues --    1.57724   1.58010   1.58302   1.59085   1.59739
 Alpha virt. eigenvalues --    1.60148   1.60445   1.60858   1.61383   1.62085
 Alpha virt. eigenvalues --    1.62528   1.63223   1.63515   1.64138   1.64511
 Alpha virt. eigenvalues --    1.65168   1.65330   1.65787   1.66245   1.66479
 Alpha virt. eigenvalues --    1.67007   1.67631   1.68266   1.68690   1.69149
 Alpha virt. eigenvalues --    1.69253   1.69671   1.69943   1.70172   1.70830
 Alpha virt. eigenvalues --    1.71017   1.71464   1.71654   1.72106   1.72438
 Alpha virt. eigenvalues --    1.72526   1.72925   1.73441   1.74033   1.74752
 Alpha virt. eigenvalues --    1.75007   1.75157   1.75251   1.76113   1.76142
 Alpha virt. eigenvalues --    1.76377   1.76851   1.77257   1.77782   1.78277
 Alpha virt. eigenvalues --    1.78615   1.78844   1.79344   1.79544   1.80257
 Alpha virt. eigenvalues --    1.80550   1.80847   1.81503   1.81638   1.81985
 Alpha virt. eigenvalues --    1.82591   1.82988   1.83679   1.84343   1.84787
 Alpha virt. eigenvalues --    1.84971   1.85171   1.85884   1.85958   1.86423
 Alpha virt. eigenvalues --    1.87021   1.87582   1.87758   1.88583   1.88803
 Alpha virt. eigenvalues --    1.89413   1.89839   1.90147   1.90366   1.91245
 Alpha virt. eigenvalues --    1.91552   1.91938   1.92386   1.92655   1.93107
 Alpha virt. eigenvalues --    1.93572   1.94664   1.94992   1.95765   1.96244
 Alpha virt. eigenvalues --    1.96439   1.96631   1.96888   1.97600   1.97964
 Alpha virt. eigenvalues --    1.98561   1.99145   1.99418   2.00040   2.00799
 Alpha virt. eigenvalues --    2.01171   2.01452   2.01654   2.02399   2.02600
 Alpha virt. eigenvalues --    2.03377   2.03813   2.04237   2.05025   2.05747
 Alpha virt. eigenvalues --    2.05907   2.06383   2.06735   2.07359   2.08073
 Alpha virt. eigenvalues --    2.08995   2.09389   2.09898   2.09915   2.10798
 Alpha virt. eigenvalues --    2.11348   2.12086   2.12703   2.13386   2.13761
 Alpha virt. eigenvalues --    2.14416   2.15156   2.15425   2.16215   2.17217
 Alpha virt. eigenvalues --    2.17330   2.18489   2.18568   2.19754   2.20604
 Alpha virt. eigenvalues --    2.20934   2.21583   2.21972   2.23399   2.23999
 Alpha virt. eigenvalues --    2.24468   2.25022   2.26205   2.26271   2.27360
 Alpha virt. eigenvalues --    2.27525   2.28049   2.28722   2.29294   2.29631
 Alpha virt. eigenvalues --    2.30611   2.31409   2.31661   2.32762   2.33329
 Alpha virt. eigenvalues --    2.34206   2.34245   2.34997   2.35575   2.37020
 Alpha virt. eigenvalues --    2.37846   2.38462   2.40308   2.41057   2.41775
 Alpha virt. eigenvalues --    2.42359   2.42748   2.43056   2.43599   2.43907
 Alpha virt. eigenvalues --    2.44553   2.44700   2.46410   2.48529   2.49210
 Alpha virt. eigenvalues --    2.50106   2.50751   2.51269   2.51916   2.52544
 Alpha virt. eigenvalues --    2.55490   2.56029   2.56765   2.58018   2.59013
 Alpha virt. eigenvalues --    2.59173   2.59987   2.60434   2.60716   2.61399
 Alpha virt. eigenvalues --    2.61779   2.62365   2.62763   2.63771   2.64065
 Alpha virt. eigenvalues --    2.64286   2.64842   2.65228   2.66438   2.66477
 Alpha virt. eigenvalues --    2.66978   2.67419   2.67627   2.68065   2.68439
 Alpha virt. eigenvalues --    2.68898   2.69190   2.69546   2.69846   2.70432
 Alpha virt. eigenvalues --    2.70638   2.71433   2.71721   2.72085   2.73017
 Alpha virt. eigenvalues --    2.73427   2.73989   2.74038   2.74837   2.75356
 Alpha virt. eigenvalues --    2.76105   2.76831   2.77491   2.77704   2.77840
 Alpha virt. eigenvalues --    2.78638   2.78959   2.80016   2.80122   2.81258
 Alpha virt. eigenvalues --    2.81652   2.82715   2.83344   2.83924   2.84381
 Alpha virt. eigenvalues --    2.85289   2.86095   2.86747   2.87176   2.87718
 Alpha virt. eigenvalues --    2.88458   2.89069   2.89398   2.89953   2.91020
 Alpha virt. eigenvalues --    2.91360   2.91953   2.92369   2.92774   2.93791
 Alpha virt. eigenvalues --    2.94517   2.95214   2.95712   2.96192   2.96489
 Alpha virt. eigenvalues --    2.97048   2.98040   2.98399   2.98864   2.99331
 Alpha virt. eigenvalues --    3.00214   3.00995   3.01478   3.02891   3.03086
 Alpha virt. eigenvalues --    3.03742   3.04530   3.05226   3.05855   3.06179
 Alpha virt. eigenvalues --    3.06973   3.07550   3.07640   3.09054   3.09837
 Alpha virt. eigenvalues --    3.10874   3.12232   3.12564   3.13807   3.14469
 Alpha virt. eigenvalues --    3.14891   3.15492   3.16225   3.16757   3.17082
 Alpha virt. eigenvalues --    3.18120   3.19525   3.20075   3.21198   3.24093
 Alpha virt. eigenvalues --    3.24401   3.25347   3.26440   3.26994   3.27275
 Alpha virt. eigenvalues --    3.28231   3.28602   3.29838   3.30154   3.30494
 Alpha virt. eigenvalues --    3.31437   3.32953   3.33959   3.35159   3.35697
 Alpha virt. eigenvalues --    3.37023   3.38498   3.39517   3.39811   3.40302
 Alpha virt. eigenvalues --    3.41143   3.42298   3.43399   3.43850   3.45060
 Alpha virt. eigenvalues --    3.45767   3.46480   3.49368   3.49582   3.50501
 Alpha virt. eigenvalues --    3.52327   3.52680   3.57888   3.63373   3.67756
 Alpha virt. eigenvalues --    3.73163   3.74966   3.75000   3.81888   3.83164
 Alpha virt. eigenvalues --    3.86795   3.87785   3.88730   3.89509   3.90721
 Alpha virt. eigenvalues --    3.91384   3.93286   3.93640   3.94377   3.94817
 Alpha virt. eigenvalues --    3.95314   3.96113   3.97315   3.98092   3.98484
 Alpha virt. eigenvalues --    3.99489   4.01047   4.02248   4.03149   4.04475
 Alpha virt. eigenvalues --    4.05234   4.07746   4.14214   4.14561   4.15444
 Alpha virt. eigenvalues --    4.16363   4.18146   4.19218   4.20036   4.21174
 Alpha virt. eigenvalues --    4.22111   4.22406   4.26012   4.26578   4.27168
 Alpha virt. eigenvalues --    4.28798   4.33612   4.37510   4.40473   4.42010
 Alpha virt. eigenvalues --    4.42448   4.43197   4.47522   4.49373   4.50167
 Alpha virt. eigenvalues --    4.50377   4.52449   4.53659   4.69083   5.33627
 Alpha virt. eigenvalues --    5.36188   5.41652   5.46405   5.53011   5.58849
 Alpha virt. eigenvalues --    5.65248   5.69376   5.70241   5.73394   5.77937
 Alpha virt. eigenvalues --    5.78814   5.79892   5.82334   5.91949  14.93213
 Alpha virt. eigenvalues --   23.93715  23.97748  24.00340  24.02400  24.02702
 Alpha virt. eigenvalues --   24.03327  24.03533  24.04080  24.05731  24.09539
 Alpha virt. eigenvalues --   24.10323  24.10718  24.11931  24.12977  24.13920
 Alpha virt. eigenvalues --   24.14451  24.16765  24.17482  24.18346  24.19238
 Alpha virt. eigenvalues --   24.19607  24.23356  24.42562  50.12019  50.13202
 Alpha virt. eigenvalues --   50.14635  50.24779  50.25431
          Condensed to atoms (all electrons):
 Mulliken charges:
               1
     1  Li  -1.068914
     2  C   -0.048587
     3  O    0.253068
     4  C   -0.676101
     5  H    0.168935
     6  C   -0.119107
     7  C   -0.482183
     8  H    0.215565
     9  H    0.205240
    10  H    0.077581
    11  H    0.267445
    12  H    0.231907
    13  H    0.197282
    14  C   -0.096307
    15  O   -0.000423
    16  C   -0.331789
    17  H    0.296341
    18  C   -0.063195
    19  C   -0.544754
    20  H    0.268572
    21  H    0.209573
    22  H    0.260372
    23  H    0.315065
    24  H    0.236277
    25  H    0.212526
    26  C   -0.126859
    27  O    0.009609
    28  C   -0.403650
    29  H    0.282655
    30  C   -0.005570
    31  C   -0.690124
    32  H    0.226702
    33  H    0.234525
    34  H    0.181994
    35  H    0.257237
    36  H    0.194443
    37  H    0.213933
    38  O    0.017745
    39  H    0.129087
    40  H    0.185321
    41  H    0.239154
    42  C    0.017716
    43  C    0.047368
    44  H    0.174308
    45  C   -0.855691
    46  H    0.178056
    47  H    0.184436
    48  H    0.154802
    49  C   -0.704295
    50  H   -0.120835
    51  H    0.182975
    52  H    0.233786
    53  B    1.309903
    54  C   -0.895933
    55  H    0.056883
    56  H    0.134845
    57  H    0.100874
    58  O   -0.127992
    59  C   -0.432560
    60  C   -0.189608
    61  C   -0.802359
    62  H    0.187766
    63  H    0.170696
    64  H    0.174973
    65  C   -0.235193
    66  H    0.033456
    67  H    0.197970
    68  H    0.196540
    69  C   -0.424589
    70  H    0.187851
    71  H    0.046314
    72  H    0.203927
    73  C   -0.842268
    74  H    0.259884
    75  H    0.186889
    76  H    0.078516
 Sum of Mulliken charges =  -0.00000
 Mulliken charges with hydrogens summed into heavy atoms:
               1
     1  Li  -1.068914
     2  C    0.305669
     3  O    0.253068
     4  C   -0.255295
     6  C    0.225919
     7  C   -0.052995
    14  C    0.329121
    15  O   -0.000423
    16  C    0.146356
    18  C    0.512242
    19  C   -0.095951
    26  C    0.394949
    27  O    0.009609
    28  C    0.057577
    30  C    0.433661
    31  C   -0.281748
    38  O    0.017745
    42  C    0.017716
    43  C    0.221675
    45  C   -0.338398
    49  C   -0.408369
    53  B    1.309903
    54  C   -0.603331
    58  O   -0.127992
    59  C   -0.432560
    60  C   -0.189608
    61  C   -0.268924
    65  C    0.192773
    69  C    0.013503
    73  C   -0.316980
 Electronic spatial extent (au):  <R**2>=          11773.5879
 Charge=             -0.0000 electrons
 Dipole moment (field-independent basis, Debye):
    X=             15.4416    Y=             -1.4836    Z=             -7.0504  Tot=             17.0397
 Quadrupole moment (field-independent basis, Debye-Ang):
   XX=           -194.5033   YY=           -177.8102   ZZ=           -177.6302
   XY=              6.1467   XZ=             12.9737   YZ=             -1.8695
 Traceless Quadrupole moment (field-independent basis, Debye-Ang):
   XX=            -11.1887   YY=              5.5043   ZZ=              5.6843
   XY=              6.1467   XZ=             12.9737   YZ=             -1.8695
 Octapole moment (field-independent basis, Debye-Ang**2):
  XXX=            212.0651  YYY=             11.4050  ZZZ=            -36.5241  XYY=             64.4002
  XXY=              4.5306  XXZ=            -52.6207  XZZ=             70.3786  YZZ=             -9.2001
  YYZ=            -36.6313  XYZ=              4.0494
 Hexadecapole moment (field-independent basis, Debye-Ang**3):
 XXXX=          -7678.2487 YYYY=          -3233.5560 ZZZZ=          -5336.7654 XXXY=             79.5995
 XXXZ=            268.6155 YYYX=             21.3723 YYYZ=            414.3336 ZZZX=            245.4713
 ZZZY=            423.3892 XXYY=          -1728.2092 XXZZ=          -2139.4788 YYZZ=          -1433.4344
 XXYZ=            120.2485 YYXZ=             45.5570 ZZXY=            -38.4859
 N-N= 3.449633474171D+03 E-N=-9.959957907742D+03  KE= 1.306740469652D+03
 Unable to Open any file for archive entry.
 1\1\GINC-NODE07\SP\RwB97XD\6-311++G(d,p)\C23H46B1Li1O5\WHUGHES2\08-Oct
 -2025\0\\# wb97xd/6-311++g** nosymm int=ultrafine scrf=(smd,solvent=te
 trahydrofuran)\\r1-li-3thf-c7_tzpop-sp\\0,1\Li,0,0.5025,-0.0058,-0.129
 6\C,0,1.5504,0.4369,2.6828\O,0,1.3999,-0.443,1.5696\C,0,2.8626,0.0095,
 3.3602\H,0,0.6918,0.303,3.3532\C,0,1.8186,-1.7212,2.0406\C,0,3.0918,-1
 .4297,2.8375\H,0,2.7677,0.0455,4.449\H,0,3.6878,0.6684,3.0742\H,0,1.03
 24,-2.1385,2.6847\H,0,1.9542,-2.3696,1.1745\H,0,3.2393,-2.1547,3.6427\
 H,0,3.9667,-1.4698,2.1807\C,0,2.5611,-1.5536,-1.5227\O,0,1.1978,-1.666
 3,-1.1148\C,0,2.4818,-1.2716,-3.0226\H,0,3.0755,-2.5047,-1.3196\C,0,0.
 5888,-2.4842,-2.1148\C,0,1.1869,-2.0079,-3.4484\H,0,3.3691,-1.6274,-3.
 5534\H,0,2.3899,-0.1945,-3.1931\H,0,0.8478,-3.5331,-1.9131\H,0,-0.4925
 ,-2.3719,-2.0332\H,0,1.3896,-2.8542,-4.1105\H,0,0.501,-1.3314,-3.9661\
 C,0,3.0922,1.7383,-0.0636\O,0,1.8446,1.4717,-0.706\C,0,4.0752,1.9678,-
 1.2094\H,0,3.3308,0.8839,0.5716\C,0,1.7561,2.4012,-1.7887\C,0,3.191,2.
 5847,-2.3154\H,0,4.4982,1.0137,-1.5397\H,0,4.9006,2.62,-0.9115\H,0,1.0
 662,1.9899,-2.5269\H,0,1.3476,3.3481,-1.4115\H,0,3.3341,2.0709,-3.2698
 \H,0,3.4104,3.6447,-2.4707\O,0,-1.3201,0.4857,-0.1381\H,0,3.0237,-0.76
 42,-0.9325\H,0,1.5486,1.4604,2.3028\H,0,2.9924,2.6357,0.5642\C,0,-1.87
 19,-0.9827,1.9225\C,0,-1.9466,-1.0903,3.2621\H,0,-2.137,-0.1904,3.8491
 \C,0,-1.8028,-2.363,4.0684\H,0,-2.0998,-2.2044,5.1114\H,0,-2.4225,-3.1
 78,3.6711\H,0,-0.7667,-2.7341,4.0827\C,0,-1.5941,-2.2388,1.1204\H,0,-1
 .1303,-1.9984,0.159\H,0,-0.9329,-2.9433,1.6419\H,0,-2.5245,-2.7829,0.8
 996\B,0,-2.1635,0.4367,1.1379\C,0,-1.9031,1.7446,2.0934\H,0,-2.0139,2.
 683,1.5331\H,0,-2.6303,1.7931,2.9191\H,0,-0.9036,1.7641,2.5516\O,0,-3.
 555,0.5024,0.5796\C,0,-3.5548,0.4583,-0.8266\C,0,-2.1173,0.9559,-1.216
 5\C,0,-4.6784,1.3498,-1.3611\H,0,-5.6493,0.9209,-1.0853\H,0,-4.6273,2.
 3571,-0.9381\H,0,-4.6434,1.4267,-2.4555\C,0,-3.8246,-0.9792,-1.3023\H,
 0,-3.0066,-1.6517,-1.0339\H,0,-4.7338,-1.3432,-0.8099\H,0,-3.9785,-1.0
 347,-2.3874\C,0,-2.0249,2.4866,-1.3021\H,0,-2.5019,2.9734,-0.449\H,0,-
 0.9696,2.779,-1.31\H,0,-2.4927,2.867,-2.2181\C,0,-1.589,0.3721,-2.524\
 H,0,-2.2095,0.6845,-3.3725\H,0,-0.5683,0.7249,-2.7108\H,0,-1.5688,-0.7
 18,-2.5003\\Version=AS64L-G16RevC.01\HF=-1312.7981409\RMSD=3.906e-09\D
 ipole=6.0751809,-0.5837075,-2.7738445\Quadrupole=-8.3185149,4.0923443,
 4.2261705,4.569895,9.6456558,-1.3899355\PG=C01 [X(C23H46B1Li1O5)]\\@
 The archive entry for this job was punched.


 BE LIKE A POSTAGE STAMP.  STICK TO ONE THING UNTIL
 YOU GET THERE -- JOSH BILLINGS
 Job cpu time:       0 days  4 hours 37 minutes 47.1 seconds.
 Elapsed time:       0 days  1 hours 10 minutes  5.7 seconds.
 File lengths (MBytes):  RWF=    829 Int=      0 D2E=      0 Chk=     59 Scr=      1
 Normal termination of Gaussian 16 at Wed Oct  8 17:06:12 2025.
