 Entering Gaussian System, Link 0=g16
 Initial command:
 /opt/packages/gaussian/g16RevC.01/g16/l1.exe "/ocean/projects/che180035p/whughes/Scratch/r1-li-3thf-c1-sp-tzpop_34652389-WXtx/Gau-86619.inp" -scrdir="/ocean/projects/che180035p/whughes/Scratch/r1-li-3thf-c1-sp-tzpop_34652389-WXtx/"
 Entering Link 1 = /opt/packages/gaussian/g16RevC.01/g16/l1.exe PID=     86943.
  
 Copyright (c) 1988-2019, Gaussian, Inc.  All Rights Reserved.
  
 This is part of the Gaussian(R) 16 program.  It is based on
 the Gaussian(R) 09 system (copyright 2009, Gaussian, Inc.),
 the Gaussian(R) 03 system (copyright 2003, Gaussian, Inc.),
 the Gaussian(R) 98 system (copyright 1998, Gaussian, Inc.),
 the Gaussian(R) 94 system (copyright 1995, Gaussian, Inc.),
 the Gaussian 92(TM) system (copyright 1992, Gaussian, Inc.),
 the Gaussian 90(TM) system (copyright 1990, Gaussian, Inc.),
 the Gaussian 88(TM) system (copyright 1988, Gaussian, Inc.),
 the Gaussian 86(TM) system (copyright 1986, Carnegie Mellon
 University), and the Gaussian 82(TM) system (copyright 1983,
 Carnegie Mellon University). Gaussian is a federally registered
 trademark of Gaussian, Inc.
  
 This software contains proprietary and confidential information,
 including trade secrets, belonging to Gaussian, Inc.
  
 This software is provided under written license and may be
 used, copied, transmitted, or stored only in accord with that
 written license.
  
 The following legend is applicable only to US Government
 contracts under FAR:
  
                    RESTRICTED RIGHTS LEGEND
  
 Use, reproduction and disclosure by the US Government is
 subject to restrictions as set forth in subparagraphs (a)
 and (c) of the Commercial Computer Software - Restricted
 Rights clause in FAR 52.227-19.
  
 Gaussian, Inc.
 340 Quinnipiac St., Bldg. 40, Wallingford CT 06492
  
  
 ---------------------------------------------------------------
 Warning -- This program may not be used in any manner that
 competes with the business of Gaussian, Inc. or will provide
 assistance to any competitor of Gaussian, Inc.  The licensee
 of this program is prohibited from giving any competitor of
 Gaussian, Inc. access to this program.  By using this program,
 the user acknowledges that Gaussian, Inc. is engaged in the
 business of creating and licensing software in the field of
 computational chemistry and represents and warrants to the
 licensee that it is not a competitor of Gaussian, Inc. and that
 it will not use this program in any manner prohibited above.
 ---------------------------------------------------------------
  

 Cite this work as:
 Gaussian 16, Revision C.01,
 M. J. Frisch, G. W. Trucks, H. B. Schlegel, G. E. Scuseria, 
 M. A. Robb, J. R. Cheeseman, G. Scalmani, V. Barone, 
 G. A. Petersson, H. Nakatsuji, X. Li, M. Caricato, A. V. Marenich, 
 J. Bloino, B. G. Janesko, R. Gomperts, B. Mennucci, H. P. Hratchian, 
 J. V. Ortiz, A. F. Izmaylov, J. L. Sonnenberg, D. Williams-Young, 
 F. Ding, F. Lipparini, F. Egidi, J. Goings, B. Peng, A. Petrone, 
 T. Henderson, D. Ranasinghe, V. G. Zakrzewski, J. Gao, N. Rega, 
 G. Zheng, W. Liang, M. Hada, M. Ehara, K. Toyota, R. Fukuda, 
 J. Hasegawa, M. Ishida, T. Nakajima, Y. Honda, O. Kitao, H. Nakai, 
 T. Vreven, K. Throssell, J. A. Montgomery, Jr., J. E. Peralta, 
 F. Ogliaro, M. J. Bearpark, J. J. Heyd, E. N. Brothers, K. N. Kudin, 
 V. N. Staroverov, T. A. Keith, R. Kobayashi, J. Normand, 
 K. Raghavachari, A. P. Rendell, J. C. Burant, S. S. Iyengar, 
 J. Tomasi, M. Cossi, J. M. Millam, M. Klene, C. Adamo, R. Cammi, 
 J. W. Ochterski, R. L. Martin, K. Morokuma, O. Farkas, 
 J. B. Foresman, and D. J. Fox, Gaussian, Inc., Wallingford CT, 2019.
 
 ******************************************
 Gaussian 16:  ES64L-G16RevC.01  3-Jul-2019
                 8-Sep-2025 
 ******************************************
 %nproc=16
 Will use up to   16 processors via shared memory.
 %mem=32gb
 %chk=r1-li-3thf-c1-sp-tzpop.chk
 ----------------------------------------------------------------------
 #p wb97xd/6-311++g** nosymm int=ultrafine scrf=(smd,solvent=tetrahydro
 furan)
 ----------------------------------------------------------------------
 1/38=1,172=1/1;
 2/12=2,15=1,17=6,18=5,40=1/2;
 3/5=4,6=6,7=1111,11=2,25=1,30=1,70=32201,72=20,74=-58,75=-5/1,2,3;
 4//1;
 5/5=2,38=5,53=20/2;
 6/7=2,8=2,9=2,10=2,28=1/1;
 99/5=1,9=1/99;
 Leave Link    1 at Mon Sep  8 14:52:34 2025, MaxMem=  4294967296 cpu:               1.8 elap:               0.1
 (Enter /opt/packages/gaussian/g16RevC.01/g16/l101.exe)
 -----
 Title
 -----
 Symbolic Z-matrix:
 Charge =  0 Multiplicity = 1
 3                    -1.72481  -0.25233   2.76625 
 6                    -3.00719  -1.13647   5.39126 
 8                    -1.8946   -1.23686   4.49517 
 6                    -3.35664  -2.57656   5.82004 
 1                    -3.81498  -0.63653   4.85314 
 6                    -1.2116   -2.45364   4.78864 
 6                    -2.32793  -3.44651   5.0736 
 1                    -4.38348  -2.84048   5.5534 
 1                    -3.25116  -2.68713   6.90367 
 1                    -0.59246  -2.69955   3.92494 
 1                    -0.56671  -2.30855   5.6692 
 1                    -2.73833  -3.80933   4.12581 
 1                    -1.98771  -4.30264   5.66304 
 6                    -1.02107   2.70995   3.28136 
 8                    -1.91609   1.61731   3.46956 
 6                    -1.92117   3.8581    2.84067 
 1                    -0.27683   2.4058    2.54296 
 6                    -3.09401   2.1347    4.09372 
 6                    -3.21449   3.6052    3.64233 
 1                    -2.11161   3.78616   1.76478 
 1                    -1.47729   4.8359    3.0471 
 1                    -3.93207   1.50842   3.77796 
 1                    -2.9841    2.05618   5.18308 
 1                    -4.10568   3.76646   3.02972 
 1                    -3.2803    4.26705   4.5107 
 6                     1.0464   -0.02047   3.72289 
 8                     0.25836  -0.23066   2.54737 
 6                     2.05121  -1.18781   3.77765 
 1                     0.35791   0.02204   4.56886 
 6                     1.11972  -0.84033   1.58795 
 6                     1.91462  -1.86221   2.39463 
 1                     1.81293  -1.88478   4.5855 
 1                     3.06492  -0.81371   3.94686 
 1                     0.49949  -1.27185   0.80084 
 1                     1.77347  -0.07189   1.14952 
 1                     1.34453  -2.79328   2.47243 
 1                     2.8796   -2.09006   1.9337 
 8                    -2.79856  -0.63691   1.27084 
 1                    -0.5138    2.93681   4.23144 
 1                    -2.71646  -0.51782   6.24988 
 1                     1.56352   0.94448   3.63395 
 6                    -2.98849  -3.23347   1.23544 
 6                    -1.67556  -3.33849   1.49771 
 1                    -1.12632  -2.40244   1.61639 
 6                    -0.82787  -4.57321   1.66779 
 1                     0.06074  -4.53526   1.02188 
 1                    -0.45758  -4.66661   2.70014 
 1                    -1.36368  -5.4992    1.43551 
 6                    -3.87497  -4.44743   1.06008 
 1                    -4.50501  -4.59635   1.94945 
 1                    -4.56362  -4.29276   0.21925 
 1                    -3.33681  -5.38639   0.88276 
 5                    -3.77484  -1.79864   1.13626 
 6                    -4.9646   -1.73294   2.26236 
 1                    -4.63253  -2.06982   3.25609 
 1                    -5.36446  -0.71357   2.37746 
 1                    -5.81272  -2.37713   1.9813 
 8                    -4.35931  -1.5668   -0.2211 
 6                    -3.53454  -0.67973  -0.94012 
 6                    -2.97979   0.25994   0.18093 
 6                    -4.37197   0.04118  -1.99562 
 1                    -4.68718  -0.67194  -2.76689 
 1                    -5.27327   0.48059  -1.55827 
 1                    -3.79692   0.83646  -2.48711 
 6                    -2.40963  -1.45188  -1.65021 
 1                    -1.83348  -0.80792  -2.32669 
 1                    -1.72537  -1.90761  -0.92932 
 1                    -2.85796  -2.25703  -2.24403 
 6                    -3.99385   1.34033   0.57798 
 1                    -3.65233   1.81905   1.49946 
 1                    -4.08655   2.1154   -0.19242 
 1                    -4.98248   0.90863   0.75831 
 6                    -1.64917   0.9301   -0.14789 
 1                    -0.86178   0.1952   -0.33174 
 1                    -1.74195   1.56817  -1.03544 
 1                    -1.3317    1.56265   0.689 
 
 ITRead=  0  0  0  0  0  0  0  0  0  0  0  0  0  0  0  0  0  0  0  0
 ITRead=  0  0  0  0  0  0  0  0  0  0  0  0  0  0  0  0  0  0  0  0
 ITRead=  0  0  0  0  0  0  0  0  0  0  0  0  0  0  0  0  0  0  0  0
 ITRead=  0  0  0  0  0  0  0  0  0  0  0  0  0  0  0  0
 MicOpt= -1 -1 -1 -1 -1 -1 -1 -1 -1 -1 -1 -1 -1 -1 -1 -1 -1 -1 -1 -1
 MicOpt= -1 -1 -1 -1 -1 -1 -1 -1 -1 -1 -1 -1 -1 -1 -1 -1 -1 -1 -1 -1
 MicOpt= -1 -1 -1 -1 -1 -1 -1 -1 -1 -1 -1 -1 -1 -1 -1 -1 -1 -1 -1 -1
 MicOpt= -1 -1 -1 -1 -1 -1 -1 -1 -1 -1 -1 -1 -1 -1 -1 -1
 NAtoms=     76 NQM=       76 NQMF=       0 NMMI=      0 NMMIF=      0
                NMic=       0 NMicF=      0.
                    Isotopes and Nuclear Properties:
 (Nuclear quadrupole moments (NQMom) in fm**2, nuclear magnetic moments (NMagM)
  in nuclear magnetons)

  Atom         1           2           3           4           5           6           7           8           9          10
 IAtWgt=           7          12          16          12           1          12          12           1           1           1
 AtmWgt=   7.0160045  12.0000000  15.9949146  12.0000000   1.0078250  12.0000000  12.0000000   1.0078250   1.0078250   1.0078250
 NucSpn=           3           0           0           0           1           0           0           1           1           1
 AtZEff=  -0.0000000  -0.0000000  -0.0000000  -0.0000000  -0.0000000  -0.0000000  -0.0000000  -0.0000000  -0.0000000  -0.0000000
 NQMom=   -4.0100000   0.0000000   0.0000000   0.0000000   0.0000000   0.0000000   0.0000000   0.0000000   0.0000000   0.0000000
 NMagM=    3.2564240   0.0000000   0.0000000   0.0000000   2.7928460   0.0000000   0.0000000   2.7928460   2.7928460   2.7928460
 AtZNuc=   3.0000000   6.0000000   8.0000000   6.0000000   1.0000000   6.0000000   6.0000000   1.0000000   1.0000000   1.0000000

  Atom        11          12          13          14          15          16          17          18          19          20
 IAtWgt=           1           1           1          12          16          12           1          12          12           1
 AtmWgt=   1.0078250   1.0078250   1.0078250  12.0000000  15.9949146  12.0000000   1.0078250  12.0000000  12.0000000   1.0078250
 NucSpn=           1           1           1           0           0           0           1           0           0           1
 AtZEff=  -0.0000000  -0.0000000  -0.0000000  -0.0000000  -0.0000000  -0.0000000  -0.0000000  -0.0000000  -0.0000000  -0.0000000
 NQMom=    0.0000000   0.0000000   0.0000000   0.0000000   0.0000000   0.0000000   0.0000000   0.0000000   0.0000000   0.0000000
 NMagM=    2.7928460   2.7928460   2.7928460   0.0000000   0.0000000   0.0000000   2.7928460   0.0000000   0.0000000   2.7928460
 AtZNuc=   1.0000000   1.0000000   1.0000000   6.0000000   8.0000000   6.0000000   1.0000000   6.0000000   6.0000000   1.0000000

  Atom        21          22          23          24          25          26          27          28          29          30
 IAtWgt=           1           1           1           1           1          12          16          12           1          12
 AtmWgt=   1.0078250   1.0078250   1.0078250   1.0078250   1.0078250  12.0000000  15.9949146  12.0000000   1.0078250  12.0000000
 NucSpn=           1           1           1           1           1           0           0           0           1           0
 AtZEff=  -0.0000000  -0.0000000  -0.0000000  -0.0000000  -0.0000000  -0.0000000  -0.0000000  -0.0000000  -0.0000000  -0.0000000
 NQMom=    0.0000000   0.0000000   0.0000000   0.0000000   0.0000000   0.0000000   0.0000000   0.0000000   0.0000000   0.0000000
 NMagM=    2.7928460   2.7928460   2.7928460   2.7928460   2.7928460   0.0000000   0.0000000   0.0000000   2.7928460   0.0000000
 AtZNuc=   1.0000000   1.0000000   1.0000000   1.0000000   1.0000000   6.0000000   8.0000000   6.0000000   1.0000000   6.0000000

  Atom        31          32          33          34          35          36          37          38          39          40
 IAtWgt=          12           1           1           1           1           1           1          16           1           1
 AtmWgt=  12.0000000   1.0078250   1.0078250   1.0078250   1.0078250   1.0078250   1.0078250  15.9949146   1.0078250   1.0078250
 NucSpn=           0           1           1           1           1           1           1           0           1           1
 AtZEff=  -0.0000000  -0.0000000  -0.0000000  -0.0000000  -0.0000000  -0.0000000  -0.0000000  -0.0000000  -0.0000000  -0.0000000
 NQMom=    0.0000000   0.0000000   0.0000000   0.0000000   0.0000000   0.0000000   0.0000000   0.0000000   0.0000000   0.0000000
 NMagM=    0.0000000   2.7928460   2.7928460   2.7928460   2.7928460   2.7928460   2.7928460   0.0000000   2.7928460   2.7928460
 AtZNuc=   6.0000000   1.0000000   1.0000000   1.0000000   1.0000000   1.0000000   1.0000000   8.0000000   1.0000000   1.0000000

  Atom        41          42          43          44          45          46          47          48          49          50
 IAtWgt=           1          12          12           1          12           1           1           1          12           1
 AtmWgt=   1.0078250  12.0000000  12.0000000   1.0078250  12.0000000   1.0078250   1.0078250   1.0078250  12.0000000   1.0078250
 NucSpn=           1           0           0           1           0           1           1           1           0           1
 AtZEff=  -0.0000000  -0.0000000  -0.0000000  -0.0000000  -0.0000000  -0.0000000  -0.0000000  -0.0000000  -0.0000000  -0.0000000
 NQMom=    0.0000000   0.0000000   0.0000000   0.0000000   0.0000000   0.0000000   0.0000000   0.0000000   0.0000000   0.0000000
 NMagM=    2.7928460   0.0000000   0.0000000   2.7928460   0.0000000   2.7928460   2.7928460   2.7928460   0.0000000   2.7928460
 AtZNuc=   1.0000000   6.0000000   6.0000000   1.0000000   6.0000000   1.0000000   1.0000000   1.0000000   6.0000000   1.0000000

  Atom        51          52          53          54          55          56          57          58          59          60
 IAtWgt=           1           1          11          12           1           1           1          16          12          12
 AtmWgt=   1.0078250   1.0078250  11.0093053  12.0000000   1.0078250   1.0078250   1.0078250  15.9949146  12.0000000  12.0000000
 NucSpn=           1           1           3           0           1           1           1           0           0           0
 AtZEff=  -0.0000000  -0.0000000  -0.0000000  -0.0000000  -0.0000000  -0.0000000  -0.0000000  -0.0000000  -0.0000000  -0.0000000
 NQMom=    0.0000000   0.0000000   4.0590000   0.0000000   0.0000000   0.0000000   0.0000000   0.0000000   0.0000000   0.0000000
 NMagM=    2.7928460   2.7928460   2.6886370   0.0000000   2.7928460   2.7928460   2.7928460   0.0000000   0.0000000   0.0000000
 AtZNuc=   1.0000000   1.0000000   5.0000000   6.0000000   1.0000000   1.0000000   1.0000000   8.0000000   6.0000000   6.0000000

  Atom        61          62          63          64          65          66          67          68          69          70
 IAtWgt=          12           1           1           1          12           1           1           1          12           1
 AtmWgt=  12.0000000   1.0078250   1.0078250   1.0078250  12.0000000   1.0078250   1.0078250   1.0078250  12.0000000   1.0078250
 NucSpn=           0           1           1           1           0           1           1           1           0           1
 AtZEff=  -0.0000000  -0.0000000  -0.0000000  -0.0000000  -0.0000000  -0.0000000  -0.0000000  -0.0000000  -0.0000000  -0.0000000
 NQMom=    0.0000000   0.0000000   0.0000000   0.0000000   0.0000000   0.0000000   0.0000000   0.0000000   0.0000000   0.0000000
 NMagM=    0.0000000   2.7928460   2.7928460   2.7928460   0.0000000   2.7928460   2.7928460   2.7928460   0.0000000   2.7928460
 AtZNuc=   6.0000000   1.0000000   1.0000000   1.0000000   6.0000000   1.0000000   1.0000000   1.0000000   6.0000000   1.0000000

  Atom        71          72          73          74          75          76
 IAtWgt=           1           1          12           1           1           1
 AtmWgt=   1.0078250   1.0078250  12.0000000   1.0078250   1.0078250   1.0078250
 NucSpn=           1           1           0           1           1           1
 AtZEff=  -0.0000000  -0.0000000  -0.0000000  -0.0000000  -0.0000000  -0.0000000
 NQMom=    0.0000000   0.0000000   0.0000000   0.0000000   0.0000000   0.0000000
 NMagM=    2.7928460   2.7928460   0.0000000   2.7928460   2.7928460   2.7928460
 AtZNuc=   1.0000000   1.0000000   6.0000000   1.0000000   1.0000000   1.0000000
 Leave Link  101 at Mon Sep  8 14:52:34 2025, MaxMem=  4294967296 cpu:               0.9 elap:               0.1
 (Enter /opt/packages/gaussian/g16RevC.01/g16/l202.exe)
 Symmetry turned off by external request.
 Stoichiometry    C23H46BLiO5
 Framework group  C1[X(C23H46BLiO5)]
 Deg. of freedom   222
 Full point group                 C1      NOp   1
                          Input orientation:                          
 ---------------------------------------------------------------------
 Center     Atomic      Atomic             Coordinates (Angstroms)
 Number     Number       Type             X           Y           Z
 ---------------------------------------------------------------------
      1          3           0       -1.724807   -0.252327    2.766251
      2          6           0       -3.007194   -1.136474    5.391258
      3          8           0       -1.894599   -1.236864    4.495165
      4          6           0       -3.356637   -2.576564    5.820035
      5          1           0       -3.814977   -0.636526    4.853138
      6          6           0       -1.211600   -2.453640    4.788643
      7          6           0       -2.327932   -3.446514    5.073595
      8          1           0       -4.383484   -2.840478    5.553401
      9          1           0       -3.251162   -2.687129    6.903665
     10          1           0       -0.592456   -2.699551    3.924938
     11          1           0       -0.566711   -2.308546    5.669199
     12          1           0       -2.738326   -3.809326    4.125806
     13          1           0       -1.987708   -4.302635    5.663036
     14          6           0       -1.021072    2.709949    3.281356
     15          8           0       -1.916087    1.617311    3.469559
     16          6           0       -1.921171    3.858100    2.840666
     17          1           0       -0.276834    2.405798    2.542960
     18          6           0       -3.094006    2.134695    4.093716
     19          6           0       -3.214487    3.605196    3.642332
     20          1           0       -2.111609    3.786164    1.764781
     21          1           0       -1.477290    4.835895    3.047100
     22          1           0       -3.932066    1.508418    3.777964
     23          1           0       -2.984096    2.056176    5.183082
     24          1           0       -4.105678    3.766464    3.029723
     25          1           0       -3.280299    4.267045    4.510702
     26          6           0        1.046403   -0.020473    3.722894
     27          8           0        0.258357   -0.230662    2.547371
     28          6           0        2.051208   -1.187811    3.777651
     29          1           0        0.357913    0.022041    4.568856
     30          6           0        1.119721   -0.840327    1.587950
     31          6           0        1.914623   -1.862211    2.394627
     32          1           0        1.812925   -1.884775    4.585497
     33          1           0        3.064918   -0.813713    3.946858
     34          1           0        0.499490   -1.271850    0.800843
     35          1           0        1.773474   -0.071891    1.149515
     36          1           0        1.344527   -2.793275    2.472429
     37          1           0        2.879601   -2.090063    1.933701
     38          8           0       -2.798560   -0.636905    1.270842
     39          1           0       -0.513796    2.936805    4.231437
     40          1           0       -2.716460   -0.517823    6.249879
     41          1           0        1.563515    0.944480    3.633946
     42          6           0       -2.988491   -3.233473    1.235443
     43          6           0       -1.675558   -3.338487    1.497714
     44          1           0       -1.126317   -2.402438    1.616385
     45          6           0       -0.827872   -4.573205    1.667791
     46          1           0        0.060741   -4.535265    1.021882
     47          1           0       -0.457576   -4.666608    2.700136
     48          1           0       -1.363679   -5.499195    1.435509
     49          6           0       -3.874972   -4.447431    1.060076
     50          1           0       -4.505008   -4.596349    1.949448
     51          1           0       -4.563618   -4.292763    0.219251
     52          1           0       -3.336805   -5.386393    0.882757
     53          5           0       -3.774840   -1.798636    1.136259
     54          6           0       -4.964597   -1.732935    2.262363
     55          1           0       -4.632525   -2.069824    3.256091
     56          1           0       -5.364464   -0.713570    2.377459
     57          1           0       -5.812719   -2.377134    1.981300
     58          8           0       -4.359309   -1.566799   -0.221100
     59          6           0       -3.534541   -0.679728   -0.940122
     60          6           0       -2.979792    0.259940    0.180927
     61          6           0       -4.371972    0.041182   -1.995617
     62          1           0       -4.687184   -0.671937   -2.766893
     63          1           0       -5.273265    0.480585   -1.558269
     64          1           0       -3.796923    0.836457   -2.487107
     65          6           0       -2.409627   -1.451879   -1.650208
     66          1           0       -1.833477   -0.807916   -2.326689
     67          1           0       -1.725367   -1.907613   -0.929319
     68          1           0       -2.857960   -2.257034   -2.244034
     69          6           0       -3.993850    1.340326    0.577982
     70          1           0       -3.652332    1.819047    1.499460
     71          1           0       -4.086550    2.115403   -0.192424
     72          1           0       -4.982476    0.908634    0.758306
     73          6           0       -1.649167    0.930099   -0.147890
     74          1           0       -0.861784    0.195198   -0.331741
     75          1           0       -1.741947    1.568173   -1.035440
     76          1           0       -1.331703    1.562650    0.688999
 ---------------------------------------------------------------------
 Rotational constants (GHZ):           0.1612213           0.1528315           0.1225478
 Leave Link  202 at Mon Sep  8 14:52:34 2025, MaxMem=  4294967296 cpu:               0.2 elap:               0.0
 (Enter /opt/packages/gaussian/g16RevC.01/g16/l301.exe)
 Standard basis: 6-311++G(d,p) (5D, 7F)
 Ernie: Thresh=  0.10000D-02 Tol=  0.10000D-05 Strict=F.
   982 basis functions,  1494 primitive gaussians,  1012 cartesian basis functions
   116 alpha electrons      116 beta electrons
       nuclear repulsion energy      3479.2714138875 Hartrees.
 IExCor= 4639 DFT=T Ex+Corr=wB97XD ExCW=0 ScaHFX=  1.000000
 ScaDFX=  1.000000  1.000000  1.000000  1.000000 ScalE2=  1.000000  1.000000
 IRadAn=      5 IRanWt=     -1 IRanGd=            0 ICorTp=0 IEmpDi=121
 HFx  wShort=  0.000000 wLong=  0.200000 cFull=  0.222036 cShort=  0.000000 cLong=  0.777964
 DFx  wShort=  0.000000 wLong=  0.200000 cFull=  0.000000 cShort=  0.000000 cLong=  1.000000
 NAtoms=   76 NActive=   76 NUniq=   76 SFac= 1.00D+00 NAtFMM=   60 NAOKFM=T Big=T
 Integral buffers will be    131072 words long.
 Raffenetti 2 integral format.
 Two-electron integral symmetry is turned off.
 R6Disp:  Grimme-D2 Dispersion energy=       -0.0982020724 Hartrees.
 Nuclear repulsion after empirical dispersion term =     3479.1732118151 Hartrees.
 ------------------------------------------------------------------------------
 Polarizable Continuum Model (PCM)
 =================================
 Model                : PCM.
 Atomic radii         : SMD-Coulomb.
 Polarization charges : Total charges.
 Charge compensation  : None.
 Solution method      : On-the-fly selection.
 Cavity type          : VdW (van der Waals Surface) (Alpha=1.000).
 Cavity algorithm     : GePol (No added spheres)
                        Default sphere list used, NSphG=   76.
                        Lebedev-Laikov grids with approx.  5.0 points / Ang**2.
                        Smoothing algorithm: York/Karplus (Gamma=1.0000).
                        Polarization charges: spherical gaussians, with
                                              point-specific exponents (IZeta= 3).
                        Self-potential: point-specific (ISelfS= 7).
                        Self-field    : sphere-specific E.n sum rule (ISelfD= 2).
 Solvent              : TetraHydroFuran, Eps=   7.425700 Eps(inf)=   1.974025
 ------------------------------------------------------------------------------
 GePol: Number of generator spheres                  =      76
 GePol: Total number of spheres                      =      76
 GePol: Number of exposed spheres                    =      75 ( 98.68%)
 GePol: Number of points                             =    4415
 GePol: Average weight of points                     =       0.11
 GePol: Minimum weight of points                     =   0.32D-10
 GePol: Maximum weight of points                     =    0.17992
 GePol: Number of points with low weight             =     307
 GePol: Fraction of low-weight points (<1% of avg)   =       6.95%
 GePol: Cavity surface area                          =    469.187 Ang**2
 GePol: Cavity volume                                =    506.835 Ang**3
 ------------------------------------------------------------------------------
 Atomic radii for non-electrostatic terms: SMD-CDS.
 ------------------------------------------------------------------------------
 PCM non-electrostatic energy =        -0.0065517289 Hartrees.
 Nuclear repulsion after PCM non-electrostatic terms =     3479.1666600861 Hartrees.
 Leave Link  301 at Mon Sep  8 14:52:34 2025, MaxMem=  4294967296 cpu:               1.7 elap:               0.1
 (Enter /opt/packages/gaussian/g16RevC.01/g16/l302.exe)
 NPDir=0 NMtPBC=     1 NCelOv=     1 NCel=       1 NClECP=     1 NCelD=      1
         NCelK=      1 NCelE2=     1 NClLst=     1 CellRange=     0.0.
 One-electron integrals computed using PRISM.
 NBasis=   982 RedAO= T EigKep=  1.07D-06  NBF=   982
 NBsUse=   979 1.00D-06 EigRej=  9.20D-07 NBFU=   979
 Precomputing XC quadrature grid using
 IXCGrd= 4 IRadAn=           5 IRanWt=          -1 IRanGd=           0 AccXCQ= 0.00D+00.
 Generated NRdTot=       0 NPtTot=           0 NUsed=           0 NTot=          32
 NSgBfM=  1010  1010  1010  1010  1010 MxSgAt=    76 MxSgA2=    76.
 Leave Link  302 at Mon Sep  8 14:52:36 2025, MaxMem=  4294967296 cpu:              32.0 elap:               2.1
 (Enter /opt/packages/gaussian/g16RevC.01/g16/l303.exe)
 DipDrv:  MaxL=1.
 Leave Link  303 at Mon Sep  8 14:52:37 2025, MaxMem=  4294967296 cpu:               2.0 elap:               0.2
 (Enter /opt/packages/gaussian/g16RevC.01/g16/l401.exe)
 ExpMin= 7.40D-03 ExpMax= 8.59D+03 ExpMxC= 1.30D+03 IAcc=3 IRadAn=         5 AccDes= 0.00D+00
 Harris functional with IExCor= 4639 and IRadAn=       5 diagonalized for initial guess.
 HarFok:  IExCor= 4639 AccDes= 0.00D+00 IRadAn=         5 IDoV= 1 UseB2=F ITyADJ=14
 ICtDFT=  3500011 ScaDFX=  1.000000  1.000000  1.000000  1.000000
 FoFCou: FMM=F IPFlag=           0 FMFlag=      100000 FMFlg1=        2001
         NFxFlg=           0 DoJE=T BraDBF=F KetDBF=T FulRan=T
         wScrn=  0.000000 ICntrl=       500 IOpCl=  0 I1Cent=   200000004 NGrid=           0
         NMat0=    1 NMatS0=      1 NMatT0=    0 NMatD0=    1 NMtDS0=    0 NMtDT0=    0
 Symmetry not used in FoFCou.
 Harris En= -1253.35027600812    
 JPrj=0 DoOrth=F DoCkMO=F.
 Leave Link  401 at Mon Sep  8 14:52:42 2025, MaxMem=  4294967296 cpu:              87.8 elap:               5.5
 (Enter /opt/packages/gaussian/g16RevC.01/g16/l502.exe)
 Two-electron integral symmetry not used.
 Closed shell SCF:
 Using DIIS extrapolation, IDIIS=  1040.
 NGot=  4294967296 LenX=  4292893486 LenY=  4291868330
 Requested convergence on RMS density matrix=1.00D-08 within 128 cycles.
 Requested convergence on MAX density matrix=1.00D-06.
 Requested convergence on             energy=1.00D-06.
 No special actions if energy rises.
 Fock matrices will be formed incrementally for  20 cycles.

 Cycle   1  Pass 1  IDiag  1:
 FoFJK:  IHMeth= 1 ICntrl=       0 DoSepK=T KAlg= 0 I1Cent=           0 FoldK=F
 IRaf=         1 NMat=       1 IRICut=       1 DoRegI=T DoRafI=F ISym2E= 0 IDoP0=0 IntGTp=1.
 FoFCou: FMM=T IPFlag=           0 FMFlag=      100000 FMFlg1=        2001
         NFxFlg=           0 DoJE=T BraDBF=F KetDBF=F FulRan=T
         wScrn=  0.000000 ICntrl=       500 IOpCl=  0 I1Cent=           0 NGrid=           0
         NMat0=    1 NMatS0=      1 NMatT0=    0 NMatD0=    1 NMtDS0=    0 NMtDT0=    0
 Symmetry not used in FoFCou.
 FMM levels:  10  Number of levels for PrismC:   9
 Inv3:  Mode=1 IEnd=    58476675.
 Iteration    1 A*A^-1 deviation from unit magnitude is 3.55D-15 for   1342.
 Iteration    1 A*A^-1 deviation from orthogonality  is 2.33D-15 for   2570   1709.
 Iteration    1 A^-1*A deviation from unit magnitude is 3.55D-15 for   1342.
 Iteration    1 A^-1*A deviation from orthogonality  is 2.66D-15 for   2868   2841.
 E= -1312.33575524663    
 DIIS: error= 6.16D-02 at cycle   1 NSaved=   1.
 NSaved= 1 IEnMin= 1 EnMin= -1312.33575524663     IErMin= 1 ErrMin= 6.16D-02
 ErrMax= 6.16D-02  0.00D+00 EMaxC= 1.00D-01 BMatC= 2.85D+00 BMatP= 2.85D+00
 IDIUse=3 WtCom= 3.84D-01 WtEn= 6.16D-01
 Coeff-Com:  0.100D+01
 Coeff-En:   0.100D+01
 Coeff:      0.100D+01
 Gap=     0.308 Goal=   None    Shift=    0.000
 GapD=    0.308 DampG=1.000 DampE=0.500 DampFc=0.5000 IDamp=-1.
 Damping current iteration by 5.00D-01
 RMSDP=1.22D-02 MaxDP=2.41D+00              OVMax= 8.68D-02

 Cycle   2  Pass 1  IDiag  1:
 RMSU=  3.64D-03    CP:  8.66D-01
 E= -1312.56791285060     Delta-E=       -0.232157603970 Rises=F Damp=T
 DIIS: error= 2.78D-02 at cycle   2 NSaved=   2.
 NSaved= 2 IEnMin= 2 EnMin= -1312.56791285060     IErMin= 2 ErrMin= 2.78D-02
 ErrMax= 2.78D-02  0.00D+00 EMaxC= 1.00D-01 BMatC= 5.85D-01 BMatP= 2.85D+00
 IDIUse=3 WtCom= 7.22D-01 WtEn= 2.78D-01
 Coeff-Com: -0.605D+00 0.161D+01
 Coeff-En:   0.000D+00 0.100D+01
 Coeff:     -0.437D+00 0.144D+01
 Gap=     0.315 Goal=   None    Shift=    0.000
 RMSDP=6.56D-03 MaxDP=8.92D-01 DE=-2.32D-01 OVMax= 8.82D-02

 Cycle   3  Pass 1  IDiag  1:
 RMSU=  4.34D-03    CP:  7.38D-01  1.43D+00
 E= -1312.72684404518     Delta-E=       -0.158931194574 Rises=F Damp=F
 DIIS: error= 1.01D-02 at cycle   3 NSaved=   3.
 NSaved= 3 IEnMin= 3 EnMin= -1312.72684404518     IErMin= 3 ErrMin= 1.01D-02
 ErrMax= 1.01D-02  0.00D+00 EMaxC= 1.00D-01 BMatC= 1.19D-01 BMatP= 5.85D-01
 IDIUse=3 WtCom= 8.99D-01 WtEn= 1.01D-01
 Coeff-Com: -0.339D+00 0.732D+00 0.607D+00
 Coeff-En:   0.000D+00 0.000D+00 0.100D+01
 Coeff:     -0.305D+00 0.658D+00 0.647D+00
 Gap=     0.308 Goal=   None    Shift=    0.000
 RMSDP=3.67D-03 MaxDP=9.82D-01 DE=-1.59D-01 OVMax= 4.21D-02

 Cycle   4  Pass 1  IDiag  1:
 RMSU=  1.63D-03    CP:  6.86D-01  1.55D+00  3.93D-01
 E= -1312.80443019061     Delta-E=       -0.077586145433 Rises=F Damp=F
 DIIS: error= 2.10D-03 at cycle   4 NSaved=   4.
 NSaved= 4 IEnMin= 4 EnMin= -1312.80443019061     IErMin= 4 ErrMin= 2.10D-03
 ErrMax= 2.10D-03  0.00D+00 EMaxC= 1.00D-01 BMatC= 6.21D-03 BMatP= 1.19D-01
 IDIUse=3 WtCom= 9.79D-01 WtEn= 2.10D-02
 Coeff-Com: -0.117D+00 0.252D+00 0.310D+00 0.554D+00
 Coeff-En:   0.000D+00 0.000D+00 0.000D+00 0.100D+01
 Coeff:     -0.115D+00 0.247D+00 0.304D+00 0.564D+00
 Gap=     0.291 Goal=   None    Shift=    0.000
 RMSDP=7.02D-04 MaxDP=1.60D-01 DE=-7.76D-02 OVMax= 6.42D-03

 Cycle   5  Pass 1  IDiag  1:
 RMSU=  2.49D-04    CP:  6.98D-01  1.58D+00  4.92D-01  8.44D-01
 E= -1312.80857489024     Delta-E=       -0.004144699630 Rises=F Damp=F
 DIIS: error= 1.18D-04 at cycle   5 NSaved=   5.
 NSaved= 5 IEnMin= 5 EnMin= -1312.80857489024     IErMin= 5 ErrMin= 1.18D-04
 ErrMax= 1.18D-04  0.00D+00 EMaxC= 1.00D-01 BMatC= 5.16D-05 BMatP= 6.21D-03
 IDIUse=3 WtCom= 9.99D-01 WtEn= 1.18D-03
 Coeff-Com:  0.906D-02-0.198D-01 0.572D-02 0.837D-01 0.921D+00
 Coeff-En:   0.000D+00 0.000D+00 0.000D+00 0.000D+00 0.100D+01
 Coeff:      0.905D-02-0.198D-01 0.572D-02 0.836D-01 0.921D+00
 Gap=     0.291 Goal=   None    Shift=    0.000
 RMSDP=1.70D-04 MaxDP=2.22D-02 DE=-4.14D-03 OVMax= 1.50D-03

 Cycle   6  Pass 1  IDiag  1:
 RMSU=  1.31D-04    CP:  6.97D-01  1.57D+00  5.03D-01  8.93D-01  1.14D+00
 E= -1312.80863467997     Delta-E=       -0.000059789732 Rises=F Damp=F
 DIIS: error= 4.79D-05 at cycle   6 NSaved=   6.
 NSaved= 6 IEnMin= 6 EnMin= -1312.80863467997     IErMin= 6 ErrMin= 4.79D-05
 ErrMax= 4.79D-05  0.00D+00 EMaxC= 1.00D-01 BMatC= 8.10D-06 BMatP= 5.16D-05
 IDIUse=1 WtCom= 1.00D+00 WtEn= 0.00D+00
 Coeff-Com:  0.116D-01-0.251D-01-0.201D-01-0.115D-01 0.321D+00 0.725D+00
 Coeff:      0.116D-01-0.251D-01-0.201D-01-0.115D-01 0.321D+00 0.725D+00
 Gap=     0.292 Goal=   None    Shift=    0.000
 RMSDP=5.32D-05 MaxDP=6.73D-03 DE=-5.98D-05 OVMax= 7.46D-04

 Cycle   7  Pass 1  IDiag  1:
 RMSU=  2.81D-05    CP:  6.97D-01  1.57D+00  5.01D-01  9.11D-01  1.26D+00
                    CP:  1.03D+00
 E= -1312.80864270526     Delta-E=       -0.000008025286 Rises=F Damp=F
 DIIS: error= 2.37D-05 at cycle   7 NSaved=   7.
 NSaved= 7 IEnMin= 7 EnMin= -1312.80864270526     IErMin= 7 ErrMin= 2.37D-05
 ErrMax= 2.37D-05  0.00D+00 EMaxC= 1.00D-01 BMatC= 9.07D-07 BMatP= 8.10D-06
 IDIUse=1 WtCom= 1.00D+00 WtEn= 0.00D+00
 Coeff-Com:  0.329D-02-0.707D-02-0.778D-02-0.117D-01 0.271D-01 0.269D+00
 Coeff-Com:  0.727D+00
 Coeff:      0.329D-02-0.707D-02-0.778D-02-0.117D-01 0.271D-01 0.269D+00
 Coeff:      0.727D+00
 Gap=     0.291 Goal=   None    Shift=    0.000
 RMSDP=1.86D-05 MaxDP=4.92D-03 DE=-8.03D-06 OVMax= 1.66D-04

 Cycle   8  Pass 1  IDiag  1:
 RMSU=  9.78D-06    CP:  6.97D-01  1.57D+00  4.99D-01  9.18D-01  1.28D+00
                    CP:  1.09D+00  1.06D+00
 E= -1312.80864356559     Delta-E=       -0.000000860331 Rises=F Damp=F
 DIIS: error= 9.90D-06 at cycle   8 NSaved=   8.
 NSaved= 8 IEnMin= 8 EnMin= -1312.80864356559     IErMin= 8 ErrMin= 9.90D-06
 ErrMax= 9.90D-06  0.00D+00 EMaxC= 1.00D-01 BMatC= 8.50D-08 BMatP= 9.07D-07
 IDIUse=1 WtCom= 1.00D+00 WtEn= 0.00D+00
 Coeff-Com:  0.427D-05 0.202D-04-0.667D-03-0.278D-02-0.232D-01 0.228D-01
 Coeff-Com:  0.257D+00 0.747D+00
 Coeff:      0.427D-05 0.202D-04-0.667D-03-0.278D-02-0.232D-01 0.228D-01
 Coeff:      0.257D+00 0.747D+00
 Gap=     0.291 Goal=   None    Shift=    0.000
 RMSDP=6.89D-06 MaxDP=9.46D-04 DE=-8.60D-07 OVMax= 7.59D-05

 Cycle   9  Pass 1  IDiag  1:
 RMSU=  3.26D-06    CP:  6.97D-01  1.57D+00  5.00D-01  9.18D-01  1.28D+00
                    CP:  1.14D+00  1.10D+00  1.05D+00
 E= -1312.80864365246     Delta-E=       -0.000000086873 Rises=F Damp=F
 DIIS: error= 4.40D-06 at cycle   9 NSaved=   9.
 NSaved= 9 IEnMin= 9 EnMin= -1312.80864365246     IErMin= 9 ErrMin= 4.40D-06
 ErrMax= 4.40D-06  0.00D+00 EMaxC= 1.00D-01 BMatC= 1.20D-08 BMatP= 8.50D-08
 IDIUse=1 WtCom= 1.00D+00 WtEn= 0.00D+00
 Coeff-Com: -0.327D-03 0.712D-03 0.527D-03-0.151D-04-0.125D-01-0.159D-01
 Coeff-Com:  0.282D-01 0.305D+00 0.695D+00
 Coeff:     -0.327D-03 0.712D-03 0.527D-03-0.151D-04-0.125D-01-0.159D-01
 Coeff:      0.282D-01 0.305D+00 0.695D+00
 Gap=     0.291 Goal=   None    Shift=    0.000
 RMSDP=2.78D-06 MaxDP=6.02D-04 DE=-8.69D-08 OVMax= 2.63D-05

 Cycle  10  Pass 1  IDiag  1:
 RMSU=  1.30D-06    CP:  6.97D-01  1.57D+00  5.00D-01  9.18D-01  1.29D+00
                    CP:  1.13D+00  1.14D+00  1.16D+00  1.01D+00
 E= -1312.80864366466     Delta-E=       -0.000000012195 Rises=F Damp=F
 DIIS: error= 5.32D-07 at cycle  10 NSaved=  10.
 NSaved=10 IEnMin=10 EnMin= -1312.80864366466     IErMin=10 ErrMin= 5.32D-07
 ErrMax= 5.32D-07  0.00D+00 EMaxC= 1.00D-01 BMatC= 8.53D-10 BMatP= 1.20D-08
 IDIUse=1 WtCom= 1.00D+00 WtEn= 0.00D+00
 Coeff-Com: -0.817D-04 0.175D-03 0.209D-03 0.266D-03-0.941D-03-0.621D-02
 Coeff-Com: -0.244D-01 0.151D-02 0.184D+00 0.845D+00
 Coeff:     -0.817D-04 0.175D-03 0.209D-03 0.266D-03-0.941D-03-0.621D-02
 Coeff:     -0.244D-01 0.151D-02 0.184D+00 0.845D+00
 Gap=     0.291 Goal=   None    Shift=    0.000
 RMSDP=7.70D-07 MaxDP=7.70D-05 DE=-1.22D-08 OVMax= 1.32D-05

 Cycle  11  Pass 1  IDiag  1:
 RMSU=  3.35D-07    CP:  6.97D-01  1.57D+00  5.00D-01  9.19D-01  1.29D+00
                    CP:  1.14D+00  1.14D+00  1.20D+00  1.10D+00  1.17D+00
 E= -1312.80864366581     Delta-E=       -0.000000001154 Rises=F Damp=F
 DIIS: error= 4.23D-07 at cycle  11 NSaved=  11.
 NSaved=11 IEnMin=11 EnMin= -1312.80864366581     IErMin=11 ErrMin= 4.23D-07
 ErrMax= 4.23D-07  0.00D+00 EMaxC= 1.00D-01 BMatC= 1.18D-10 BMatP= 8.53D-10
 IDIUse=1 WtCom= 1.00D+00 WtEn= 0.00D+00
 Coeff-Com:  0.669D-05-0.156D-04 0.164D-04 0.938D-04 0.997D-03-0.202D-03
 Coeff-Com: -0.124D-01-0.304D-01-0.881D-02 0.300D+00 0.751D+00
 Coeff:      0.669D-05-0.156D-04 0.164D-04 0.938D-04 0.997D-03-0.202D-03
 Coeff:     -0.124D-01-0.304D-01-0.881D-02 0.300D+00 0.751D+00
 Gap=     0.291 Goal=   None    Shift=    0.000
 RMSDP=2.28D-07 MaxDP=3.29D-05 DE=-1.15D-09 OVMax= 8.45D-06

 Cycle  12  Pass 1  IDiag  1:
 RMSU=  1.17D-07    CP:  6.97D-01  1.57D+00  5.00D-01  9.19D-01  1.29D+00
                    CP:  1.14D+00  1.14D+00  1.22D+00  1.12D+00  1.22D+00
                    CP:  1.07D+00
 E= -1312.80864366595     Delta-E=       -0.000000000143 Rises=F Damp=F
 DIIS: error= 1.16D-07 at cycle  12 NSaved=  12.
 NSaved=12 IEnMin=12 EnMin= -1312.80864366595     IErMin=12 ErrMin= 1.16D-07
 ErrMax= 1.16D-07  0.00D+00 EMaxC= 1.00D-01 BMatC= 1.76D-11 BMatP= 1.18D-10
 IDIUse=1 WtCom= 1.00D+00 WtEn= 0.00D+00
 Coeff-Com:  0.804D-05-0.177D-04-0.110D-04 0.126D-04 0.404D-03 0.548D-03
 Coeff-Com: -0.208D-02-0.998D-02-0.225D-01 0.257D-02 0.278D+00 0.753D+00
 Coeff:      0.804D-05-0.177D-04-0.110D-04 0.126D-04 0.404D-03 0.548D-03
 Coeff:     -0.208D-02-0.998D-02-0.225D-01 0.257D-02 0.278D+00 0.753D+00
 Gap=     0.291 Goal=   None    Shift=    0.000
 RMSDP=8.59D-08 MaxDP=1.27D-05 DE=-1.43D-10 OVMax= 1.90D-06

 Cycle  13  Pass 1  IDiag  1:
 RMSU=  3.66D-08    CP:  6.97D-01  1.57D+00  5.00D-01  9.19D-01  1.29D+00
                    CP:  1.14D+00  1.14D+00  1.22D+00  1.13D+00  1.26D+00
                    CP:  1.20D+00  1.10D+00
 E= -1312.80864366595     Delta-E=        0.000000000004 Rises=F Damp=F
 DIIS: error= 4.76D-08 at cycle  13 NSaved=  13.
 NSaved=13 IEnMin=12 EnMin= -1312.80864366595     IErMin=13 ErrMin= 4.76D-08
 ErrMax= 4.76D-08  0.00D+00 EMaxC= 1.00D-01 BMatC= 1.37D-12 BMatP= 1.76D-11
 IDIUse=1 WtCom= 1.00D+00 WtEn= 0.00D+00
 Coeff-Com:  0.122D-05-0.249D-05-0.568D-05-0.107D-04-0.445D-04 0.225D-03
 Coeff-Com:  0.126D-02 0.230D-02-0.486D-02-0.479D-01-0.207D-01 0.186D+00
 Coeff-Com:  0.884D+00
 Coeff:      0.122D-05-0.249D-05-0.568D-05-0.107D-04-0.445D-04 0.225D-03
 Coeff:      0.126D-02 0.230D-02-0.486D-02-0.479D-01-0.207D-01 0.186D+00
 Coeff:      0.884D+00
 Gap=     0.291 Goal=   None    Shift=    0.000
 RMSDP=3.45D-08 MaxDP=6.18D-06 DE= 3.64D-12 OVMax= 1.24D-06

 Cycle  14  Pass 1  IDiag  1:
 RMSU=  1.14D-08    CP:  6.97D-01  1.57D+00  5.00D-01  9.19D-01  1.29D+00
                    CP:  1.14D+00  1.14D+00  1.22D+00  1.13D+00  1.27D+00
                    CP:  1.26D+00  1.17D+00  1.27D+00
 E= -1312.80864366596     Delta-E=       -0.000000000015 Rises=F Damp=F
 DIIS: error= 8.68D-09 at cycle  14 NSaved=  14.
 NSaved=14 IEnMin=14 EnMin= -1312.80864366596     IErMin=14 ErrMin= 8.68D-09
 ErrMax= 8.68D-09  0.00D+00 EMaxC= 1.00D-01 BMatC= 1.79D-13 BMatP= 1.37D-12
 IDIUse=1 WtCom= 1.00D+00 WtEn= 0.00D+00
 Coeff-Com: -0.296D-06 0.712D-06-0.482D-06-0.438D-05-0.460D-04 0.114D-04
 Coeff-Com:  0.460D-03 0.153D-02 0.869D-03-0.122D-01-0.293D-01-0.454D-01
 Coeff-Com:  0.217D+00 0.867D+00
 Coeff:     -0.296D-06 0.712D-06-0.482D-06-0.438D-05-0.460D-04 0.114D-04
 Coeff:      0.460D-03 0.153D-02 0.869D-03-0.122D-01-0.293D-01-0.454D-01
 Coeff:      0.217D+00 0.867D+00
 Gap=     0.291 Goal=   None    Shift=    0.000
 RMSDP=9.75D-09 MaxDP=1.53D-06 DE=-1.46D-11 OVMax= 3.15D-07

 Cycle  15  Pass 1  IDiag  1:
 RMSU=  4.31D-09    CP:  6.97D-01  1.57D+00  5.00D-01  9.19D-01  1.29D+00
                    CP:  1.14D+00  1.14D+00  1.22D+00  1.13D+00  1.27D+00
                    CP:  1.27D+00  1.19D+00  1.39D+00  1.25D+00
 E= -1312.80864366594     Delta-E=        0.000000000025 Rises=F Damp=F
 DIIS: error= 3.29D-09 at cycle  15 NSaved=  15.
 NSaved=15 IEnMin=14 EnMin= -1312.80864366596     IErMin=15 ErrMin= 3.29D-09
 ErrMax= 3.29D-09  0.00D+00 EMaxC= 1.00D-01 BMatC= 1.88D-14 BMatP= 1.79D-13
 IDIUse=1 WtCom= 1.00D+00 WtEn= 0.00D+00
 Coeff-Com: -0.193D-06 0.416D-06 0.437D-06-0.360D-06-0.817D-05-0.173D-04
 Coeff-Com: -0.458D-05 0.212D-03 0.723D-03 0.125D-02-0.528D-02-0.348D-01
 Coeff-Com: -0.236D-01 0.238D+00 0.824D+00
 Coeff:     -0.193D-06 0.416D-06 0.437D-06-0.360D-06-0.817D-05-0.173D-04
 Coeff:     -0.458D-05 0.212D-03 0.723D-03 0.125D-02-0.528D-02-0.348D-01
 Coeff:     -0.236D-01 0.238D+00 0.824D+00
 Gap=     0.291 Goal=   None    Shift=    0.000
 RMSDP=3.16D-09 MaxDP=3.78D-07 DE= 2.50D-11 OVMax= 9.08D-08

 Error on total polarization charges =  0.07194
 SCF Done:  E(RwB97XD) =  -1312.80864367     A.U. after   15 cycles
            NFock= 15  Conv=0.32D-08     -V/T= 2.0046
 KE= 1.306764635828D+03 PE=-1.001962682714D+04 EE= 3.920886887559D+03
 SMD-CDS (non-electrostatic) energy       (kcal/mol) =      -4.11
 (included in total energy above)
 Leave Link  502 at Mon Sep  8 15:07:39 2025, MaxMem=  4294967296 cpu:           14040.1 elap:             896.3
 (Enter /opt/packages/gaussian/g16RevC.01/g16/l601.exe)
 Copying SCF densities to generalized density rwf, IOpCl= 0 IROHF=0.

 **********************************************************************

            Population analysis using the SCF Density.

 **********************************************************************

 Alpha  occ. eigenvalues --  -19.26383 -19.26108 -19.25882 -19.19195 -19.17200
 Alpha  occ. eigenvalues --  -10.32663 -10.32652 -10.32648 -10.32617 -10.32403
 Alpha  occ. eigenvalues --  -10.32327 -10.31376 -10.30685 -10.27985 -10.27919
 Alpha  occ. eigenvalues --  -10.27875 -10.27872 -10.27632 -10.27344 -10.25729
 Alpha  occ. eigenvalues --  -10.25420 -10.24862 -10.24767 -10.24607 -10.24287
 Alpha  occ. eigenvalues --  -10.24204 -10.22580 -10.20652  -6.79939  -1.99124
 Alpha  occ. eigenvalues --   -1.15621  -1.15291  -1.14988  -1.09905  -1.03155
 Alpha  occ. eigenvalues --   -0.88041  -0.87976  -0.87735  -0.87229  -0.86022
 Alpha  occ. eigenvalues --   -0.84117  -0.83720  -0.83511  -0.81747  -0.79310
 Alpha  occ. eigenvalues --   -0.77832  -0.75148  -0.74151  -0.71994  -0.69594
 Alpha  occ. eigenvalues --   -0.69331  -0.69006  -0.68746  -0.68496  -0.68193
 Alpha  occ. eigenvalues --   -0.67838  -0.60909  -0.60118  -0.59934  -0.59507
 Alpha  occ. eigenvalues --   -0.59209  -0.58493  -0.58204  -0.57617  -0.56979
 Alpha  occ. eigenvalues --   -0.54411  -0.54059  -0.53793  -0.53570  -0.52695
 Alpha  occ. eigenvalues --   -0.51482  -0.50846  -0.50567  -0.50312  -0.50167
 Alpha  occ. eigenvalues --   -0.49898  -0.49276  -0.48865  -0.48538  -0.47520
 Alpha  occ. eigenvalues --   -0.47150  -0.46391  -0.46340  -0.45852  -0.45656
 Alpha  occ. eigenvalues --   -0.44786  -0.44702  -0.44491  -0.44148  -0.43946
 Alpha  occ. eigenvalues --   -0.43533  -0.43423  -0.43001  -0.42861  -0.42596
 Alpha  occ. eigenvalues --   -0.42541  -0.42355  -0.42103  -0.41855  -0.41276
 Alpha  occ. eigenvalues --   -0.41136  -0.40628  -0.40501  -0.40298  -0.40168
 Alpha  occ. eigenvalues --   -0.39801  -0.38053  -0.37227  -0.35644  -0.35548
 Alpha  occ. eigenvalues --   -0.35197  -0.34731  -0.34017  -0.30446  -0.28031
 Alpha  occ. eigenvalues --   -0.27087
 Alpha virt. eigenvalues --    0.02062   0.02393   0.02431   0.02663   0.06008
 Alpha virt. eigenvalues --    0.06059   0.06179   0.06239   0.06345   0.06844
 Alpha virt. eigenvalues --    0.07412   0.07504   0.07690   0.07727   0.07852
 Alpha virt. eigenvalues --    0.07864   0.07976   0.08083   0.08259   0.08327
 Alpha virt. eigenvalues --    0.09648   0.09880   0.10014   0.10072   0.10177
 Alpha virt. eigenvalues --    0.10429   0.10633   0.10805   0.10973   0.12012
 Alpha virt. eigenvalues --    0.12230   0.12312   0.12692   0.12809   0.12955
 Alpha virt. eigenvalues --    0.13095   0.13229   0.13534   0.13833   0.14129
 Alpha virt. eigenvalues --    0.14228   0.14337   0.14688   0.15005   0.15093
 Alpha virt. eigenvalues --    0.15269   0.15354   0.15734   0.15890   0.16061
 Alpha virt. eigenvalues --    0.16270   0.16361   0.16721   0.16933   0.17019
 Alpha virt. eigenvalues --    0.17224   0.17602   0.17711   0.17950   0.18223
 Alpha virt. eigenvalues --    0.18511   0.18736   0.18742   0.18938   0.19099
 Alpha virt. eigenvalues --    0.19229   0.19290   0.19491   0.19683   0.19932
 Alpha virt. eigenvalues --    0.20010   0.20149   0.20360   0.20387   0.20619
 Alpha virt. eigenvalues --    0.20813   0.20995   0.21029   0.21216   0.21289
 Alpha virt. eigenvalues --    0.21442   0.21601   0.21682   0.21941   0.22153
 Alpha virt. eigenvalues --    0.22435   0.22479   0.22593   0.22762   0.22903
 Alpha virt. eigenvalues --    0.22991   0.23246   0.23394   0.23475   0.23728
 Alpha virt. eigenvalues --    0.23770   0.23957   0.24123   0.24349   0.24471
 Alpha virt. eigenvalues --    0.24592   0.24680   0.24831   0.24992   0.25100
 Alpha virt. eigenvalues --    0.25139   0.25531   0.25670   0.25750   0.25983
 Alpha virt. eigenvalues --    0.26019   0.26203   0.26440   0.26509   0.26746
 Alpha virt. eigenvalues --    0.27076   0.27191   0.27449   0.27555   0.27892
 Alpha virt. eigenvalues --    0.28012   0.28070   0.28195   0.28409   0.28435
 Alpha virt. eigenvalues --    0.28609   0.28879   0.29085   0.29096   0.29282
 Alpha virt. eigenvalues --    0.29498   0.29609   0.29787   0.29951   0.30147
 Alpha virt. eigenvalues --    0.30461   0.30719   0.30965   0.31298   0.31502
 Alpha virt. eigenvalues --    0.31548   0.31962   0.32116   0.32319   0.32387
 Alpha virt. eigenvalues --    0.32671   0.32912   0.33090   0.33514   0.33696
 Alpha virt. eigenvalues --    0.33872   0.34118   0.34396   0.34612   0.34871
 Alpha virt. eigenvalues --    0.34966   0.35187   0.35281   0.35642   0.35803
 Alpha virt. eigenvalues --    0.36152   0.36332   0.36455   0.36729   0.36922
 Alpha virt. eigenvalues --    0.37370   0.37512   0.38047   0.38053   0.38273
 Alpha virt. eigenvalues --    0.38363   0.38636   0.38920   0.39083   0.39194
 Alpha virt. eigenvalues --    0.39286   0.39596   0.39901   0.40132   0.40233
 Alpha virt. eigenvalues --    0.40402   0.40555   0.40613   0.40860   0.41108
 Alpha virt. eigenvalues --    0.41354   0.41655   0.41714   0.42014   0.42110
 Alpha virt. eigenvalues --    0.42526   0.42660   0.42909   0.43351   0.43497
 Alpha virt. eigenvalues --    0.43631   0.43927   0.44150   0.44445   0.44543
 Alpha virt. eigenvalues --    0.44644   0.44802   0.45160   0.45256   0.45512
 Alpha virt. eigenvalues --    0.45856   0.46179   0.46332   0.46872   0.46918
 Alpha virt. eigenvalues --    0.47194   0.47382   0.47639   0.47960   0.48291
 Alpha virt. eigenvalues --    0.48955   0.49156   0.49516   0.49559   0.50068
 Alpha virt. eigenvalues --    0.50658   0.51118   0.51352   0.51787   0.52138
 Alpha virt. eigenvalues --    0.52633   0.53191   0.53534   0.54188   0.54494
 Alpha virt. eigenvalues --    0.54699   0.55050   0.55426   0.55859   0.56604
 Alpha virt. eigenvalues --    0.56988   0.57745   0.58346   0.58704   0.58843
 Alpha virt. eigenvalues --    0.59605   0.59869   0.60597   0.60944   0.60990
 Alpha virt. eigenvalues --    0.61814   0.62189   0.62351   0.62554   0.62667
 Alpha virt. eigenvalues --    0.63109   0.63694   0.63762   0.64210   0.65184
 Alpha virt. eigenvalues --    0.65714   0.65895   0.66186   0.66599   0.66783
 Alpha virt. eigenvalues --    0.67181   0.67829   0.68046   0.68260   0.68991
 Alpha virt. eigenvalues --    0.69078   0.69459   0.69533   0.70081   0.70502
 Alpha virt. eigenvalues --    0.70867   0.71258   0.71439   0.71667   0.72007
 Alpha virt. eigenvalues --    0.72551   0.72663   0.73044   0.73421   0.73748
 Alpha virt. eigenvalues --    0.74275   0.74450   0.74603   0.74663   0.75517
 Alpha virt. eigenvalues --    0.75966   0.76121   0.76237   0.76415   0.76958
 Alpha virt. eigenvalues --    0.77137   0.77394   0.77863   0.78901   0.78996
 Alpha virt. eigenvalues --    0.79245   0.79773   0.80073   0.80459   0.80724
 Alpha virt. eigenvalues --    0.80862   0.80993   0.81214   0.81526   0.82030
 Alpha virt. eigenvalues --    0.82220   0.82443   0.82533   0.82774   0.83014
 Alpha virt. eigenvalues --    0.83100   0.83242   0.83720   0.84179   0.84393
 Alpha virt. eigenvalues --    0.84616   0.84910   0.84943   0.85373   0.85696
 Alpha virt. eigenvalues --    0.86139   0.86348   0.86511   0.86697   0.86985
 Alpha virt. eigenvalues --    0.87314   0.87449   0.87765   0.88161   0.88323
 Alpha virt. eigenvalues --    0.88831   0.89008   0.89394   0.89541   0.89927
 Alpha virt. eigenvalues --    0.90114   0.90481   0.90706   0.91173   0.91612
 Alpha virt. eigenvalues --    0.91946   0.92219   0.92393   0.92635   0.93079
 Alpha virt. eigenvalues --    0.93307   0.94112   0.94335   0.94698   0.94988
 Alpha virt. eigenvalues --    0.95563   0.96003   0.96800   0.97083   0.97432
 Alpha virt. eigenvalues --    0.97912   0.98534   0.99194   0.99622   1.00329
 Alpha virt. eigenvalues --    1.00668   1.01441   1.01817   1.02576   1.02920
 Alpha virt. eigenvalues --    1.03989   1.04809   1.05233   1.06466   1.07565
 Alpha virt. eigenvalues --    1.08352   1.08685   1.10000   1.11362   1.11571
 Alpha virt. eigenvalues --    1.12604   1.13593   1.14713   1.15179   1.15760
 Alpha virt. eigenvalues --    1.16393   1.17019   1.18015   1.18244   1.18976
 Alpha virt. eigenvalues --    1.21146   1.21398   1.22174   1.22752   1.22987
 Alpha virt. eigenvalues --    1.23652   1.24223   1.24804   1.25741   1.26233
 Alpha virt. eigenvalues --    1.26835   1.27147   1.28261   1.28653   1.29867
 Alpha virt. eigenvalues --    1.30138   1.30627   1.31555   1.31882   1.33574
 Alpha virt. eigenvalues --    1.34786   1.35139   1.35415   1.36810   1.37113
 Alpha virt. eigenvalues --    1.37541   1.38149   1.38660   1.39355   1.40120
 Alpha virt. eigenvalues --    1.40453   1.41136   1.42450   1.42926   1.43422
 Alpha virt. eigenvalues --    1.44193   1.45243   1.45865   1.46338   1.46781
 Alpha virt. eigenvalues --    1.47895   1.49166   1.49951   1.50640   1.50937
 Alpha virt. eigenvalues --    1.51269   1.52348   1.53789   1.54091   1.54656
 Alpha virt. eigenvalues --    1.55829   1.56144   1.56842   1.57340   1.57520
 Alpha virt. eigenvalues --    1.57997   1.58494   1.59792   1.59933   1.60434
 Alpha virt. eigenvalues --    1.60959   1.61184   1.61489   1.62207   1.62316
 Alpha virt. eigenvalues --    1.63483   1.63840   1.64410   1.65162   1.65420
 Alpha virt. eigenvalues --    1.65700   1.66097   1.66894   1.67575   1.67908
 Alpha virt. eigenvalues --    1.67925   1.68187   1.68684   1.69178   1.69234
 Alpha virt. eigenvalues --    1.69284   1.69986   1.70651   1.71032   1.71422
 Alpha virt. eigenvalues --    1.71801   1.72181   1.72223   1.72472   1.73186
 Alpha virt. eigenvalues --    1.73262   1.73947   1.74021   1.74445   1.74738
 Alpha virt. eigenvalues --    1.75097   1.75762   1.76222   1.76311   1.76416
 Alpha virt. eigenvalues --    1.76988   1.77408   1.77484   1.77886   1.78031
 Alpha virt. eigenvalues --    1.78758   1.79095   1.79312   1.79626   1.80583
 Alpha virt. eigenvalues --    1.80722   1.81250   1.81970   1.82341   1.82671
 Alpha virt. eigenvalues --    1.83095   1.83732   1.84166   1.84913   1.85355
 Alpha virt. eigenvalues --    1.85388   1.85808   1.86214   1.86693   1.87073
 Alpha virt. eigenvalues --    1.87328   1.88004   1.88241   1.88879   1.89220
 Alpha virt. eigenvalues --    1.89718   1.90030   1.90467   1.91144   1.91731
 Alpha virt. eigenvalues --    1.91788   1.92035   1.92680   1.93109   1.93369
 Alpha virt. eigenvalues --    1.94049   1.94443   1.94862   1.95411   1.95481
 Alpha virt. eigenvalues --    1.95869   1.96232   1.96861   1.97509   1.98117
 Alpha virt. eigenvalues --    1.98349   1.99869   2.00271   2.00378   2.00688
 Alpha virt. eigenvalues --    2.01138   2.01767   2.02515   2.03126   2.03385
 Alpha virt. eigenvalues --    2.03917   2.04238   2.04730   2.05088   2.05885
 Alpha virt. eigenvalues --    2.06387   2.07024   2.07803   2.08079   2.08877
 Alpha virt. eigenvalues --    2.09652   2.09721   2.10221   2.11035   2.11167
 Alpha virt. eigenvalues --    2.11803   2.12415   2.13449   2.13742   2.14312
 Alpha virt. eigenvalues --    2.14472   2.15311   2.15419   2.16355   2.17185
 Alpha virt. eigenvalues --    2.17710   2.18056   2.19731   2.20520   2.20867
 Alpha virt. eigenvalues --    2.22106   2.22429   2.23502   2.24337   2.24834
 Alpha virt. eigenvalues --    2.25451   2.25463   2.26548   2.26973   2.27969
 Alpha virt. eigenvalues --    2.28616   2.29144   2.29676   2.29785   2.30013
 Alpha virt. eigenvalues --    2.31623   2.32289   2.32796   2.33003   2.34055
 Alpha virt. eigenvalues --    2.34332   2.34500   2.36184   2.36932   2.37456
 Alpha virt. eigenvalues --    2.37688   2.39193   2.41124   2.41143   2.41951
 Alpha virt. eigenvalues --    2.42656   2.42967   2.43093   2.43607   2.43946
 Alpha virt. eigenvalues --    2.44256   2.45684   2.46701   2.47478   2.47891
 Alpha virt. eigenvalues --    2.49128   2.49821   2.50898   2.51270   2.54338
 Alpha virt. eigenvalues --    2.55066   2.56349   2.56521   2.56947   2.58117
 Alpha virt. eigenvalues --    2.59811   2.60115   2.60724   2.61340   2.61709
 Alpha virt. eigenvalues --    2.62174   2.62226   2.63160   2.63548   2.63937
 Alpha virt. eigenvalues --    2.64445   2.65443   2.65624   2.66306   2.66630
 Alpha virt. eigenvalues --    2.67316   2.67534   2.67696   2.68162   2.68596
 Alpha virt. eigenvalues --    2.69115   2.69557   2.70067   2.71092   2.71475
 Alpha virt. eigenvalues --    2.71976   2.72224   2.72791   2.73350   2.73639
 Alpha virt. eigenvalues --    2.74015   2.74422   2.75007   2.76076   2.76446
 Alpha virt. eigenvalues --    2.76879   2.77264   2.77724   2.78019   2.78252
 Alpha virt. eigenvalues --    2.79373   2.79511   2.80532   2.80796   2.81368
 Alpha virt. eigenvalues --    2.82494   2.82881   2.83224   2.83676   2.84660
 Alpha virt. eigenvalues --    2.85172   2.85993   2.86632   2.88149   2.88520
 Alpha virt. eigenvalues --    2.88708   2.89345   2.90143   2.90969   2.92040
 Alpha virt. eigenvalues --    2.92361   2.92974   2.93289   2.93899   2.94934
 Alpha virt. eigenvalues --    2.95507   2.96111   2.96651   2.97397   2.97760
 Alpha virt. eigenvalues --    2.98291   2.98594   2.98716   2.99523   2.99636
 Alpha virt. eigenvalues --    2.99941   3.01130   3.01447   3.01873   3.02173
 Alpha virt. eigenvalues --    3.03058   3.03931   3.04589   3.05038   3.05297
 Alpha virt. eigenvalues --    3.06879   3.07120   3.07949   3.08597   3.09554
 Alpha virt. eigenvalues --    3.10548   3.11824   3.13056   3.13898   3.14603
 Alpha virt. eigenvalues --    3.15960   3.16470   3.18208   3.18913   3.19096
 Alpha virt. eigenvalues --    3.19794   3.20179   3.22355   3.23265   3.24166
 Alpha virt. eigenvalues --    3.24558   3.25988   3.26171   3.26723   3.27789
 Alpha virt. eigenvalues --    3.28162   3.28715   3.29554   3.30102   3.31276
 Alpha virt. eigenvalues --    3.31831   3.33334   3.34112   3.34922   3.36024
 Alpha virt. eigenvalues --    3.36177   3.37614   3.39388   3.40322   3.41137
 Alpha virt. eigenvalues --    3.41543   3.41690   3.43457   3.44700   3.45210
 Alpha virt. eigenvalues --    3.45411   3.47833   3.47897   3.49268   3.49430
 Alpha virt. eigenvalues --    3.50231   3.54129   3.56972   3.63527   3.67146
 Alpha virt. eigenvalues --    3.74702   3.74967   3.75947   3.83084   3.83678
 Alpha virt. eigenvalues --    3.86439   3.87597   3.88293   3.89817   3.91506
 Alpha virt. eigenvalues --    3.91845   3.92260   3.92547   3.93925   3.94180
 Alpha virt. eigenvalues --    3.95013   3.96113   3.97523   3.98557   3.99170
 Alpha virt. eigenvalues --    4.00372   4.01637   4.02336   4.03185   4.03326
 Alpha virt. eigenvalues --    4.05616   4.07043   4.14147   4.14534   4.14679
 Alpha virt. eigenvalues --    4.17056   4.18569   4.20037   4.21116   4.21507
 Alpha virt. eigenvalues --    4.23479   4.23641   4.27047   4.27958   4.28459
 Alpha virt. eigenvalues --    4.29147   4.34876   4.38275   4.41375   4.42155
 Alpha virt. eigenvalues --    4.44007   4.44710   4.46877   4.48052   4.48726
 Alpha virt. eigenvalues --    4.50088   4.53619   4.57153   4.69028   5.37630
 Alpha virt. eigenvalues --    5.38107   5.39846   5.46987   5.53296   5.58897
 Alpha virt. eigenvalues --    5.67496   5.69306   5.70519   5.74541   5.79037
 Alpha virt. eigenvalues --    5.79627   5.81109   5.83227   5.90615  14.96577
 Alpha virt. eigenvalues --   23.95501  23.99127  24.01607  24.02030  24.02486
 Alpha virt. eigenvalues --   24.02968  24.03116  24.03405  24.04533  24.09872
 Alpha virt. eigenvalues --   24.10714  24.12100  24.12851  24.13556  24.14204
 Alpha virt. eigenvalues --   24.14453  24.15427  24.17074  24.18002  24.18793
 Alpha virt. eigenvalues --   24.19639  24.23775  24.43916  50.13558  50.14526
 Alpha virt. eigenvalues --   50.15509  50.24786  50.25752
          Condensed to atoms (all electrons):
 Mulliken charges:
               1
     1  Li  -0.205442
     2  C   -0.031548
     3  O    0.052170
     4  C   -0.724644
     5  H    0.097395
     6  C    0.053504
     7  C   -0.494252
     8  H    0.226217
     9  H    0.220402
    10  H    0.136544
    11  H    0.238203
    12  H    0.172797
    13  H    0.251990
    14  C   -0.159595
    15  O    0.066652
    16  C   -0.532980
    17  H    0.187146
    18  C   -0.020849
    19  C   -0.669258
    20  H    0.195485
    21  H    0.237429
    22  H    0.138941
    23  H    0.186710
    24  H    0.213716
    25  H    0.227852
    26  C    0.069963
    27  O   -0.012715
    28  C   -0.809770
    29  H    0.174278
    30  C   -0.143263
    31  C   -0.366757
    32  H    0.166502
    33  H    0.243875
    34  H    0.311043
    35  H    0.254189
    36  H    0.176559
    37  H    0.239467
    38  O    0.118254
    39  H    0.185641
    40  H    0.208795
    41  H    0.225668
    42  C    0.070590
    43  C    0.195017
    44  H   -0.394387
    45  C   -0.623241
    46  H    0.201319
    47  H    0.175796
    48  H    0.143239
    49  C   -0.754074
    50  H    0.186803
    51  H    0.196591
    52  H    0.136976
    53  B    0.855671
    54  C   -0.809444
    55  H    0.129386
    56  H    0.131880
    57  H    0.164386
    58  O   -0.133811
    59  C    0.154158
    60  C   -0.708602
    61  C   -0.805143
    62  H    0.189042
    63  H    0.183122
    64  H    0.174938
    65  C   -0.475480
    66  H    0.181774
    67  H    0.097962
    68  H    0.205913
    69  C   -0.226566
    70  H   -0.088829
    71  H    0.220793
    72  H    0.187798
    73  C   -0.692816
    74  H    0.116423
    75  H    0.260814
    76  H    0.045689
 Sum of Mulliken charges =  -0.00000
 Mulliken charges with hydrogens summed into heavy atoms:
               1
     1  Li  -0.205442
     2  C    0.274642
     3  O    0.052170
     4  C   -0.278025
     6  C    0.428250
     7  C   -0.069465
    14  C    0.213192
    15  O    0.066652
    16  C   -0.100066
    18  C    0.304802
    19  C   -0.227690
    26  C    0.469909
    27  O   -0.012715
    28  C   -0.399393
    30  C    0.421968
    31  C    0.049270
    38  O    0.118254
    42  C    0.070590
    43  C   -0.199370
    45  C   -0.102887
    49  C   -0.233703
    53  B    0.855671
    54  C   -0.383791
    58  O   -0.133811
    59  C    0.154158
    60  C   -0.708602
    61  C   -0.258041
    65  C    0.010169
    69  C    0.093195
    73  C   -0.269889
 Electronic spatial extent (au):  <R**2>=          19305.8745
 Charge=             -0.0000 electrons
 Dipole moment (field-independent basis, Debye):
    X=              9.5052    Y=              6.8446    Z=              9.0037  Tot=             14.7738
 Quadrupole moment (field-independent basis, Debye-Ang):
   XX=           -225.7729   YY=           -185.7050   ZZ=           -140.7262
   XY=            -28.8448   XZ=             -6.6703   YZ=              2.9832
 Traceless Quadrupole moment (field-independent basis, Debye-Ang):
   XX=            -41.7049   YY=             -1.6370   ZZ=             43.3419
   XY=            -28.8448   XZ=             -6.6703   YZ=              2.9832
 Octapole moment (field-independent basis, Debye-Ang**2):
  XXX=           1424.0090  YYY=            503.6417  ZZZ=           -947.7819  XYY=            422.6262
  XXY=            259.2846  XXZ=           -372.4947  XZZ=            329.9403  YZZ=            135.3528
  YYZ=           -338.9910  XYZ=            -23.7062
 Hexadecapole moment (field-independent basis, Debye-Ang**3):
 XXXX=         -10641.2327 YYYY=          -6553.2841 ZZZZ=          -9059.5467 XXXY=          -1416.4815
 XXXZ=           1972.2837 YYYX=          -1068.9336 YYYZ=            977.1319 ZZZX=           1466.3595
 ZZZY=            714.6882 XXYY=          -2820.0453 XXZZ=          -3112.1348 YYZZ=          -2515.5121
 XXYZ=            397.6383 YYXZ=            557.7182 ZZXY=           -325.4738
 N-N= 3.479166660086D+03 E-N=-1.001962682785D+04  KE= 1.306764635828D+03
 No NMR shielding tensors so no spin-rotation constants.
 Leave Link  601 at Mon Sep  8 15:07:39 2025, MaxMem=  4294967296 cpu:               4.9 elap:               0.4
 (Enter /opt/packages/gaussian/g16RevC.01/g16/l9999.exe)
 Unable to Open any file for archive entry.
 1\1\GINC-R169\SP\RwB97XD\6-311++G(d,p)\C23H46B1Li1O5\WHUGHES\08-Sep-20
 25\0\\#p wb97xd/6-311++g** nosymm int=ultrafine scrf=(smd,solvent=tetr
 ahydrofuran)\\Title\\0,1\Li,0,-1.724807,-0.252327,2.766251\C,0,-3.0071
 94,-1.136474,5.391258\O,0,-1.894599,-1.236864,4.495165\C,0,-3.356637,-
 2.576564,5.820035\H,0,-3.814977,-0.636526,4.853138\C,0,-1.2116,-2.4536
 4,4.788643\C,0,-2.327932,-3.446514,5.073595\H,0,-4.383484,-2.840478,5.
 553401\H,0,-3.251162,-2.687129,6.903665\H,0,-0.592456,-2.699551,3.9249
 38\H,0,-0.566711,-2.308546,5.669199\H,0,-2.738326,-3.809326,4.125806\H
 ,0,-1.987708,-4.302635,5.663036\C,0,-1.021072,2.709949,3.281356\O,0,-1
 .916087,1.617311,3.469559\C,0,-1.921171,3.8581,2.840666\H,0,-0.276834,
 2.405798,2.54296\C,0,-3.094006,2.134695,4.093716\C,0,-3.214487,3.60519
 6,3.642332\H,0,-2.111609,3.786164,1.764781\H,0,-1.47729,4.835895,3.047
 1\H,0,-3.932066,1.508418,3.777964\H,0,-2.984096,2.056176,5.183082\H,0,
 -4.105678,3.766464,3.029723\H,0,-3.280299,4.267045,4.510702\C,0,1.0464
 03,-0.020473,3.722894\O,0,0.258357,-0.230662,2.547371\C,0,2.051208,-1.
 187811,3.777651\H,0,0.357913,0.022041,4.568856\C,0,1.119721,-0.840327,
 1.58795\C,0,1.914623,-1.862211,2.394627\H,0,1.812925,-1.884775,4.58549
 7\H,0,3.064918,-0.813713,3.946858\H,0,0.49949,-1.27185,0.800843\H,0,1.
 773474,-0.071891,1.149515\H,0,1.344527,-2.793275,2.472429\H,0,2.879601
 ,-2.090063,1.933701\O,0,-2.79856,-0.636905,1.270842\H,0,-0.513796,2.93
 6805,4.231437\H,0,-2.71646,-0.517823,6.249879\H,0,1.563515,0.94448,3.6
 33946\C,0,-2.988491,-3.233473,1.235443\C,0,-1.675558,-3.338487,1.49771
 4\H,0,-1.126317,-2.402438,1.616385\C,0,-0.827872,-4.573205,1.667791\H,
 0,0.060741,-4.535265,1.021882\H,0,-0.457576,-4.666608,2.700136\H,0,-1.
 363679,-5.499195,1.435509\C,0,-3.874972,-4.447431,1.060076\H,0,-4.5050
 08,-4.596349,1.949448\H,0,-4.563618,-4.292763,0.219251\H,0,-3.336805,-
 5.386393,0.882757\B,0,-3.77484,-1.798636,1.136259\C,0,-4.964597,-1.732
 935,2.262363\H,0,-4.632525,-2.069824,3.256091\H,0,-5.364464,-0.71357,2
 .377459\H,0,-5.812719,-2.377134,1.9813\O,0,-4.359309,-1.566799,-0.2211
 \C,0,-3.534541,-0.679728,-0.940122\C,0,-2.979792,0.25994,0.180927\C,0,
 -4.371972,0.041182,-1.995617\H,0,-4.687184,-0.671937,-2.766893\H,0,-5.
 273265,0.480585,-1.558269\H,0,-3.796923,0.836457,-2.487107\C,0,-2.4096
 27,-1.451879,-1.650208\H,0,-1.833477,-0.807916,-2.326689\H,0,-1.725367
 ,-1.907613,-0.929319\H,0,-2.85796,-2.257034,-2.244034\C,0,-3.99385,1.3
 40326,0.577982\H,0,-3.652332,1.819047,1.49946\H,0,-4.08655,2.115403,-0
 .192424\H,0,-4.982476,0.908634,0.758306\C,0,-1.649167,0.930099,-0.1478
 9\H,0,-0.861784,0.195198,-0.331741\H,0,-1.741947,1.568173,-1.03544\H,0
 ,-1.331703,1.56265,0.688999\\Version=ES64L-G16RevC.01\HF=-1312.8086437
 \RMSD=3.164e-09\Dipole=3.7396399,2.6928561,3.542338\Quadrupole=-31.006
 535,-1.2170684,32.2236033,-21.4454048,-4.9592104,2.2179472\PG=C01 [X(C
 23H46B1Li1O5)]\\@
 The archive entry for this job was punched.


 READER, WHETHER YOU BE DILETTANTE OR PROFESSOR ... SHOW YOURSELF TO BE
 MORE HUMAN THAN CRITICAL, AND THEN YOUR PLEASURE WILL INCREASE.
                                           -- DOMENICO SCARLATTI (1738)
 Job cpu time:       0 days  3 hours 56 minutes 13.3 seconds.
 Elapsed time:       0 days  0 hours 15 minutes  5.1 seconds.
 File lengths (MBytes):  RWF=    830 Int=      0 D2E=      0 Chk=     58 Scr=      1
 Normal termination of Gaussian 16 at Mon Sep  8 15:07:39 2025.
