Job Start Time: Wed Oct  8 15:27:45 MDT 2025
SLURM Job ID: 768199
SLURM Job Name: r1-li-3thf-c4_tzpop-sp
 Entering Gaussian System, Link 0=/opt/apps/Gaussian/G16C/g16/g16
 Initial command:
 /opt/apps/Gaussian/G16C/g16/l1.exe "/tmp/768199/Gau-239487.inp" -scrdir="/tmp/768199/"
 Entering Link 1 = /opt/apps/Gaussian/G16C/g16/l1.exe PID=    239491.
  
 Copyright (c) 1988-2019, Gaussian, Inc.  All Rights Reserved.
  
 This is part of the Gaussian(R) 16 program.  It is based on
 the Gaussian(R) 09 system (copyright 2009, Gaussian, Inc.),
 the Gaussian(R) 03 system (copyright 2003, Gaussian, Inc.),
 the Gaussian(R) 98 system (copyright 1998, Gaussian, Inc.),
 the Gaussian(R) 94 system (copyright 1995, Gaussian, Inc.),
 the Gaussian 92(TM) system (copyright 1992, Gaussian, Inc.),
 the Gaussian 90(TM) system (copyright 1990, Gaussian, Inc.),
 the Gaussian 88(TM) system (copyright 1988, Gaussian, Inc.),
 the Gaussian 86(TM) system (copyright 1986, Carnegie Mellon
 University), and the Gaussian 82(TM) system (copyright 1983,
 Carnegie Mellon University). Gaussian is a federally registered
 trademark of Gaussian, Inc.
  
 This software contains proprietary and confidential information,
 including trade secrets, belonging to Gaussian, Inc.
  
 This software is provided under written license and may be
 used, copied, transmitted, or stored only in accord with that
 written license.
  
 The following legend is applicable only to US Government
 contracts under FAR:
  
                    RESTRICTED RIGHTS LEGEND
  
 Use, reproduction and disclosure by the US Government is
 subject to restrictions as set forth in subparagraphs (a)
 and (c) of the Commercial Computer Software - Restricted
 Rights clause in FAR 52.227-19.
  
 Gaussian, Inc.
 340 Quinnipiac St., Bldg. 40, Wallingford CT 06492
  
  
 ---------------------------------------------------------------
 Warning -- This program may not be used in any manner that
 competes with the business of Gaussian, Inc. or will provide
 assistance to any competitor of Gaussian, Inc.  The licensee
 of this program is prohibited from giving any competitor of
 Gaussian, Inc. access to this program.  By using this program,
 the user acknowledges that Gaussian, Inc. is engaged in the
 business of creating and licensing software in the field of
 computational chemistry and represents and warrants to the
 licensee that it is not a competitor of Gaussian, Inc. and that
 it will not use this program in any manner prohibited above.
 ---------------------------------------------------------------
  

 Cite this work as:
 Gaussian 16, Revision C.01,
 M. J. Frisch, G. W. Trucks, H. B. Schlegel, G. E. Scuseria, 
 M. A. Robb, J. R. Cheeseman, G. Scalmani, V. Barone, 
 G. A. Petersson, H. Nakatsuji, X. Li, M. Caricato, A. V. Marenich, 
 J. Bloino, B. G. Janesko, R. Gomperts, B. Mennucci, H. P. Hratchian, 
 J. V. Ortiz, A. F. Izmaylov, J. L. Sonnenberg, D. Williams-Young, 
 F. Ding, F. Lipparini, F. Egidi, J. Goings, B. Peng, A. Petrone, 
 T. Henderson, D. Ranasinghe, V. G. Zakrzewski, J. Gao, N. Rega, 
 G. Zheng, W. Liang, M. Hada, M. Ehara, K. Toyota, R. Fukuda, 
 J. Hasegawa, M. Ishida, T. Nakajima, Y. Honda, O. Kitao, H. Nakai, 
 T. Vreven, K. Throssell, J. A. Montgomery, Jr., J. E. Peralta, 
 F. Ogliaro, M. J. Bearpark, J. J. Heyd, E. N. Brothers, K. N. Kudin, 
 V. N. Staroverov, T. A. Keith, R. Kobayashi, J. Normand, 
 K. Raghavachari, A. P. Rendell, J. C. Burant, S. S. Iyengar, 
 J. Tomasi, M. Cossi, J. M. Millam, M. Klene, C. Adamo, R. Cammi, 
 J. W. Ochterski, R. L. Martin, K. Morokuma, O. Farkas, 
 J. B. Foresman, and D. J. Fox, Gaussian, Inc., Wallingford CT, 2019.
 
 ******************************************
 Gaussian 16:  AS64L-G16RevC.01  3-Jul-2019
                 8-Oct-2025 
 ******************************************
 %chk=r1-li-3thf-c4_tzpop-sp.chk
 %nprocshared=4
 Will use up to    4 processors via shared memory.
 %mem=8GB
 ----------------------------------------------------------------------
 # wb97xd/6-311++g** nosymm int=ultrafine scrf=(smd,solvent=tetrahydrof
 uran)
 ----------------------------------------------------------------------
 1/38=1,172=1/1;
 2/12=2,15=1,17=6,18=5,40=1/2;
 3/5=4,6=6,7=1111,11=2,25=1,30=1,70=32201,72=20,74=-58,75=-5/1,2,3;
 4//1;
 5/5=2,38=5,53=20/2;
 6/7=2,8=2,9=2,10=2,28=1/1;
 99/5=1,9=1/99;
 ----------------------
 r1-li-3thf-c4_tzpop-sp
 ----------------------
 Symbolic Z-matrix:
 Charge =  0 Multiplicity = 1
 Li                    0.8879    0.2801   -0.0438 
 C                     1.8308    3.2459    0.5322 
 O                     1.8814    2.1212   -0.3496 
 C                     3.2673    3.7931    0.6243 
 H                     1.4279    2.8965    1.4848 
 C                     2.9059    2.3977   -1.3041 
 C                     4.0255    3.0478   -0.4951 
 H                     3.7095    3.5952    1.605 
 H                     3.2758    4.8755    0.4687 
 H                     3.1829    1.452    -1.7702 
 H                     2.5141    3.0842   -2.0696 
 H                     4.6796    2.2768   -0.0755 
 H                     4.6383    3.7139   -1.1088 
 C                     0.9914   -0.0835   -2.8544 
 O                     1.725    -0.506    -1.6874 
 C                     0.9955   -1.2695   -3.8252 
 H                     1.4772    0.8035   -3.2755 
 C                     2.2731   -1.8097   -1.9075 
 C                     1.3444   -2.4576   -2.9221 
 H                     1.7653   -1.1348   -4.5931 
 H                     0.0302   -1.3866   -4.3254 
 H                     3.2935   -1.7095   -2.3051 
 H                     2.3144   -2.3207   -0.9431 
 H                     1.8238   -3.2797   -3.4612 
 H                     0.4455   -2.8343   -2.4232 
 C                     2.8617    0.532     2.3508 
 O                     1.619     0.0807    1.8148 
 C                     2.5088    1.2953    3.6417 
 H                     3.3497    1.1366    1.5855 
 C                     0.8042   -0.2553    2.9418 
 C                     1.0407    0.8926    3.9187 
 H                     2.6067    2.3764    3.5069 
 H                     3.1736    1.0003    4.4585 
 H                    -0.2221   -0.3794    2.5907 
 H                     1.1497   -1.2124    3.3599 
 H                     0.3621    1.723     3.6952 
 H                     0.8719    0.5882    4.9553 
 O                    -1.0006   -0.1745   -0.2519 
 H                    -0.0142    0.1832   -2.5172 
 H                     1.1463    3.9974    0.1166 
 H                     3.4914   -0.3422    2.5663 
 C                    -2.2761   -2.3786   -0.9253 
 C                    -2.2698   -2.0518   -2.229 
 H                    -1.7154   -1.1518   -2.5024 
 C                    -2.9067   -2.7512   -3.4034 
 H                    -3.5238   -3.609    -3.1172 
 H                    -3.5444   -2.0615   -3.9747 
 H                    -2.1429   -3.1194   -4.1045 
 C                    -2.9909   -3.6044   -0.4002 
 H                    -3.6203   -4.122    -1.1341 
 H                    -2.264    -4.3367   -0.0185 
 H                    -3.6225   -3.3326    0.4555 
 B                    -1.4022   -1.5669    0.208 
 C                    -0.1115   -2.4945    0.6203 
 H                     0.7786   -1.9258    0.9177 
 H                    -0.3749   -3.1245    1.484 
 H                     0.2024   -3.1799   -0.1796 
 O                    -2.1954   -1.2365    1.4263 
 C                    -2.8956   -0.035     1.2085 
 C                    -1.9994    0.7609    0.1495 
 C                    -3.0424    0.682     2.5553 
 H                    -3.6061    0.0379    3.2403 
 H                    -2.0741    0.8906    3.0197 
 H                    -3.5895    1.6274    2.4548 
 C                    -4.316    -0.3448    0.7009 
 H                    -4.9028    0.5669    0.5345 
 H                    -4.2997   -0.9211   -0.2272 
 H                    -4.833    -0.9449    1.4589 
 C                    -1.2711    1.9686    0.742 
 H                    -1.9641    2.7355    1.1047 
 H                    -0.6158    1.6791    1.5684 
 H                    -0.6517    2.4231   -0.0383 
 C                    -2.7733    1.2536   -1.0791 
 H                    -3.5177    2.0103   -0.8016 
 H                    -2.0715    1.7165   -1.7838 
 H                    -3.2813    0.4397   -1.5991 
 
 Symmetry turned off by external request.
 Stoichiometry    C23H46BLiO5
 Framework group  C1[X(C23H46BLiO5)]
 Deg. of freedom   222
 Full point group                 C1      NOp   1
                          Input orientation:                          
 ---------------------------------------------------------------------
 Center     Atomic      Atomic             Coordinates (Angstroms)
 Number     Number       Type             X           Y           Z
 ---------------------------------------------------------------------
      1          3           0        0.887900    0.280100   -0.043800
      2          6           0        1.830800    3.245900    0.532200
      3          8           0        1.881400    2.121200   -0.349600
      4          6           0        3.267300    3.793100    0.624300
      5          1           0        1.427900    2.896500    1.484800
      6          6           0        2.905900    2.397700   -1.304100
      7          6           0        4.025500    3.047800   -0.495100
      8          1           0        3.709500    3.595200    1.605000
      9          1           0        3.275800    4.875500    0.468700
     10          1           0        3.182900    1.452000   -1.770200
     11          1           0        2.514100    3.084200   -2.069600
     12          1           0        4.679600    2.276800   -0.075500
     13          1           0        4.638300    3.713900   -1.108800
     14          6           0        0.991400   -0.083500   -2.854400
     15          8           0        1.725000   -0.506000   -1.687400
     16          6           0        0.995500   -1.269500   -3.825200
     17          1           0        1.477200    0.803500   -3.275500
     18          6           0        2.273100   -1.809700   -1.907500
     19          6           0        1.344400   -2.457600   -2.922100
     20          1           0        1.765300   -1.134800   -4.593100
     21          1           0        0.030200   -1.386600   -4.325400
     22          1           0        3.293500   -1.709500   -2.305100
     23          1           0        2.314400   -2.320700   -0.943100
     24          1           0        1.823800   -3.279700   -3.461200
     25          1           0        0.445500   -2.834300   -2.423200
     26          6           0        2.861700    0.532000    2.350800
     27          8           0        1.619000    0.080700    1.814800
     28          6           0        2.508800    1.295300    3.641700
     29          1           0        3.349700    1.136600    1.585500
     30          6           0        0.804200   -0.255300    2.941800
     31          6           0        1.040700    0.892600    3.918700
     32          1           0        2.606700    2.376400    3.506900
     33          1           0        3.173600    1.000300    4.458500
     34          1           0       -0.222100   -0.379400    2.590700
     35          1           0        1.149700   -1.212400    3.359900
     36          1           0        0.362100    1.723000    3.695200
     37          1           0        0.871900    0.588200    4.955300
     38          8           0       -1.000600   -0.174500   -0.251900
     39          1           0       -0.014200    0.183200   -2.517200
     40          1           0        1.146300    3.997400    0.116600
     41          1           0        3.491400   -0.342200    2.566300
     42          6           0       -2.276100   -2.378600   -0.925300
     43          6           0       -2.269800   -2.051800   -2.229000
     44          1           0       -1.715400   -1.151800   -2.502400
     45          6           0       -2.906700   -2.751200   -3.403400
     46          1           0       -3.523800   -3.609000   -3.117200
     47          1           0       -3.544400   -2.061500   -3.974700
     48          1           0       -2.142900   -3.119400   -4.104500
     49          6           0       -2.990900   -3.604400   -0.400200
     50          1           0       -3.620300   -4.122000   -1.134100
     51          1           0       -2.264000   -4.336700   -0.018500
     52          1           0       -3.622500   -3.332600    0.455500
     53          5           0       -1.402200   -1.566900    0.208000
     54          6           0       -0.111500   -2.494500    0.620300
     55          1           0        0.778600   -1.925800    0.917700
     56          1           0       -0.374900   -3.124500    1.484000
     57          1           0        0.202400   -3.179900   -0.179600
     58          8           0       -2.195400   -1.236500    1.426300
     59          6           0       -2.895600   -0.035000    1.208500
     60          6           0       -1.999400    0.760900    0.149500
     61          6           0       -3.042400    0.682000    2.555300
     62          1           0       -3.606100    0.037900    3.240300
     63          1           0       -2.074100    0.890600    3.019700
     64          1           0       -3.589500    1.627400    2.454800
     65          6           0       -4.316000   -0.344800    0.700900
     66          1           0       -4.902800    0.566900    0.534500
     67          1           0       -4.299700   -0.921100   -0.227200
     68          1           0       -4.833000   -0.944900    1.458900
     69          6           0       -1.271100    1.968600    0.742000
     70          1           0       -1.964100    2.735500    1.104700
     71          1           0       -0.615800    1.679100    1.568400
     72          1           0       -0.651700    2.423100   -0.038300
     73          6           0       -2.773300    1.253600   -1.079100
     74          1           0       -3.517700    2.010300   -0.801600
     75          1           0       -2.071500    1.716500   -1.783800
     76          1           0       -3.281300    0.439700   -1.599100
 ---------------------------------------------------------------------
 Rotational constants (GHZ):           0.1976144           0.1332375           0.1045934
 Standard basis: 6-311++G(d,p) (5D, 7F)
   982 basis functions,  1494 primitive gaussians,  1012 cartesian basis functions
   116 alpha electrons      116 beta electrons
       nuclear repulsion energy      3454.6829839618 Hartrees.
 NAtoms=   76 NActive=   76 NUniq=   76 SFac= 1.00D+00 NAtFMM=   60 NAOKFM=T Big=T
 Integral buffers will be    131072 words long.
 Raffenetti 2 integral format.
 Two-electron integral symmetry is turned off.
 Nuclear repulsion after empirical dispersion term =     3454.5841907417 Hartrees.
 ------------------------------------------------------------------------------
 Polarizable Continuum Model (PCM)
 =================================
 Model                : PCM.
 Atomic radii         : SMD-Coulomb.
 Polarization charges : Total charges.
 Charge compensation  : None.
 Solution method      : On-the-fly selection.
 Cavity type          : VdW (van der Waals Surface) (Alpha=1.000).
 Cavity algorithm     : GePol (No added spheres)
                        Default sphere list used, NSphG=   76.
                        Lebedev-Laikov grids with approx.  5.0 points / Ang**2.
                        Smoothing algorithm: York/Karplus (Gamma=1.0000).
                        Polarization charges: spherical gaussians, with
                                              point-specific exponents (IZeta= 3).
                        Self-potential: point-specific (ISelfS= 7).
                        Self-field    : sphere-specific E.n sum rule (ISelfD= 2).
 Solvent              : TetraHydroFuran, Eps=   7.425700 Eps(inf)=   1.974025
 ------------------------------------------------------------------------------
 ------------------------------------------------------------------------------
 Atomic radii for non-electrostatic terms: SMD-CDS.
 ------------------------------------------------------------------------------
 Nuclear repulsion after PCM non-electrostatic terms =     3454.5778847401 Hartrees.
 One-electron integrals computed using PRISM.
 NBasis=   982 RedAO= T EigKep=  1.17D-06  NBF=   982
 NBsUse=   979 1.00D-06 EigRej=  9.57D-07 NBFU=   979
 ExpMin= 7.40D-03 ExpMax= 8.59D+03 ExpMxC= 1.30D+03 IAcc=3 IRadAn=         5 AccDes= 0.00D+00
 Harris functional with IExCor= 4639 and IRadAn=       5 diagonalized for initial guess.
 HarFok:  IExCor= 4639 AccDes= 0.00D+00 IRadAn=         5 IDoV= 1 UseB2=F ITyADJ=14
 ICtDFT=  3500011 ScaDFX=  1.000000  1.000000  1.000000  1.000000
 FoFCou: FMM=F IPFlag=           0 FMFlag=      100000 FMFlg1=        2001
         NFxFlg=           0 DoJE=T BraDBF=F KetDBF=T FulRan=T
         wScrn=  0.000000 ICntrl=       500 IOpCl=  0 I1Cent=   200000004 NGrid=           0
         NMat0=    1 NMatS0=      1 NMatT0=    0 NMatD0=    1 NMtDS0=    0 NMtDT0=    0
 Symmetry not used in FoFCou.
 Requested convergence on RMS density matrix=1.00D-08 within 128 cycles.
 Requested convergence on MAX density matrix=1.00D-06.
 Requested convergence on             energy=1.00D-06.
 No special actions if energy rises.
 Inv3:  Mode=1 IEnd=    57921708.
 Iteration    1 A*A^-1 deviation from unit magnitude is 2.33D-14 for   4390.
 Iteration    1 A*A^-1 deviation from orthogonality  is 4.72D-15 for   4390   4011.
 Iteration    1 A^-1*A deviation from unit magnitude is 2.33D-14 for   4390.
 Iteration    1 A^-1*A deviation from orthogonality  is 4.76D-15 for   3127   3067.
 Error on total polarization charges =  0.07213
 SCF Done:  E(RwB97XD) =  -1312.79891517     A.U. after   14 cycles
            NFock= 14  Conv=0.97D-08     -V/T= 2.0046
 SMD-CDS (non-electrostatic) energy       (kcal/mol) =      -3.96
 (included in total energy above)

 **********************************************************************

            Population analysis using the SCF Density.

 **********************************************************************

 Alpha  occ. eigenvalues --  -19.26171 -19.26167 -19.25557 -19.19294 -19.17533
 Alpha  occ. eigenvalues --  -10.32650 -10.32557 -10.32437 -10.32197 -10.31955
 Alpha  occ. eigenvalues --  -10.31798 -10.31763 -10.31197 -10.28041 -10.27965
 Alpha  occ. eigenvalues --  -10.27910 -10.27722 -10.27593 -10.27225 -10.25504
 Alpha  occ. eigenvalues --  -10.25490 -10.25012 -10.24965 -10.24480 -10.24434
 Alpha  occ. eigenvalues --  -10.23994 -10.22459 -10.20846  -6.80118  -2.00329
 Alpha  occ. eigenvalues --   -1.15437  -1.15130  -1.14328  -1.09895  -1.03461
 Alpha  occ. eigenvalues --   -0.88100  -0.87925  -0.87747  -0.87237  -0.85957
 Alpha  occ. eigenvalues --   -0.83947  -0.83510  -0.83373  -0.81806  -0.79181
 Alpha  occ. eigenvalues --   -0.78141  -0.75027  -0.74610  -0.71715  -0.69472
 Alpha  occ. eigenvalues --   -0.69203  -0.68772  -0.68529  -0.68357  -0.68155
 Alpha  occ. eigenvalues --   -0.67702  -0.61006  -0.60442  -0.59989  -0.59323
 Alpha  occ. eigenvalues --   -0.58920  -0.58420  -0.57940  -0.57602  -0.57009
 Alpha  occ. eigenvalues --   -0.54297  -0.53980  -0.53678  -0.53408  -0.52538
 Alpha  occ. eigenvalues --   -0.51527  -0.50734  -0.50480  -0.50294  -0.50152
 Alpha  occ. eigenvalues --   -0.49119  -0.48604  -0.48323  -0.47935  -0.47788
 Alpha  occ. eigenvalues --   -0.47362  -0.46958  -0.46563  -0.46349  -0.45974
 Alpha  occ. eigenvalues --   -0.45706  -0.44916  -0.44519  -0.43998  -0.43875
 Alpha  occ. eigenvalues --   -0.43704  -0.43406  -0.43215  -0.42987  -0.42539
 Alpha  occ. eigenvalues --   -0.42364  -0.42175  -0.41900  -0.41706  -0.41311
 Alpha  occ. eigenvalues --   -0.41024  -0.40546  -0.40399  -0.40242  -0.40099
 Alpha  occ. eigenvalues --   -0.39760  -0.37436  -0.37053  -0.35724  -0.35292
 Alpha  occ. eigenvalues --   -0.35190  -0.34371  -0.33798  -0.30556  -0.28041
 Alpha  occ. eigenvalues --   -0.27525
 Alpha virt. eigenvalues --    0.02149   0.02398   0.02448   0.02704   0.05955
 Alpha virt. eigenvalues --    0.06066   0.06133   0.06287   0.06391   0.07029
 Alpha virt. eigenvalues --    0.07329   0.07476   0.07537   0.07681   0.07781
 Alpha virt. eigenvalues --    0.07907   0.08067   0.08192   0.08237   0.08555
 Alpha virt. eigenvalues --    0.09373   0.09512   0.09834   0.10097   0.10174
 Alpha virt. eigenvalues --    0.10590   0.10779   0.10911   0.11287   0.11569
 Alpha virt. eigenvalues --    0.11988   0.12030   0.12455   0.12687   0.12777
 Alpha virt. eigenvalues --    0.12900   0.13169   0.13486   0.13734   0.13963
 Alpha virt. eigenvalues --    0.14147   0.14281   0.14725   0.14989   0.15191
 Alpha virt. eigenvalues --    0.15355   0.15499   0.15887   0.16048   0.16174
 Alpha virt. eigenvalues --    0.16332   0.16610   0.16898   0.17142   0.17180
 Alpha virt. eigenvalues --    0.17416   0.17614   0.17879   0.17951   0.17991
 Alpha virt. eigenvalues --    0.18241   0.18692   0.18827   0.19006   0.19179
 Alpha virt. eigenvalues --    0.19272   0.19422   0.19579   0.19716   0.20044
 Alpha virt. eigenvalues --    0.20088   0.20331   0.20442   0.20591   0.20825
 Alpha virt. eigenvalues --    0.21006   0.21175   0.21280   0.21310   0.21339
 Alpha virt. eigenvalues --    0.21641   0.21777   0.22052   0.22145   0.22173
 Alpha virt. eigenvalues --    0.22285   0.22384   0.22526   0.22753   0.22864
 Alpha virt. eigenvalues --    0.22988   0.22999   0.23231   0.23283   0.23547
 Alpha virt. eigenvalues --    0.23637   0.23744   0.23812   0.23949   0.24131
 Alpha virt. eigenvalues --    0.24227   0.24351   0.24584   0.24736   0.25002
 Alpha virt. eigenvalues --    0.25195   0.25273   0.25343   0.25403   0.25549
 Alpha virt. eigenvalues --    0.26008   0.26067   0.26214   0.26458   0.26731
 Alpha virt. eigenvalues --    0.26904   0.27022   0.27199   0.27453   0.27610
 Alpha virt. eigenvalues --    0.27854   0.27963   0.28246   0.28376   0.28522
 Alpha virt. eigenvalues --    0.28598   0.28906   0.29285   0.29425   0.29607
 Alpha virt. eigenvalues --    0.29708   0.29917   0.30105   0.30319   0.30389
 Alpha virt. eigenvalues --    0.30764   0.30954   0.31034   0.31199   0.31385
 Alpha virt. eigenvalues --    0.31588   0.31877   0.32057   0.32236   0.32292
 Alpha virt. eigenvalues --    0.32627   0.32772   0.32916   0.33023   0.33323
 Alpha virt. eigenvalues --    0.33435   0.33618   0.33982   0.34002   0.34422
 Alpha virt. eigenvalues --    0.34514   0.34847   0.35218   0.35565   0.35842
 Alpha virt. eigenvalues --    0.36076   0.36253   0.36433   0.36659   0.36976
 Alpha virt. eigenvalues --    0.37194   0.37474   0.37668   0.37741   0.38289
 Alpha virt. eigenvalues --    0.38411   0.38635   0.39109   0.39131   0.39337
 Alpha virt. eigenvalues --    0.39421   0.39709   0.39927   0.40062   0.40202
 Alpha virt. eigenvalues --    0.40381   0.40705   0.41016   0.41085   0.41187
 Alpha virt. eigenvalues --    0.41508   0.41830   0.41953   0.42269   0.42388
 Alpha virt. eigenvalues --    0.42575   0.42716   0.43028   0.43205   0.43412
 Alpha virt. eigenvalues --    0.43536   0.43925   0.44171   0.44219   0.44560
 Alpha virt. eigenvalues --    0.44991   0.45101   0.45400   0.45661   0.45740
 Alpha virt. eigenvalues --    0.46116   0.46205   0.46445   0.46846   0.46902
 Alpha virt. eigenvalues --    0.47159   0.47280   0.47600   0.47636   0.48112
 Alpha virt. eigenvalues --    0.48200   0.48865   0.49175   0.49537   0.49979
 Alpha virt. eigenvalues --    0.50310   0.50527   0.51044   0.51160   0.52087
 Alpha virt. eigenvalues --    0.52424   0.52638   0.53346   0.53718   0.54522
 Alpha virt. eigenvalues --    0.54772   0.54892   0.55589   0.55955   0.56484
 Alpha virt. eigenvalues --    0.57333   0.57817   0.58265   0.58780   0.59095
 Alpha virt. eigenvalues --    0.59534   0.60011   0.60292   0.60976   0.61112
 Alpha virt. eigenvalues --    0.61421   0.61668   0.61904   0.62560   0.62766
 Alpha virt. eigenvalues --    0.63314   0.63678   0.64219   0.64453   0.64800
 Alpha virt. eigenvalues --    0.65098   0.65731   0.66356   0.66736   0.67232
 Alpha virt. eigenvalues --    0.67548   0.67709   0.67974   0.68262   0.68589
 Alpha virt. eigenvalues --    0.68920   0.69484   0.70079   0.70334   0.70558
 Alpha virt. eigenvalues --    0.70663   0.71131   0.71552   0.71782   0.72123
 Alpha virt. eigenvalues --    0.72446   0.72897   0.73235   0.73304   0.73480
 Alpha virt. eigenvalues --    0.73646   0.74192   0.74585   0.74677   0.75229
 Alpha virt. eigenvalues --    0.75995   0.76104   0.76244   0.76669   0.76833
 Alpha virt. eigenvalues --    0.77289   0.77530   0.77711   0.78665   0.78727
 Alpha virt. eigenvalues --    0.78874   0.79312   0.79804   0.79897   0.80127
 Alpha virt. eigenvalues --    0.80560   0.80796   0.80898   0.81034   0.81433
 Alpha virt. eigenvalues --    0.81558   0.82174   0.82286   0.82589   0.82960
 Alpha virt. eigenvalues --    0.83345   0.83542   0.83833   0.84079   0.84324
 Alpha virt. eigenvalues --    0.84706   0.85104   0.85254   0.85641   0.85793
 Alpha virt. eigenvalues --    0.86386   0.86475   0.86599   0.86740   0.87038
 Alpha virt. eigenvalues --    0.87375   0.87509   0.87736   0.88069   0.88449
 Alpha virt. eigenvalues --    0.88847   0.89091   0.89518   0.89598   0.89780
 Alpha virt. eigenvalues --    0.90029   0.90450   0.90659   0.91067   0.91076
 Alpha virt. eigenvalues --    0.91587   0.91873   0.92380   0.92451   0.92763
 Alpha virt. eigenvalues --    0.92858   0.93277   0.93878   0.94004   0.94777
 Alpha virt. eigenvalues --    0.95108   0.95502   0.95884   0.96363   0.96798
 Alpha virt. eigenvalues --    0.97490   0.97575   0.98312   0.98653   0.99292
 Alpha virt. eigenvalues --    1.00484   1.00759   1.01649   1.02079   1.02985
 Alpha virt. eigenvalues --    1.03992   1.04807   1.05373   1.06506   1.07542
 Alpha virt. eigenvalues --    1.08171   1.08560   1.09883   1.10955   1.11360
 Alpha virt. eigenvalues --    1.12334   1.13337   1.13715   1.13780   1.14385
 Alpha virt. eigenvalues --    1.15029   1.15750   1.16513   1.18230   1.18730
 Alpha virt. eigenvalues --    1.19302   1.20157   1.21555   1.21710   1.22414
 Alpha virt. eigenvalues --    1.22813   1.23732   1.24524   1.25266   1.25932
 Alpha virt. eigenvalues --    1.26514   1.27630   1.28275   1.28854   1.29887
 Alpha virt. eigenvalues --    1.30286   1.30965   1.32194   1.33668   1.34487
 Alpha virt. eigenvalues --    1.34906   1.35734   1.36499   1.36730   1.37239
 Alpha virt. eigenvalues --    1.37806   1.38127   1.38862   1.39437   1.40208
 Alpha virt. eigenvalues --    1.40827   1.41553   1.42328   1.43300   1.43912
 Alpha virt. eigenvalues --    1.44280   1.45504   1.45881   1.46435   1.47079
 Alpha virt. eigenvalues --    1.48148   1.49190   1.49425   1.50142   1.50708
 Alpha virt. eigenvalues --    1.50974   1.52321   1.53296   1.54062   1.54630
 Alpha virt. eigenvalues --    1.55080   1.56042   1.56393   1.57310   1.58186
 Alpha virt. eigenvalues --    1.58261   1.58783   1.59265   1.59677   1.60048
 Alpha virt. eigenvalues --    1.61168   1.61501   1.62152   1.62569   1.63095
 Alpha virt. eigenvalues --    1.63520   1.63916   1.64059   1.64967   1.65393
 Alpha virt. eigenvalues --    1.65860   1.66031   1.66884   1.67408   1.67546
 Alpha virt. eigenvalues --    1.67635   1.67970   1.68298   1.68799   1.69322
 Alpha virt. eigenvalues --    1.69903   1.70310   1.70805   1.71352   1.71478
 Alpha virt. eigenvalues --    1.71596   1.71852   1.72339   1.72559   1.72844
 Alpha virt. eigenvalues --    1.72958   1.73200   1.74245   1.74383   1.74983
 Alpha virt. eigenvalues --    1.75336   1.75542   1.75628   1.76186   1.76653
 Alpha virt. eigenvalues --    1.76898   1.77137   1.77804   1.77901   1.78255
 Alpha virt. eigenvalues --    1.78832   1.79263   1.79474   1.79951   1.80269
 Alpha virt. eigenvalues --    1.80435   1.80864   1.81152   1.81539   1.82459
 Alpha virt. eigenvalues --    1.82883   1.83586   1.83984   1.84289   1.84641
 Alpha virt. eigenvalues --    1.85022   1.85207   1.85990   1.86624   1.87082
 Alpha virt. eigenvalues --    1.87499   1.87832   1.88307   1.88590   1.89282
 Alpha virt. eigenvalues --    1.89390   1.89874   1.90350   1.90619   1.90808
 Alpha virt. eigenvalues --    1.91336   1.91832   1.92399   1.92799   1.93041
 Alpha virt. eigenvalues --    1.93863   1.94674   1.94744   1.95373   1.95590
 Alpha virt. eigenvalues --    1.96059   1.96112   1.96462   1.97399   1.97849
 Alpha virt. eigenvalues --    1.98099   1.98830   1.99189   1.99809   2.00707
 Alpha virt. eigenvalues --    2.00901   2.01336   2.01648   2.02219   2.02767
 Alpha virt. eigenvalues --    2.03863   2.03914   2.04750   2.05058   2.05493
 Alpha virt. eigenvalues --    2.05788   2.06373   2.07061   2.07280   2.07631
 Alpha virt. eigenvalues --    2.08737   2.09412   2.09681   2.10396   2.10632
 Alpha virt. eigenvalues --    2.11073   2.11813   2.12659   2.14233   2.14692
 Alpha virt. eigenvalues --    2.15002   2.15306   2.15840   2.16000   2.17500
 Alpha virt. eigenvalues --    2.18503   2.19181   2.19644   2.20039   2.20847
 Alpha virt. eigenvalues --    2.21559   2.22751   2.23100   2.23851   2.24579
 Alpha virt. eigenvalues --    2.24950   2.25542   2.26411   2.27203   2.27449
 Alpha virt. eigenvalues --    2.28574   2.29675   2.30062   2.30598   2.31207
 Alpha virt. eigenvalues --    2.31923   2.32448   2.32792   2.33488   2.34515
 Alpha virt. eigenvalues --    2.35233   2.35619   2.36566   2.37494   2.37891
 Alpha virt. eigenvalues --    2.38973   2.39116   2.39991   2.41411   2.41496
 Alpha virt. eigenvalues --    2.41613   2.42577   2.43446   2.44085   2.44891
 Alpha virt. eigenvalues --    2.45088   2.46309   2.47089   2.47608   2.47824
 Alpha virt. eigenvalues --    2.49156   2.49502   2.50273   2.50743   2.53674
 Alpha virt. eigenvalues --    2.54738   2.55542   2.56809   2.57607   2.58024
 Alpha virt. eigenvalues --    2.58539   2.59260   2.59776   2.60337   2.61580
 Alpha virt. eigenvalues --    2.62428   2.62845   2.63003   2.63297   2.64321
 Alpha virt. eigenvalues --    2.64550   2.65298   2.66015   2.66247   2.67105
 Alpha virt. eigenvalues --    2.67234   2.67781   2.68001   2.68282   2.68562
 Alpha virt. eigenvalues --    2.69427   2.69560   2.69880   2.70450   2.70772
 Alpha virt. eigenvalues --    2.71502   2.71966   2.72363   2.72625   2.73022
 Alpha virt. eigenvalues --    2.73325   2.73796   2.74687   2.75103   2.75282
 Alpha virt. eigenvalues --    2.76029   2.76675   2.77846   2.78303   2.78726
 Alpha virt. eigenvalues --    2.79427   2.79988   2.80894   2.81294   2.82116
 Alpha virt. eigenvalues --    2.82538   2.82750   2.83537   2.84007   2.85136
 Alpha virt. eigenvalues --    2.85444   2.85652   2.86749   2.87789   2.88292
 Alpha virt. eigenvalues --    2.88711   2.89271   2.90050   2.90097   2.90800
 Alpha virt. eigenvalues --    2.91963   2.92237   2.92384   2.93549   2.94285
 Alpha virt. eigenvalues --    2.94983   2.95432   2.95925   2.96821   2.97382
 Alpha virt. eigenvalues --    2.97831   2.98830   2.99554   2.99844   2.99921
 Alpha virt. eigenvalues --    3.00761   3.01313   3.01972   3.02361   3.03298
 Alpha virt. eigenvalues --    3.03562   3.03801   3.04547   3.05214   3.06406
 Alpha virt. eigenvalues --    3.07286   3.07971   3.08180   3.09145   3.09747
 Alpha virt. eigenvalues --    3.10689   3.11914   3.13392   3.14395   3.14619
 Alpha virt. eigenvalues --    3.15137   3.16233   3.16546   3.17503   3.18324
 Alpha virt. eigenvalues --    3.19228   3.20416   3.20895   3.22033   3.24182
 Alpha virt. eigenvalues --    3.24286   3.25061   3.26219   3.26639   3.27530
 Alpha virt. eigenvalues --    3.28198   3.29067   3.30466   3.32331   3.32693
 Alpha virt. eigenvalues --    3.33742   3.34313   3.34912   3.35334   3.36786
 Alpha virt. eigenvalues --    3.37578   3.38066   3.39769   3.40471   3.41268
 Alpha virt. eigenvalues --    3.42065   3.42165   3.44033   3.44550   3.46299
 Alpha virt. eigenvalues --    3.46956   3.47478   3.48550   3.48877   3.49969
 Alpha virt. eigenvalues --    3.51895   3.54931   3.58878   3.64169   3.72433
 Alpha virt. eigenvalues --    3.73058   3.74251   3.77767   3.80147   3.81143
 Alpha virt. eigenvalues --    3.86400   3.89108   3.89592   3.90093   3.90955
 Alpha virt. eigenvalues --    3.91190   3.92256   3.92640   3.94093   3.94749
 Alpha virt. eigenvalues --    3.94982   3.96275   3.97262   3.97805   3.99047
 Alpha virt. eigenvalues --    3.99940   4.00844   4.01282   4.02074   4.03921
 Alpha virt. eigenvalues --    4.04938   4.08175   4.11173   4.14113   4.14512
 Alpha virt. eigenvalues --    4.15316   4.19076   4.19687   4.20861   4.21634
 Alpha virt. eigenvalues --    4.23719   4.24968   4.25507   4.27126   4.28062
 Alpha virt. eigenvalues --    4.30348   4.30915   4.35523   4.39926   4.40956
 Alpha virt. eigenvalues --    4.42515   4.43151   4.45923   4.48984   4.49982
 Alpha virt. eigenvalues --    4.50422   4.54729   4.56997   4.72732   5.32512
 Alpha virt. eigenvalues --    5.37063   5.38943   5.50138   5.59483   5.60093
 Alpha virt. eigenvalues --    5.65755   5.69210   5.70757   5.72428   5.76672
 Alpha virt. eigenvalues --    5.78360   5.79161   5.79963   5.95669  14.93096
 Alpha virt. eigenvalues --   23.95080  23.97150  24.01268  24.02052  24.02573
 Alpha virt. eigenvalues --   24.03412  24.04229  24.05331  24.05658  24.08618
 Alpha virt. eigenvalues --   24.10123  24.10815  24.12247  24.12369  24.13426
 Alpha virt. eigenvalues --   24.14503  24.16182  24.17019  24.18065  24.19453
 Alpha virt. eigenvalues --   24.20602  24.23288  24.43359  50.12688  50.14285
 Alpha virt. eigenvalues --   50.17147  50.24893  50.29109
          Condensed to atoms (all electrons):
 Mulliken charges:
               1
     1  Li  -0.811276
     2  C    0.006131
     3  O   -0.035747
     4  C   -0.668814
     5  H    0.208683
     6  C   -0.215805
     7  C   -0.568255
     8  H    0.168059
     9  H    0.230531
    10  H    0.098063
    11  H    0.196053
    12  H    0.207160
    13  H    0.229999
    14  C   -0.036213
    15  O    0.042186
    16  C   -0.475516
    17  H    0.162798
    18  C   -0.143123
    19  C   -0.481075
    20  H    0.225227
    21  H    0.213812
    22  H    0.210337
    23  H    0.174168
    24  H    0.256160
    25  H    0.175364
    26  C   -0.035698
    27  O    0.038846
    28  C   -0.581176
    29  H    0.168964
    30  C   -0.074278
    31  C   -0.414546
    32  H    0.156639
    33  H    0.222090
    34  H    0.204177
    35  H    0.293173
    36  H    0.212539
    37  H    0.231665
    38  O   -0.026245
    39  H    0.164733
    40  H    0.222510
    41  H    0.237436
    42  C   -0.115050
    43  C    0.163762
    44  H    0.128001
    45  C   -0.572462
    46  H    0.142746
    47  H    0.181793
    48  H    0.155945
    49  C   -0.701367
    50  H    0.122134
    51  H    0.191349
    52  H    0.177333
    53  B    0.148926
    54  C   -0.722047
    55  H    0.253147
    56  H    0.134883
    57  H    0.178703
    58  O   -0.013202
    59  C    0.064173
    60  C   -0.015016
    61  C   -0.512789
    62  H    0.194335
    63  H    0.114925
    64  H    0.196348
    65  C   -0.590704
    66  H    0.164253
    67  H    0.141527
    68  H    0.194021
    69  C   -0.570271
    70  H    0.256459
    71  H   -0.031473
    72  H    0.281040
    73  C   -0.678633
    74  H    0.213732
    75  H    0.182773
    76  H    0.150975
 Sum of Mulliken charges =  -0.00000
 Mulliken charges with hydrogens summed into heavy atoms:
               1
     1  Li  -0.811276
     2  C    0.437324
     3  O   -0.035747
     4  C   -0.270225
     6  C    0.078310
     7  C   -0.131097
    14  C    0.291317
    15  O    0.042186
    16  C   -0.036477
    18  C    0.241381
    19  C   -0.049551
    26  C    0.370702
    27  O    0.038846
    28  C   -0.202447
    30  C    0.423072
    31  C    0.029658
    38  O   -0.026245
    42  C   -0.115050
    43  C    0.291763
    45  C   -0.091978
    49  C   -0.210552
    53  B    0.148926
    54  C   -0.155314
    58  O   -0.013202
    59  C    0.064173
    60  C   -0.015016
    61  C   -0.007181
    65  C   -0.090903
    69  C   -0.064245
    73  C   -0.131152
 Electronic spatial extent (au):  <R**2>=          11959.6228
 Charge=             -0.0000 electrons
 Dipole moment (field-independent basis, Debye):
    X=             10.7163    Y=              8.5472    Z=             -0.3992  Tot=             13.7133
 Quadrupole moment (field-independent basis, Debye-Ang):
   XX=           -181.7003   YY=           -184.3067   ZZ=           -172.3180
   XY=             -2.9082   XZ=              1.0788   YZ=              5.3559
 Traceless Quadrupole moment (field-independent basis, Debye-Ang):
   XX=             -2.2586   YY=             -4.8650   ZZ=              7.1236
   XY=             -2.9082   XZ=              1.0788   YZ=              5.3559
 Octapole moment (field-independent basis, Debye-Ang**2):
  XXX=            145.2197  YYY=            105.1367  ZZZ=             16.9092  XYY=             77.8538
  XXY=             61.0864  XXZ=              4.6665  XZZ=             76.3866  YZZ=             18.3249
  YYZ=             -7.0876  XYZ=              3.7152
 Hexadecapole moment (field-independent basis, Debye-Ang**3):
 XXXX=          -6679.8467 YYYY=          -4615.9880 ZZZZ=          -4855.8422 XXXY=          -1246.4913
 XXXZ=           -163.0635 YYYX=          -1199.0322 YYYZ=           -806.2596 ZZZX=           -126.9512
 ZZZY=           -802.6634 XXYY=          -1829.7594 XXZZ=          -1909.6038 YYZZ=          -1625.9120
 XXYZ=           -265.8938 YYXZ=            -94.4478 ZZXY=           -441.8589
 N-N= 3.454577884740D+03 E-N=-9.970753710417D+03  KE= 1.306747130701D+03
 Unable to Open any file for archive entry.
 1\1\GINC-NODE10\SP\RwB97XD\6-311++G(d,p)\C23H46B1Li1O5\WHUGHES2\08-Oct
 -2025\0\\# wb97xd/6-311++g** nosymm int=ultrafine scrf=(smd,solvent=te
 trahydrofuran)\\r1-li-3thf-c4_tzpop-sp\\0,1\Li,0,0.8879,0.2801,-0.0438
 \C,0,1.8308,3.2459,0.5322\O,0,1.8814,2.1212,-0.3496\C,0,3.2673,3.7931,
 0.6243\H,0,1.4279,2.8965,1.4848\C,0,2.9059,2.3977,-1.3041\C,0,4.0255,3
 .0478,-0.4951\H,0,3.7095,3.5952,1.605\H,0,3.2758,4.8755,0.4687\H,0,3.1
 829,1.452,-1.7702\H,0,2.5141,3.0842,-2.0696\H,0,4.6796,2.2768,-0.0755\
 H,0,4.6383,3.7139,-1.1088\C,0,0.9914,-0.0835,-2.8544\O,0,1.725,-0.506,
 -1.6874\C,0,0.9955,-1.2695,-3.8252\H,0,1.4772,0.8035,-3.2755\C,0,2.273
 1,-1.8097,-1.9075\C,0,1.3444,-2.4576,-2.9221\H,0,1.7653,-1.1348,-4.593
 1\H,0,0.0302,-1.3866,-4.3254\H,0,3.2935,-1.7095,-2.3051\H,0,2.3144,-2.
 3207,-0.9431\H,0,1.8238,-3.2797,-3.4612\H,0,0.4455,-2.8343,-2.4232\C,0
 ,2.8617,0.532,2.3508\O,0,1.619,0.0807,1.8148\C,0,2.5088,1.2953,3.6417\
 H,0,3.3497,1.1366,1.5855\C,0,0.8042,-0.2553,2.9418\C,0,1.0407,0.8926,3
 .9187\H,0,2.6067,2.3764,3.5069\H,0,3.1736,1.0003,4.4585\H,0,-0.2221,-0
 .3794,2.5907\H,0,1.1497,-1.2124,3.3599\H,0,0.3621,1.723,3.6952\H,0,0.8
 719,0.5882,4.9553\O,0,-1.0006,-0.1745,-0.2519\H,0,-0.0142,0.1832,-2.51
 72\H,0,1.1463,3.9974,0.1166\H,0,3.4914,-0.3422,2.5663\C,0,-2.2761,-2.3
 786,-0.9253\C,0,-2.2698,-2.0518,-2.229\H,0,-1.7154,-1.1518,-2.5024\C,0
 ,-2.9067,-2.7512,-3.4034\H,0,-3.5238,-3.609,-3.1172\H,0,-3.5444,-2.061
 5,-3.9747\H,0,-2.1429,-3.1194,-4.1045\C,0,-2.9909,-3.6044,-0.4002\H,0,
 -3.6203,-4.122,-1.1341\H,0,-2.264,-4.3367,-0.0185\H,0,-3.6225,-3.3326,
 0.4555\B,0,-1.4022,-1.5669,0.208\C,0,-0.1115,-2.4945,0.6203\H,0,0.7786
 ,-1.9258,0.9177\H,0,-0.3749,-3.1245,1.484\H,0,0.2024,-3.1799,-0.1796\O
 ,0,-2.1954,-1.2365,1.4263\C,0,-2.8956,-0.035,1.2085\C,0,-1.9994,0.7609
 ,0.1495\C,0,-3.0424,0.682,2.5553\H,0,-3.6061,0.0379,3.2403\H,0,-2.0741
 ,0.8906,3.0197\H,0,-3.5895,1.6274,2.4548\C,0,-4.316,-0.3448,0.7009\H,0
 ,-4.9028,0.5669,0.5345\H,0,-4.2997,-0.9211,-0.2272\H,0,-4.833,-0.9449,
 1.4589\C,0,-1.2711,1.9686,0.742\H,0,-1.9641,2.7355,1.1047\H,0,-0.6158,
 1.6791,1.5684\H,0,-0.6517,2.4231,-0.0383\C,0,-2.7733,1.2536,-1.0791\H,
 0,-3.5177,2.0103,-0.8016\H,0,-2.0715,1.7165,-1.7838\H,0,-3.2813,0.4397
 ,-1.5991\\Version=AS64L-G16RevC.01\HF=-1312.7989152\RMSD=9.735e-09\Dip
 ole=4.2161156,3.3627392,-0.1570581\Quadrupole=-1.6792331,-3.6170253,5.
 2962583,-2.1621796,0.802091,3.9819601\PG=C01 [X(C23H46B1Li1O5)]\\@
 The archive entry for this job was punched.


 WE HAVE LEFT UNDONE THOSE THINGS WHICH WE OUGHT TO HAVE DONE,
 AND WE HAVE DONE THOSE THINGS WHICH WE OUGHT NOT TO HAVE DONE.
                   BOOK OF COMMON PRAYER                      
 Job cpu time:       0 days  4 hours 22 minutes 12.3 seconds.
 Elapsed time:       0 days  1 hours  6 minutes  9.4 seconds.
 File lengths (MBytes):  RWF=    826 Int=      0 D2E=      0 Chk=     59 Scr=      1
 Normal termination of Gaussian 16 at Wed Oct  8 16:33:55 2025.
