Job Start Time: Wed Oct  8 15:54:10 MDT 2025
SLURM Job ID: 768201
SLURM Job Name: r1-li-3thf-c6_tzpop-sp
 Entering Gaussian System, Link 0=/opt/apps/Gaussian/G16C/g16/g16
 Initial command:
 /opt/apps/Gaussian/G16C/g16/l1.exe "/tmp/768201/Gau-379185.inp" -scrdir="/tmp/768201/"
 Entering Link 1 = /opt/apps/Gaussian/G16C/g16/l1.exe PID=    379186.
  
 Copyright (c) 1988-2019, Gaussian, Inc.  All Rights Reserved.
  
 This is part of the Gaussian(R) 16 program.  It is based on
 the Gaussian(R) 09 system (copyright 2009, Gaussian, Inc.),
 the Gaussian(R) 03 system (copyright 2003, Gaussian, Inc.),
 the Gaussian(R) 98 system (copyright 1998, Gaussian, Inc.),
 the Gaussian(R) 94 system (copyright 1995, Gaussian, Inc.),
 the Gaussian 92(TM) system (copyright 1992, Gaussian, Inc.),
 the Gaussian 90(TM) system (copyright 1990, Gaussian, Inc.),
 the Gaussian 88(TM) system (copyright 1988, Gaussian, Inc.),
 the Gaussian 86(TM) system (copyright 1986, Carnegie Mellon
 University), and the Gaussian 82(TM) system (copyright 1983,
 Carnegie Mellon University). Gaussian is a federally registered
 trademark of Gaussian, Inc.
  
 This software contains proprietary and confidential information,
 including trade secrets, belonging to Gaussian, Inc.
  
 This software is provided under written license and may be
 used, copied, transmitted, or stored only in accord with that
 written license.
  
 The following legend is applicable only to US Government
 contracts under FAR:
  
                    RESTRICTED RIGHTS LEGEND
  
 Use, reproduction and disclosure by the US Government is
 subject to restrictions as set forth in subparagraphs (a)
 and (c) of the Commercial Computer Software - Restricted
 Rights clause in FAR 52.227-19.
  
 Gaussian, Inc.
 340 Quinnipiac St., Bldg. 40, Wallingford CT 06492
  
  
 ---------------------------------------------------------------
 Warning -- This program may not be used in any manner that
 competes with the business of Gaussian, Inc. or will provide
 assistance to any competitor of Gaussian, Inc.  The licensee
 of this program is prohibited from giving any competitor of
 Gaussian, Inc. access to this program.  By using this program,
 the user acknowledges that Gaussian, Inc. is engaged in the
 business of creating and licensing software in the field of
 computational chemistry and represents and warrants to the
 licensee that it is not a competitor of Gaussian, Inc. and that
 it will not use this program in any manner prohibited above.
 ---------------------------------------------------------------
  

 Cite this work as:
 Gaussian 16, Revision C.01,
 M. J. Frisch, G. W. Trucks, H. B. Schlegel, G. E. Scuseria, 
 M. A. Robb, J. R. Cheeseman, G. Scalmani, V. Barone, 
 G. A. Petersson, H. Nakatsuji, X. Li, M. Caricato, A. V. Marenich, 
 J. Bloino, B. G. Janesko, R. Gomperts, B. Mennucci, H. P. Hratchian, 
 J. V. Ortiz, A. F. Izmaylov, J. L. Sonnenberg, D. Williams-Young, 
 F. Ding, F. Lipparini, F. Egidi, J. Goings, B. Peng, A. Petrone, 
 T. Henderson, D. Ranasinghe, V. G. Zakrzewski, J. Gao, N. Rega, 
 G. Zheng, W. Liang, M. Hada, M. Ehara, K. Toyota, R. Fukuda, 
 J. Hasegawa, M. Ishida, T. Nakajima, Y. Honda, O. Kitao, H. Nakai, 
 T. Vreven, K. Throssell, J. A. Montgomery, Jr., J. E. Peralta, 
 F. Ogliaro, M. J. Bearpark, J. J. Heyd, E. N. Brothers, K. N. Kudin, 
 V. N. Staroverov, T. A. Keith, R. Kobayashi, J. Normand, 
 K. Raghavachari, A. P. Rendell, J. C. Burant, S. S. Iyengar, 
 J. Tomasi, M. Cossi, J. M. Millam, M. Klene, C. Adamo, R. Cammi, 
 J. W. Ochterski, R. L. Martin, K. Morokuma, O. Farkas, 
 J. B. Foresman, and D. J. Fox, Gaussian, Inc., Wallingford CT, 2019.
 
 ******************************************
 Gaussian 16:  AS64L-G16RevC.01  3-Jul-2019
                 8-Oct-2025 
 ******************************************
 %chk=r1-li-3thf-c6_tzpop-sp.chk
 %nprocshared=4
 Will use up to    4 processors via shared memory.
 %mem=8GB
 ----------------------------------------------------------------------
 # wb97xd/6-311++g** nosymm int=ultrafine scrf=(smd,solvent=tetrahydrof
 uran)
 ----------------------------------------------------------------------
 1/38=1,172=1/1;
 2/12=2,15=1,17=6,18=5,40=1/2;
 3/5=4,6=6,7=1111,11=2,25=1,30=1,70=32201,72=20,74=-58,75=-5/1,2,3;
 4//1;
 5/5=2,38=5,53=20/2;
 6/7=2,8=2,9=2,10=2,28=1/1;
 99/5=1,9=1/99;
 ----------------------
 r1-li-3thf-c6_tzpop-sp
 ----------------------
 Symbolic Z-matrix:
 Charge =  0 Multiplicity = 1
 Li                    0.5338   -0.085    -0.0928 
 C                     1.174     1.3552    2.3115 
 O                     1.1835    1.4906    0.8816 
 C                     1.5218    2.737     2.8498 
 H                     1.9244    0.6068    2.5982 
 C                     1.8128    2.716     0.4899 
 C                     2.4509    3.2767    1.7577 
 H                     1.9955    2.689     3.834 
 H                     0.6209    3.3559    2.9258 
 H                     2.5378    2.4966   -0.3007 
 H                     1.0443    3.3897    0.0897 
 H                     3.4635    2.8768    1.8857 
 H                     2.51      4.3682    1.7402 
 C                     1.5659   -1.3111   -2.665 
 O                     1.0877   -0.142    -2.0032 
 C                     2.8599   -0.8794   -3.3684 
 H                     0.8096   -1.646    -3.3887 
 C                     1.3361    0.9446   -2.8936 
 C                     2.7182    0.6575   -3.4904 
 H                     2.9619   -1.3687   -4.3407 
 H                     3.7347   -1.1427   -2.7666 
 H                     0.5585    0.9578   -3.6698 
 H                     1.2739    1.8702   -2.3191 
 H                     2.7833    1.005    -4.5249 
 H                     3.4985    1.166    -2.9159 
 C                     2.7461   -2.5469    0.7001 
 O                     2.329    -1.1917    0.5069 
 C                     4.0436   -2.681    -0.0831 
 H                     1.9488   -3.2027    0.345 
 C                     3.481    -0.3699    0.25 
 C                     4.6875   -1.311     0.1485 
 H                     3.8293   -2.8384   -1.146 
 H                     4.6603   -3.5111    0.2724 
 H                     3.2925    0.1741   -0.6799 
 H                     3.5917    0.3564    1.0611 
 H                     5.3689   -1.0163   -0.6546 
 H                     5.2508   -1.3127    1.0879 
 O                    -1.2783   -0.3031    0.4635 
 H                     1.7033   -2.0867   -1.9098 
 H                     0.1848    0.9943    2.6044 
 H                     2.9047   -2.7311    1.7723 
 C                    -2.9951    1.6037    1.0538 
 C                    -4.2883    1.5573    1.4153 
 H                    -4.9117    0.7956    0.9408 
 C                    -4.9975    2.4323    2.4175 
 H                    -5.8653    2.9324    1.9641 
 H                    -5.3871    1.8403    3.2589 
 H                    -4.3489    3.2107    2.8343 
 C                    -2.0617    2.6352    1.669 
 H                    -2.359     3.6654    1.4229 
 H                    -2.0279    2.5691    2.7658 
 H                    -1.0403    2.4998    1.3032 
 B                    -2.367     0.6278   -0.101 
 C                    -1.711     1.5324   -1.3022 
 H                    -1.3867    0.9123   -2.1484 
 H                    -2.444     2.2554   -1.6947 
 H                    -0.8373    2.1186   -0.9763 
 O                    -3.3815   -0.3416   -0.6006 
 C                    -2.8675   -1.6517   -0.5659 
 C                    -1.8404   -1.5995    0.6123 
 C                    -2.1772   -1.9736   -1.9034 
 H                    -2.8811   -1.7725   -2.7192 
 H                    -1.2967   -1.341    -2.0532 
 H                    -1.8688   -3.0248   -1.9697 
 C                    -4.0117   -2.64     -0.3479 
 H                    -4.6152   -2.3605    0.5207 
 H                    -4.6691   -2.6463   -1.2257 
 H                    -3.6362   -3.6608   -0.2001 
 C                    -0.7233   -2.633     0.5258 
 H                    -1.1242   -3.6537    0.5203 
 H                    -0.123    -2.5027   -0.3808 
 H                    -0.0606   -2.5359    1.3936 
 C                    -2.5133   -1.7158    1.9857 
 H                    -2.8493   -2.7404    2.1864 
 H                    -1.7892   -1.4365    2.7605 
 H                    -3.3699   -1.0423    2.0652 
 
 Symmetry turned off by external request.
 Stoichiometry    C23H46BLiO5
 Framework group  C1[X(C23H46BLiO5)]
 Deg. of freedom   222
 Full point group                 C1      NOp   1
                          Input orientation:                          
 ---------------------------------------------------------------------
 Center     Atomic      Atomic             Coordinates (Angstroms)
 Number     Number       Type             X           Y           Z
 ---------------------------------------------------------------------
      1          3           0        0.533800   -0.085000   -0.092800
      2          6           0        1.174000    1.355200    2.311500
      3          8           0        1.183500    1.490600    0.881600
      4          6           0        1.521800    2.737000    2.849800
      5          1           0        1.924400    0.606800    2.598200
      6          6           0        1.812800    2.716000    0.489900
      7          6           0        2.450900    3.276700    1.757700
      8          1           0        1.995500    2.689000    3.834000
      9          1           0        0.620900    3.355900    2.925800
     10          1           0        2.537800    2.496600   -0.300700
     11          1           0        1.044300    3.389700    0.089700
     12          1           0        3.463500    2.876800    1.885700
     13          1           0        2.510000    4.368200    1.740200
     14          6           0        1.565900   -1.311100   -2.665000
     15          8           0        1.087700   -0.142000   -2.003200
     16          6           0        2.859900   -0.879400   -3.368400
     17          1           0        0.809600   -1.646000   -3.388700
     18          6           0        1.336100    0.944600   -2.893600
     19          6           0        2.718200    0.657500   -3.490400
     20          1           0        2.961900   -1.368700   -4.340700
     21          1           0        3.734700   -1.142700   -2.766600
     22          1           0        0.558500    0.957800   -3.669800
     23          1           0        1.273900    1.870200   -2.319100
     24          1           0        2.783300    1.005000   -4.524900
     25          1           0        3.498500    1.166000   -2.915900
     26          6           0        2.746100   -2.546900    0.700100
     27          8           0        2.329000   -1.191700    0.506900
     28          6           0        4.043600   -2.681000   -0.083100
     29          1           0        1.948800   -3.202700    0.345000
     30          6           0        3.481000   -0.369900    0.250000
     31          6           0        4.687500   -1.311000    0.148500
     32          1           0        3.829300   -2.838400   -1.146000
     33          1           0        4.660300   -3.511100    0.272400
     34          1           0        3.292500    0.174100   -0.679900
     35          1           0        3.591700    0.356400    1.061100
     36          1           0        5.368900   -1.016300   -0.654600
     37          1           0        5.250800   -1.312700    1.087900
     38          8           0       -1.278300   -0.303100    0.463500
     39          1           0        1.703300   -2.086700   -1.909800
     40          1           0        0.184800    0.994300    2.604400
     41          1           0        2.904700   -2.731100    1.772300
     42          6           0       -2.995100    1.603700    1.053800
     43          6           0       -4.288300    1.557300    1.415300
     44          1           0       -4.911700    0.795600    0.940800
     45          6           0       -4.997500    2.432300    2.417500
     46          1           0       -5.865300    2.932400    1.964100
     47          1           0       -5.387100    1.840300    3.258900
     48          1           0       -4.348900    3.210700    2.834300
     49          6           0       -2.061700    2.635200    1.669000
     50          1           0       -2.359000    3.665400    1.422900
     51          1           0       -2.027900    2.569100    2.765800
     52          1           0       -1.040300    2.499800    1.303200
     53          5           0       -2.367000    0.627800   -0.101000
     54          6           0       -1.711000    1.532400   -1.302200
     55          1           0       -1.386700    0.912300   -2.148400
     56          1           0       -2.444000    2.255400   -1.694700
     57          1           0       -0.837300    2.118600   -0.976300
     58          8           0       -3.381500   -0.341600   -0.600600
     59          6           0       -2.867500   -1.651700   -0.565900
     60          6           0       -1.840400   -1.599500    0.612300
     61          6           0       -2.177200   -1.973600   -1.903400
     62          1           0       -2.881100   -1.772500   -2.719200
     63          1           0       -1.296700   -1.341000   -2.053200
     64          1           0       -1.868800   -3.024800   -1.969700
     65          6           0       -4.011700   -2.640000   -0.347900
     66          1           0       -4.615200   -2.360500    0.520700
     67          1           0       -4.669100   -2.646300   -1.225700
     68          1           0       -3.636200   -3.660800   -0.200100
     69          6           0       -0.723300   -2.633000    0.525800
     70          1           0       -1.124200   -3.653700    0.520300
     71          1           0       -0.123000   -2.502700   -0.380800
     72          1           0       -0.060600   -2.535900    1.393600
     73          6           0       -2.513300   -1.715800    1.985700
     74          1           0       -2.849300   -2.740400    2.186400
     75          1           0       -1.789200   -1.436500    2.760500
     76          1           0       -3.369900   -1.042300    2.065200
 ---------------------------------------------------------------------
 Rotational constants (GHZ):           0.1977229           0.1226170           0.1024002
 Standard basis: 6-311++G(d,p) (5D, 7F)
   982 basis functions,  1494 primitive gaussians,  1012 cartesian basis functions
   116 alpha electrons      116 beta electrons
       nuclear repulsion energy      3424.7493072183 Hartrees.
 NAtoms=   76 NActive=   76 NUniq=   76 SFac= 1.00D+00 NAtFMM=   60 NAOKFM=T Big=T
 Integral buffers will be    131072 words long.
 Raffenetti 2 integral format.
 Two-electron integral symmetry is turned off.
 Nuclear repulsion after empirical dispersion term =     3424.6528844958 Hartrees.
 ------------------------------------------------------------------------------
 Polarizable Continuum Model (PCM)
 =================================
 Model                : PCM.
 Atomic radii         : SMD-Coulomb.
 Polarization charges : Total charges.
 Charge compensation  : None.
 Solution method      : On-the-fly selection.
 Cavity type          : VdW (van der Waals Surface) (Alpha=1.000).
 Cavity algorithm     : GePol (No added spheres)
                        Default sphere list used, NSphG=   76.
                        Lebedev-Laikov grids with approx.  5.0 points / Ang**2.
                        Smoothing algorithm: York/Karplus (Gamma=1.0000).
                        Polarization charges: spherical gaussians, with
                                              point-specific exponents (IZeta= 3).
                        Self-potential: point-specific (ISelfS= 7).
                        Self-field    : sphere-specific E.n sum rule (ISelfD= 2).
 Solvent              : TetraHydroFuran, Eps=   7.425700 Eps(inf)=   1.974025
 ------------------------------------------------------------------------------
 ------------------------------------------------------------------------------
 Atomic radii for non-electrostatic terms: SMD-CDS.
 ------------------------------------------------------------------------------
 Nuclear repulsion after PCM non-electrostatic terms =     3424.6458690402 Hartrees.
 One-electron integrals computed using PRISM.
 NBasis=   982 RedAO= T EigKep=  1.13D-06  NBF=   982
 NBsUse=   980 1.00D-06 EigRej=  8.91D-07 NBFU=   980
 ExpMin= 7.40D-03 ExpMax= 8.59D+03 ExpMxC= 1.30D+03 IAcc=3 IRadAn=         5 AccDes= 0.00D+00
 Harris functional with IExCor= 4639 and IRadAn=       5 diagonalized for initial guess.
 HarFok:  IExCor= 4639 AccDes= 0.00D+00 IRadAn=         5 IDoV= 1 UseB2=F ITyADJ=14
 ICtDFT=  3500011 ScaDFX=  1.000000  1.000000  1.000000  1.000000
 FoFCou: FMM=F IPFlag=           0 FMFlag=      100000 FMFlg1=        2001
         NFxFlg=           0 DoJE=T BraDBF=F KetDBF=T FulRan=T
         wScrn=  0.000000 ICntrl=       500 IOpCl=  0 I1Cent=   200000004 NGrid=           0
         NMat0=    1 NMatS0=      1 NMatT0=    0 NMatD0=    1 NMtDS0=    0 NMtDT0=    0
 Symmetry not used in FoFCou.
 Requested convergence on RMS density matrix=1.00D-08 within 128 cycles.
 Requested convergence on MAX density matrix=1.00D-06.
 Requested convergence on             energy=1.00D-06.
 No special actions if energy rises.
 Inv3:  Mode=1 IEnd=    57081132.
 Iteration    1 A*A^-1 deviation from unit magnitude is 9.99D-15 for   4349.
 Iteration    1 A*A^-1 deviation from orthogonality  is 7.42D-15 for   4349   2657.
 Iteration    1 A^-1*A deviation from unit magnitude is 9.77D-15 for   4349.
 Iteration    1 A^-1*A deviation from orthogonality  is 2.55D-15 for   4354   3313.
 Error on total polarization charges =  0.07479
 SCF Done:  E(RwB97XD) =  -1312.80192539     A.U. after   16 cycles
            NFock= 16  Conv=0.18D-08     -V/T= 2.0046
 SMD-CDS (non-electrostatic) energy       (kcal/mol) =      -4.40
 (included in total energy above)

 **********************************************************************

            Population analysis using the SCF Density.

 **********************************************************************

 Alpha  occ. eigenvalues --  -19.26441 -19.25721 -19.25709 -19.19098 -19.17072
 Alpha  occ. eigenvalues --  -10.32772 -10.32743 -10.32661 -10.32587 -10.32475
 Alpha  occ. eigenvalues --  -10.32287 -10.31270 -10.30750 -10.28136 -10.28093
 Alpha  occ. eigenvalues --  -10.28086 -10.28060 -10.28058 -10.27870 -10.25798
 Alpha  occ. eigenvalues --  -10.25232 -10.24855 -10.24570 -10.24565 -10.24499
 Alpha  occ. eigenvalues --  -10.23631 -10.22123 -10.20483  -6.79885  -2.00026
 Alpha  occ. eigenvalues --   -1.15749  -1.14818  -1.14394  -1.09825  -1.03108
 Alpha  occ. eigenvalues --   -0.88571  -0.88444  -0.87996  -0.87171  -0.85735
 Alpha  occ. eigenvalues --   -0.84076  -0.83904  -0.83840  -0.81767  -0.78824
 Alpha  occ. eigenvalues --   -0.77978  -0.75286  -0.74137  -0.71573  -0.69641
 Alpha  occ. eigenvalues --   -0.69135  -0.69055  -0.68797  -0.68731  -0.68388
 Alpha  occ. eigenvalues --   -0.67730  -0.61190  -0.60056  -0.60024  -0.59502
 Alpha  occ. eigenvalues --   -0.59079  -0.58844  -0.58221  -0.57909  -0.56722
 Alpha  occ. eigenvalues --   -0.54314  -0.53759  -0.52915  -0.52629  -0.52217
 Alpha  occ. eigenvalues --   -0.51795  -0.51493  -0.51194  -0.50345  -0.50287
 Alpha  occ. eigenvalues --   -0.50088  -0.49196  -0.48942  -0.48483  -0.48030
 Alpha  occ. eigenvalues --   -0.46966  -0.46553  -0.46071  -0.45789  -0.45558
 Alpha  occ. eigenvalues --   -0.44984  -0.44786  -0.44553  -0.44137  -0.43942
 Alpha  occ. eigenvalues --   -0.43599  -0.43433  -0.43264  -0.43097  -0.42915
 Alpha  occ. eigenvalues --   -0.42379  -0.42300  -0.42079  -0.41628  -0.41505
 Alpha  occ. eigenvalues --   -0.41358  -0.40905  -0.40693  -0.40569  -0.40321
 Alpha  occ. eigenvalues --   -0.39612  -0.38058  -0.36809  -0.35713  -0.35518
 Alpha  occ. eigenvalues --   -0.34551  -0.34369  -0.33558  -0.30383  -0.27788
 Alpha  occ. eigenvalues --   -0.26995
 Alpha virt. eigenvalues --    0.02154   0.02381   0.02456   0.02721   0.05906
 Alpha virt. eigenvalues --    0.05947   0.06139   0.06199   0.06327   0.07006
 Alpha virt. eigenvalues --    0.07264   0.07340   0.07506   0.07583   0.07748
 Alpha virt. eigenvalues --    0.07882   0.07918   0.08078   0.08209   0.08579
 Alpha virt. eigenvalues --    0.09396   0.09571   0.09750   0.09840   0.10175
 Alpha virt. eigenvalues --    0.10363   0.10585   0.10816   0.11123   0.11297
 Alpha virt. eigenvalues --    0.11779   0.12090   0.12275   0.12564   0.12715
 Alpha virt. eigenvalues --    0.12939   0.13081   0.13396   0.13569   0.13912
 Alpha virt. eigenvalues --    0.13969   0.14288   0.14651   0.14884   0.15093
 Alpha virt. eigenvalues --    0.15204   0.15278   0.15366   0.15689   0.15759
 Alpha virt. eigenvalues --    0.16300   0.16386   0.16757   0.16946   0.17290
 Alpha virt. eigenvalues --    0.17424   0.17484   0.17582   0.17725   0.18180
 Alpha virt. eigenvalues --    0.18228   0.18274   0.18337   0.18552   0.18775
 Alpha virt. eigenvalues --    0.19042   0.19385   0.19474   0.19608   0.19785
 Alpha virt. eigenvalues --    0.19951   0.19998   0.20202   0.20431   0.20539
 Alpha virt. eigenvalues --    0.20703   0.20831   0.21001   0.21168   0.21328
 Alpha virt. eigenvalues --    0.21477   0.21674   0.21946   0.21995   0.22075
 Alpha virt. eigenvalues --    0.22302   0.22378   0.22461   0.22536   0.22779
 Alpha virt. eigenvalues --    0.22970   0.23072   0.23295   0.23378   0.23573
 Alpha virt. eigenvalues --    0.23596   0.23736   0.23830   0.24130   0.24321
 Alpha virt. eigenvalues --    0.24426   0.24563   0.24708   0.24738   0.24837
 Alpha virt. eigenvalues --    0.25120   0.25351   0.25487   0.25625   0.25799
 Alpha virt. eigenvalues --    0.26026   0.26103   0.26234   0.26514   0.26615
 Alpha virt. eigenvalues --    0.26950   0.27088   0.27195   0.27317   0.27495
 Alpha virt. eigenvalues --    0.27706   0.27768   0.28141   0.28284   0.28367
 Alpha virt. eigenvalues --    0.28441   0.28645   0.28922   0.29110   0.29372
 Alpha virt. eigenvalues --    0.29405   0.29589   0.29855   0.30018   0.30076
 Alpha virt. eigenvalues --    0.30378   0.30460   0.30787   0.30957   0.31240
 Alpha virt. eigenvalues --    0.31384   0.31498   0.31793   0.31914   0.32115
 Alpha virt. eigenvalues --    0.32183   0.32615   0.32866   0.33092   0.33284
 Alpha virt. eigenvalues --    0.33353   0.33728   0.33946   0.34192   0.34293
 Alpha virt. eigenvalues --    0.34588   0.34822   0.34926   0.35215   0.35406
 Alpha virt. eigenvalues --    0.35618   0.35726   0.35808   0.36100   0.36466
 Alpha virt. eigenvalues --    0.36631   0.36902   0.37258   0.37471   0.37777
 Alpha virt. eigenvalues --    0.37992   0.38021   0.38364   0.38541   0.38801
 Alpha virt. eigenvalues --    0.39257   0.39562   0.39712   0.39807   0.39926
 Alpha virt. eigenvalues --    0.40269   0.40331   0.40547   0.40846   0.40933
 Alpha virt. eigenvalues --    0.41081   0.41352   0.41541   0.41723   0.41916
 Alpha virt. eigenvalues --    0.42179   0.42411   0.42595   0.42942   0.43079
 Alpha virt. eigenvalues --    0.43326   0.43496   0.43596   0.43921   0.44009
 Alpha virt. eigenvalues --    0.44139   0.44680   0.44814   0.45010   0.45133
 Alpha virt. eigenvalues --    0.45476   0.45631   0.45954   0.46325   0.46506
 Alpha virt. eigenvalues --    0.46632   0.47083   0.47425   0.47573   0.47770
 Alpha virt. eigenvalues --    0.48337   0.48618   0.48868   0.49365   0.49838
 Alpha virt. eigenvalues --    0.49908   0.50199   0.50590   0.51009   0.51957
 Alpha virt. eigenvalues --    0.52035   0.52318   0.52739   0.52951   0.53611
 Alpha virt. eigenvalues --    0.54288   0.54692   0.55085   0.55401   0.55809
 Alpha virt. eigenvalues --    0.56413   0.56839   0.57436   0.57947   0.58178
 Alpha virt. eigenvalues --    0.58628   0.59045   0.59287   0.59412   0.60241
 Alpha virt. eigenvalues --    0.60878   0.61656   0.62047   0.62185   0.62394
 Alpha virt. eigenvalues --    0.63192   0.63599   0.63931   0.64305   0.64797
 Alpha virt. eigenvalues --    0.65252   0.65452   0.65887   0.65933   0.66085
 Alpha virt. eigenvalues --    0.66469   0.66940   0.67285   0.68061   0.68115
 Alpha virt. eigenvalues --    0.68348   0.68997   0.69273   0.69514   0.70270
 Alpha virt. eigenvalues --    0.70368   0.70627   0.70724   0.71019   0.71420
 Alpha virt. eigenvalues --    0.71880   0.72214   0.72423   0.72890   0.73143
 Alpha virt. eigenvalues --    0.73291   0.73541   0.73749   0.74339   0.74859
 Alpha virt. eigenvalues --    0.74982   0.75275   0.75708   0.75833   0.76205
 Alpha virt. eigenvalues --    0.76371   0.76640   0.77046   0.77400   0.77432
 Alpha virt. eigenvalues --    0.77792   0.78084   0.78546   0.78994   0.79157
 Alpha virt. eigenvalues --    0.79476   0.80149   0.80648   0.80883   0.80945
 Alpha virt. eigenvalues --    0.81221   0.81683   0.81826   0.82296   0.82397
 Alpha virt. eigenvalues --    0.82832   0.83017   0.83212   0.83696   0.83904
 Alpha virt. eigenvalues --    0.84001   0.84503   0.84638   0.84935   0.85172
 Alpha virt. eigenvalues --    0.85508   0.85578   0.86062   0.86238   0.86778
 Alpha virt. eigenvalues --    0.86851   0.87056   0.87320   0.87601   0.87885
 Alpha virt. eigenvalues --    0.88246   0.88599   0.88781   0.89049   0.89340
 Alpha virt. eigenvalues --    0.89680   0.89748   0.90001   0.90474   0.90853
 Alpha virt. eigenvalues --    0.91103   0.91187   0.91789   0.92204   0.92493
 Alpha virt. eigenvalues --    0.92800   0.93058   0.93428   0.93798   0.94316
 Alpha virt. eigenvalues --    0.94633   0.95145   0.95682   0.95826   0.96373
 Alpha virt. eigenvalues --    0.96688   0.97159   0.97431   0.98018   0.98682
 Alpha virt. eigenvalues --    0.98976   0.99934   1.00475   1.01462   1.02100
 Alpha virt. eigenvalues --    1.02804   1.04300   1.04330   1.05132   1.06146
 Alpha virt. eigenvalues --    1.07248   1.07954   1.08684   1.09929   1.10013
 Alpha virt. eigenvalues --    1.10514   1.11075   1.12321   1.13089   1.14292
 Alpha virt. eigenvalues --    1.14564   1.15099   1.16537   1.16732   1.17573
 Alpha virt. eigenvalues --    1.18710   1.19263   1.19638   1.20528   1.22191
 Alpha virt. eigenvalues --    1.22765   1.23528   1.24238   1.24516   1.25060
 Alpha virt. eigenvalues --    1.26022   1.26267   1.27303   1.27994   1.28754
 Alpha virt. eigenvalues --    1.29764   1.30308   1.31024   1.31608   1.32601
 Alpha virt. eigenvalues --    1.33054   1.33247   1.33717   1.34582   1.34993
 Alpha virt. eigenvalues --    1.35623   1.36393   1.36760   1.37398   1.38160
 Alpha virt. eigenvalues --    1.38818   1.39375   1.40505   1.41351   1.42192
 Alpha virt. eigenvalues --    1.43146   1.43556   1.44229   1.44752   1.46601
 Alpha virt. eigenvalues --    1.46962   1.47180   1.48380   1.48975   1.49670
 Alpha virt. eigenvalues --    1.50427   1.50494   1.52159   1.52908   1.53637
 Alpha virt. eigenvalues --    1.54018   1.55056   1.55358   1.56215   1.56858
 Alpha virt. eigenvalues --    1.57765   1.58017   1.58303   1.58529   1.59298
 Alpha virt. eigenvalues --    1.60065   1.60186   1.60965   1.61713   1.62103
 Alpha virt. eigenvalues --    1.62407   1.63618   1.64230   1.64621   1.64895
 Alpha virt. eigenvalues --    1.65380   1.65493   1.66206   1.66287   1.66997
 Alpha virt. eigenvalues --    1.67441   1.67850   1.68210   1.68540   1.69255
 Alpha virt. eigenvalues --    1.69460   1.69488   1.70459   1.70603   1.70735
 Alpha virt. eigenvalues --    1.71570   1.71747   1.71932   1.72345   1.72773
 Alpha virt. eigenvalues --    1.73118   1.73227   1.73781   1.73934   1.74385
 Alpha virt. eigenvalues --    1.74839   1.75107   1.75579   1.75670   1.76310
 Alpha virt. eigenvalues --    1.76547   1.76984   1.77050   1.77684   1.78160
 Alpha virt. eigenvalues --    1.78487   1.78894   1.79417   1.79571   1.79700
 Alpha virt. eigenvalues --    1.80128   1.80826   1.81311   1.81712   1.81942
 Alpha virt. eigenvalues --    1.82435   1.82814   1.83179   1.83450   1.83656
 Alpha virt. eigenvalues --    1.83701   1.84866   1.85112   1.85594   1.86191
 Alpha virt. eigenvalues --    1.86476   1.87018   1.87425   1.87984   1.88270
 Alpha virt. eigenvalues --    1.88347   1.88461   1.89111   1.89721   1.90123
 Alpha virt. eigenvalues --    1.90693   1.90713   1.91021   1.91570   1.92888
 Alpha virt. eigenvalues --    1.92979   1.93364   1.93724   1.93887   1.94556
 Alpha virt. eigenvalues --    1.94821   1.95273   1.95413   1.95891   1.96089
 Alpha virt. eigenvalues --    1.96321   1.96917   1.97522   1.98278   1.99481
 Alpha virt. eigenvalues --    1.99656   1.99996   2.00512   2.01256   2.01331
 Alpha virt. eigenvalues --    2.02159   2.03824   2.04144   2.04801   2.05076
 Alpha virt. eigenvalues --    2.05259   2.05854   2.06575   2.07709   2.07730
 Alpha virt. eigenvalues --    2.08392   2.08911   2.09456   2.10227   2.10503
 Alpha virt. eigenvalues --    2.11276   2.11361   2.12038   2.12701   2.12977
 Alpha virt. eigenvalues --    2.14064   2.14329   2.14547   2.15304   2.16411
 Alpha virt. eigenvalues --    2.16511   2.17601   2.17817   2.20105   2.20758
 Alpha virt. eigenvalues --    2.21224   2.21960   2.22229   2.23330   2.24617
 Alpha virt. eigenvalues --    2.24722   2.25542   2.27068   2.27778   2.28037
 Alpha virt. eigenvalues --    2.28556   2.29417   2.29516   2.29903   2.30513
 Alpha virt. eigenvalues --    2.30954   2.31971   2.32588   2.32905   2.33355
 Alpha virt. eigenvalues --    2.34674   2.35158   2.36077   2.36346   2.37409
 Alpha virt. eigenvalues --    2.38133   2.38342   2.39988   2.40920   2.41092
 Alpha virt. eigenvalues --    2.41343   2.42597   2.43030   2.43746   2.44574
 Alpha virt. eigenvalues --    2.44843   2.45656   2.46125   2.46273   2.47959
 Alpha virt. eigenvalues --    2.48588   2.49136   2.49646   2.49849   2.50410
 Alpha virt. eigenvalues --    2.52503   2.53747   2.54106   2.55520   2.55972
 Alpha virt. eigenvalues --    2.57516   2.58464   2.58948   2.59894   2.60736
 Alpha virt. eigenvalues --    2.61141   2.61816   2.62291   2.63029   2.63529
 Alpha virt. eigenvalues --    2.63946   2.64552   2.65102   2.65500   2.66122
 Alpha virt. eigenvalues --    2.67207   2.67342   2.67409   2.68051   2.68318
 Alpha virt. eigenvalues --    2.68740   2.69165   2.69390   2.69429   2.70085
 Alpha virt. eigenvalues --    2.70871   2.71012   2.71155   2.72482   2.72702
 Alpha virt. eigenvalues --    2.73528   2.74213   2.74493   2.74935   2.75277
 Alpha virt. eigenvalues --    2.75540   2.76087   2.76589   2.77583   2.78326
 Alpha virt. eigenvalues --    2.78831   2.79264   2.79534   2.80052   2.81244
 Alpha virt. eigenvalues --    2.81481   2.82120   2.82223   2.82881   2.83448
 Alpha virt. eigenvalues --    2.83955   2.84487   2.85135   2.86365   2.86931
 Alpha virt. eigenvalues --    2.87682   2.88177   2.89266   2.89600   2.90553
 Alpha virt. eigenvalues --    2.90865   2.91503   2.92238   2.92699   2.93223
 Alpha virt. eigenvalues --    2.94350   2.94957   2.95246   2.95748   2.96902
 Alpha virt. eigenvalues --    2.97120   2.97864   2.98740   2.99151   3.00027
 Alpha virt. eigenvalues --    3.00304   3.00745   3.01265   3.01616   3.01940
 Alpha virt. eigenvalues --    3.03551   3.04430   3.04750   3.04830   3.05416
 Alpha virt. eigenvalues --    3.05763   3.07037   3.08013   3.08383   3.08843
 Alpha virt. eigenvalues --    3.09554   3.10429   3.11215   3.11955   3.12596
 Alpha virt. eigenvalues --    3.14167   3.15242   3.15456   3.16623   3.17071
 Alpha virt. eigenvalues --    3.17895   3.19436   3.19927   3.21152   3.22005
 Alpha virt. eigenvalues --    3.22558   3.22871   3.25532   3.26176   3.26784
 Alpha virt. eigenvalues --    3.27220   3.27635   3.28321   3.29400   3.29756
 Alpha virt. eigenvalues --    3.30484   3.32542   3.33578   3.35074   3.35594
 Alpha virt. eigenvalues --    3.35795   3.36648   3.38700   3.39777   3.40847
 Alpha virt. eigenvalues --    3.41315   3.41987   3.42592   3.42946   3.44316
 Alpha virt. eigenvalues --    3.44882   3.45286   3.48104   3.49479   3.50365
 Alpha virt. eigenvalues --    3.51204   3.53739   3.54692   3.56747   3.64207
 Alpha virt. eigenvalues --    3.66840   3.73485   3.76115   3.78680   3.79849
 Alpha virt. eigenvalues --    3.84502   3.87485   3.88360   3.89256   3.89754
 Alpha virt. eigenvalues --    3.90966   3.91736   3.92844   3.93237   3.93880
 Alpha virt. eigenvalues --    3.94661   3.95303   3.95420   3.97665   3.98271
 Alpha virt. eigenvalues --    3.98948   3.99867   4.00317   4.00525   4.01492
 Alpha virt. eigenvalues --    4.03397   4.03840   4.06125   4.08791   4.11088
 Alpha virt. eigenvalues --    4.14134   4.16447   4.17330   4.19006   4.19353
 Alpha virt. eigenvalues --    4.22398   4.25276   4.26121   4.27393   4.27872
 Alpha virt. eigenvalues --    4.30022   4.31733   4.35028   4.38244   4.40637
 Alpha virt. eigenvalues --    4.41100   4.42753   4.43392   4.44763   4.45647
 Alpha virt. eigenvalues --    4.47365   4.50148   4.53665   4.53784   4.74665
 Alpha virt. eigenvalues --    5.36185   5.39240   5.45259   5.47165   5.54531
 Alpha virt. eigenvalues --    5.59966   5.65573   5.69079   5.70745   5.72883
 Alpha virt. eigenvalues --    5.77422   5.79025   5.79488   5.84151   5.90519
 Alpha virt. eigenvalues --   14.94474  23.93001  23.95839  24.00722  24.01605
 Alpha virt. eigenvalues --   24.02490  24.03124  24.03961  24.04827  24.06132
 Alpha virt. eigenvalues --   24.10025  24.10937  24.11531  24.12299  24.12577
 Alpha virt. eigenvalues --   24.13301  24.14509  24.15196  24.17722  24.19061
 Alpha virt. eigenvalues --   24.20166  24.20992  24.25147  24.43135  50.13666
 Alpha virt. eigenvalues --   50.15702  50.16774  50.25444  50.26249
          Condensed to atoms (all electrons):
 Mulliken charges:
               1
     1  Li  -0.311842
     2  C   -0.090688
     3  O    0.187919
     4  C   -0.371539
     5  H    0.153064
     6  C    0.061886
     7  C   -0.767289
     8  H    0.247595
     9  H    0.163472
    10  H    0.188412
    11  H    0.255609
    12  H    0.185719
    13  H    0.254048
    14  C    0.113808
    15  O    0.092012
    16  C   -0.769834
    17  H    0.235727
    18  C   -0.280837
    19  C   -0.440587
    20  H    0.238871
    21  H    0.144636
    22  H    0.217364
    23  H    0.235619
    24  H    0.232488
    25  H    0.206876
    26  C   -0.168602
    27  O   -0.020963
    28  C   -0.487384
    29  H    0.169927
    30  C   -0.084198
    31  C   -0.756150
    32  H    0.173631
    33  H    0.243614
    34  H    0.019668
    35  H    0.154964
    36  H    0.216688
    37  H    0.224207
    38  O    0.051392
    39  H    0.067609
    40  H    0.210505
    41  H    0.185509
    42  C    0.429855
    43  C    0.335789
    44  H    0.212244
    45  C   -0.798288
    46  H    0.161531
    47  H    0.177291
    48  H    0.161552
    49  C   -1.122201
    50  H    0.209454
    51  H    0.226358
    52  H    0.010996
    53  B    0.165320
    54  C   -0.607917
    55  H    0.152214
    56  H    0.162243
    57  H    0.246893
    58  O   -0.150763
    59  C   -0.124403
    60  C   -0.063100
    61  C   -0.370849
    62  H    0.211026
    63  H   -0.009828
    64  H    0.207947
    65  C   -0.689547
    66  H    0.190989
    67  H    0.179928
    68  H    0.183678
    69  C   -1.046176
    70  H    0.244519
    71  H    0.128202
    72  H    0.259319
    73  C   -0.394281
    74  H    0.191965
    75  H    0.190722
    76  H    0.154391
 Sum of Mulliken charges =  -0.00000
 Mulliken charges with hydrogens summed into heavy atoms:
               1
     1  Li  -0.311842
     2  C    0.272882
     3  O    0.187919
     4  C    0.039529
     6  C    0.505906
     7  C   -0.327522
    14  C    0.417144
    15  O    0.092012
    16  C   -0.386326
    18  C    0.172146
    19  C   -0.001222
    26  C    0.186834
    27  O   -0.020963
    28  C   -0.070140
    30  C    0.090435
    31  C   -0.315255
    38  O    0.051392
    42  C    0.429855
    43  C    0.548032
    45  C   -0.297914
    49  C   -0.675393
    53  B    0.165320
    54  C   -0.046566
    58  O   -0.150763
    59  C   -0.124403
    60  C   -0.063100
    61  C    0.038296
    65  C   -0.134952
    69  C   -0.414135
    73  C    0.142797
 Electronic spatial extent (au):  <R**2>=          12377.0529
 Charge=             -0.0000 electrons
 Dipole moment (field-independent basis, Debye):
    X=             17.7857    Y=             -2.6103    Z=             -0.8421  Tot=             17.9960
 Quadrupole moment (field-independent basis, Debye-Ang):
   XX=           -198.3831   YY=           -174.1465   ZZ=           -174.4953
   XY=              7.3865   XZ=             -3.4369   YZ=              3.7449
 Traceless Quadrupole moment (field-independent basis, Debye-Ang):
   XX=            -16.0415   YY=              8.1952   ZZ=              7.8463
   XY=              7.3865   XZ=             -3.4369   YZ=              3.7449
 Octapole moment (field-independent basis, Debye-Ang**2):
  XXX=            273.7318  YYY=            -12.8210  ZZZ=            -51.2605  XYY=             74.0552
  XXY=            -42.6486  XXZ=             -5.6782  XZZ=             76.1663  YZZ=              0.7065
  YYZ=              3.4389  XYZ=              8.7326
 Hexadecapole moment (field-independent basis, Debye-Ang**3):
 XXXX=          -9105.4159 YYYY=          -4250.4727 ZZZZ=          -3569.6881 XXXY=            246.2250
 XXXZ=            686.5055 YYYX=            274.7619 YYYZ=           -598.2226 ZZZX=            628.7694
 ZZZY=           -584.8724 XXYY=          -2181.7004 XXZZ=          -2094.7557 YYZZ=          -1346.5747
 XXYZ=           -231.7801 YYXZ=            253.4093 ZZXY=            106.4066
 N-N= 3.424645869040D+03 E-N=-9.910349030980D+03  KE= 1.306749327418D+03
 Unable to Open any file for archive entry.
 1\1\GINC-NODE08\SP\RwB97XD\6-311++G(d,p)\C23H46B1Li1O5\WHUGHES2\08-Oct
 -2025\0\\# wb97xd/6-311++g** nosymm int=ultrafine scrf=(smd,solvent=te
 trahydrofuran)\\r1-li-3thf-c6_tzpop-sp\\0,1\Li,0,0.5338,-0.085,-0.0928
 \C,0,1.174,1.3552,2.3115\O,0,1.1835,1.4906,0.8816\C,0,1.5218,2.737,2.8
 498\H,0,1.9244,0.6068,2.5982\C,0,1.8128,2.716,0.4899\C,0,2.4509,3.2767
 ,1.7577\H,0,1.9955,2.689,3.834\H,0,0.6209,3.3559,2.9258\H,0,2.5378,2.4
 966,-0.3007\H,0,1.0443,3.3897,0.0897\H,0,3.4635,2.8768,1.8857\H,0,2.51
 ,4.3682,1.7402\C,0,1.5659,-1.3111,-2.665\O,0,1.0877,-0.142,-2.0032\C,0
 ,2.8599,-0.8794,-3.3684\H,0,0.8096,-1.646,-3.3887\C,0,1.3361,0.9446,-2
 .8936\C,0,2.7182,0.6575,-3.4904\H,0,2.9619,-1.3687,-4.3407\H,0,3.7347,
 -1.1427,-2.7666\H,0,0.5585,0.9578,-3.6698\H,0,1.2739,1.8702,-2.3191\H,
 0,2.7833,1.005,-4.5249\H,0,3.4985,1.166,-2.9159\C,0,2.7461,-2.5469,0.7
 001\O,0,2.329,-1.1917,0.5069\C,0,4.0436,-2.681,-0.0831\H,0,1.9488,-3.2
 027,0.345\C,0,3.481,-0.3699,0.25\C,0,4.6875,-1.311,0.1485\H,0,3.8293,-
 2.8384,-1.146\H,0,4.6603,-3.5111,0.2724\H,0,3.2925,0.1741,-0.6799\H,0,
 3.5917,0.3564,1.0611\H,0,5.3689,-1.0163,-0.6546\H,0,5.2508,-1.3127,1.0
 879\O,0,-1.2783,-0.3031,0.4635\H,0,1.7033,-2.0867,-1.9098\H,0,0.1848,0
 .9943,2.6044\H,0,2.9047,-2.7311,1.7723\C,0,-2.9951,1.6037,1.0538\C,0,-
 4.2883,1.5573,1.4153\H,0,-4.9117,0.7956,0.9408\C,0,-4.9975,2.4323,2.41
 75\H,0,-5.8653,2.9324,1.9641\H,0,-5.3871,1.8403,3.2589\H,0,-4.3489,3.2
 107,2.8343\C,0,-2.0617,2.6352,1.669\H,0,-2.359,3.6654,1.4229\H,0,-2.02
 79,2.5691,2.7658\H,0,-1.0403,2.4998,1.3032\B,0,-2.367,0.6278,-0.101\C,
 0,-1.711,1.5324,-1.3022\H,0,-1.3867,0.9123,-2.1484\H,0,-2.444,2.2554,-
 1.6947\H,0,-0.8373,2.1186,-0.9763\O,0,-3.3815,-0.3416,-0.6006\C,0,-2.8
 675,-1.6517,-0.5659\C,0,-1.8404,-1.5995,0.6123\C,0,-2.1772,-1.9736,-1.
 9034\H,0,-2.8811,-1.7725,-2.7192\H,0,-1.2967,-1.341,-2.0532\H,0,-1.868
 8,-3.0248,-1.9697\C,0,-4.0117,-2.64,-0.3479\H,0,-4.6152,-2.3605,0.5207
 \H,0,-4.6691,-2.6463,-1.2257\H,0,-3.6362,-3.6608,-0.2001\C,0,-0.7233,-
 2.633,0.5258\H,0,-1.1242,-3.6537,0.5203\H,0,-0.123,-2.5027,-0.3808\H,0
 ,-0.0606,-2.5359,1.3936\C,0,-2.5133,-1.7158,1.9857\H,0,-2.8493,-2.7404
 ,2.1864\H,0,-1.7892,-1.4365,2.7605\H,0,-3.3699,-1.0423,2.0652\\Version
 =AS64L-G16RevC.01\HF=-1312.8019254\RMSD=1.775e-09\Dipole=6.9974446,-1.
 0269845,-0.3313068\Quadrupole=-11.9264312,6.0929122,5.833519,5.4916904
 ,-2.555232,2.7842168\PG=C01 [X(C23H46B1Li1O5)]\\@
 The archive entry for this job was punched.


 WHERE THERE IS MUCH DESIRE TO LEARN, THERE OF NECESSITY WILL BE
 MUCH ARGUING, MUCH WRITING, MANY OPINIONS; FOR OPINION IN GOOD MEN
 IS BUT KNOWLEDGE IN THE MAKING. -- JOHN MILTON.
 Job cpu time:       0 days  4 hours 47 minutes 18.5 seconds.
 Elapsed time:       0 days  1 hours 12 minutes 33.5 seconds.
 File lengths (MBytes):  RWF=    822 Int=      0 D2E=      0 Chk=     59 Scr=      1
 Normal termination of Gaussian 16 at Wed Oct  8 17:06:43 2025.
