Job Start Time: Wed Oct  8 15:27:45 MDT 2025
SLURM Job ID: 768197
SLURM Job Name: r1-li-3thf-c2_tzpop-sp
 Entering Gaussian System, Link 0=/opt/apps/Gaussian/G16C/g16/g16
 Initial command:
 /opt/apps/Gaussian/G16C/g16/l1.exe "/tmp/768197/Gau-1730610.inp" -scrdir="/tmp/768197/"
 Entering Link 1 = /opt/apps/Gaussian/G16C/g16/l1.exe PID=   1730614.
  
 Copyright (c) 1988-2019, Gaussian, Inc.  All Rights Reserved.
  
 This is part of the Gaussian(R) 16 program.  It is based on
 the Gaussian(R) 09 system (copyright 2009, Gaussian, Inc.),
 the Gaussian(R) 03 system (copyright 2003, Gaussian, Inc.),
 the Gaussian(R) 98 system (copyright 1998, Gaussian, Inc.),
 the Gaussian(R) 94 system (copyright 1995, Gaussian, Inc.),
 the Gaussian 92(TM) system (copyright 1992, Gaussian, Inc.),
 the Gaussian 90(TM) system (copyright 1990, Gaussian, Inc.),
 the Gaussian 88(TM) system (copyright 1988, Gaussian, Inc.),
 the Gaussian 86(TM) system (copyright 1986, Carnegie Mellon
 University), and the Gaussian 82(TM) system (copyright 1983,
 Carnegie Mellon University). Gaussian is a federally registered
 trademark of Gaussian, Inc.
  
 This software contains proprietary and confidential information,
 including trade secrets, belonging to Gaussian, Inc.
  
 This software is provided under written license and may be
 used, copied, transmitted, or stored only in accord with that
 written license.
  
 The following legend is applicable only to US Government
 contracts under FAR:
  
                    RESTRICTED RIGHTS LEGEND
  
 Use, reproduction and disclosure by the US Government is
 subject to restrictions as set forth in subparagraphs (a)
 and (c) of the Commercial Computer Software - Restricted
 Rights clause in FAR 52.227-19.
  
 Gaussian, Inc.
 340 Quinnipiac St., Bldg. 40, Wallingford CT 06492
  
  
 ---------------------------------------------------------------
 Warning -- This program may not be used in any manner that
 competes with the business of Gaussian, Inc. or will provide
 assistance to any competitor of Gaussian, Inc.  The licensee
 of this program is prohibited from giving any competitor of
 Gaussian, Inc. access to this program.  By using this program,
 the user acknowledges that Gaussian, Inc. is engaged in the
 business of creating and licensing software in the field of
 computational chemistry and represents and warrants to the
 licensee that it is not a competitor of Gaussian, Inc. and that
 it will not use this program in any manner prohibited above.
 ---------------------------------------------------------------
  

 Cite this work as:
 Gaussian 16, Revision C.01,
 M. J. Frisch, G. W. Trucks, H. B. Schlegel, G. E. Scuseria, 
 M. A. Robb, J. R. Cheeseman, G. Scalmani, V. Barone, 
 G. A. Petersson, H. Nakatsuji, X. Li, M. Caricato, A. V. Marenich, 
 J. Bloino, B. G. Janesko, R. Gomperts, B. Mennucci, H. P. Hratchian, 
 J. V. Ortiz, A. F. Izmaylov, J. L. Sonnenberg, D. Williams-Young, 
 F. Ding, F. Lipparini, F. Egidi, J. Goings, B. Peng, A. Petrone, 
 T. Henderson, D. Ranasinghe, V. G. Zakrzewski, J. Gao, N. Rega, 
 G. Zheng, W. Liang, M. Hada, M. Ehara, K. Toyota, R. Fukuda, 
 J. Hasegawa, M. Ishida, T. Nakajima, Y. Honda, O. Kitao, H. Nakai, 
 T. Vreven, K. Throssell, J. A. Montgomery, Jr., J. E. Peralta, 
 F. Ogliaro, M. J. Bearpark, J. J. Heyd, E. N. Brothers, K. N. Kudin, 
 V. N. Staroverov, T. A. Keith, R. Kobayashi, J. Normand, 
 K. Raghavachari, A. P. Rendell, J. C. Burant, S. S. Iyengar, 
 J. Tomasi, M. Cossi, J. M. Millam, M. Klene, C. Adamo, R. Cammi, 
 J. W. Ochterski, R. L. Martin, K. Morokuma, O. Farkas, 
 J. B. Foresman, and D. J. Fox, Gaussian, Inc., Wallingford CT, 2019.
 
 ******************************************
 Gaussian 16:  AS64L-G16RevC.01  3-Jul-2019
                 8-Oct-2025 
 ******************************************
 %chk=r1-li-3thf-c2_tzpop-sp.chk
 %nprocshared=4
 Will use up to    4 processors via shared memory.
 %mem=8GB
 ----------------------------------------------------------------------
 # wb97xd/6-311++g** nosymm int=ultrafine scrf=(smd,solvent=tetrahydrof
 uran)
 ----------------------------------------------------------------------
 1/38=1,172=1/1;
 2/12=2,15=1,17=6,18=5,40=1/2;
 3/5=4,6=6,7=1111,11=2,25=1,30=1,70=32201,72=20,74=-58,75=-5/1,2,3;
 4//1;
 5/5=2,38=5,53=20/2;
 6/7=2,8=2,9=2,10=2,28=1/1;
 99/5=1,9=1/99;
 ----------------------
 r1-li-3thf-c2_tzpop-sp
 ----------------------
 Symbolic Z-matrix:
 Charge =  0 Multiplicity = 1
 Li                    0.7396    0.191     0.1684 
 C                     1.1097    2.2768   -2.1073 
 O                     1.329     1.8735   -0.7528 
 C                     0.7305    3.7679   -2.0477 
 H                     0.3308    1.6361   -2.5243 
 C                     1.9046    2.9996   -0.0907 
 C                     1.1038    4.1912   -0.6088 
 H                    -0.3362    3.9134   -2.2383 
 H                     1.2863    4.3365   -2.7984 
 H                     1.8289    2.829     0.9844 
 H                     2.9666    3.0778   -0.369 
 H                     0.2033    4.3273   -0.0016 
 H                     1.6829    5.118    -0.5751 
 C                     3.056    -0.7109   -1.5515 
 O                     1.922    -1.1228   -0.7917 
 C                     2.7919   -1.2768   -2.9396 
 H                     3.9694   -1.1415   -1.1124 
 C                     1.6377   -2.4755   -1.1699 
 C                     2.1352   -2.6338   -2.6216 
 H                     3.705    -1.372    -3.5339 
 H                     2.0957   -0.6229   -3.476 
 H                     2.1664   -3.1517   -0.4849 
 H                     0.5627   -2.6191   -1.0663 
 H                     2.8618   -3.4489   -2.6918 
 H                     1.3114   -2.8581   -3.3041 
 C                     1.3087   -0.5619    2.8739 
 O                     1.7616    0.3693    1.8884 
 C                     2.1802   -1.7998    2.667 
 H                     0.2453   -0.7259    2.6957 
 C                     3.1847    0.2583    1.858 
 C                     3.5053   -1.2237    2.1186 
 H                     1.7153   -2.4623    1.9314 
 H                     2.3123   -2.3623    3.5955 
 H                     3.5249    0.6239    0.8867 
 H                     3.6054    0.9015    2.6434 
 H                     3.7994   -1.7323    1.1968 
 H                     4.3256   -1.3221    2.8355 
 O                    -1.0833   -0.0011    0.6456 
 H                     3.1124    0.377    -1.5024 
 H                     2.0367    2.1247   -2.6777 
 H                     1.4537   -0.126     3.8732 
 C                    -1.999    -1.5518   -1.2641 
 C                    -1.2701   -0.882    -2.1716 
 H                    -0.6405   -0.0742   -1.7947 
 C                    -1.1956   -1.0643   -3.6668 
 H                    -1.7044   -0.2454   -4.1972 
 H                    -0.1521   -1.0528   -4.0095 
 H                    -1.6415   -2.0043   -4.0086 
 C                    -2.9192   -2.6871   -1.6614 
 H                    -3.2057   -2.6864   -2.7202 
 H                    -2.4527   -3.6605   -1.4491 
 H                    -3.8412   -2.6503   -1.0674 
 B                    -1.9395   -1.2207    0.3385 
 C                    -1.372    -2.5128    1.1793 
 H                    -0.328    -2.7616    0.9351 
 H                    -1.4158   -2.3528    2.2667 
 H                    -1.9636   -3.4192    0.9744 
 O                    -3.2939   -0.7893    0.8057 
 C                    -3.1841    0.3806    1.5819 
 C                    -1.9262    1.0958    0.983 
 C                    -2.9855    0.0156    3.064 
 H                    -3.0432    0.8966    3.7152 
 H                    -3.7763   -0.6823    3.362 
 H                    -2.0222   -0.4738    3.2338 
 C                    -4.4737    1.1915    1.4551 
 H                    -4.741     1.3533    0.4069 
 H                    -5.2989    0.649     1.932 
 H                    -4.3824    2.1675    1.9487 
 C                    -1.1959    2.0115    1.9617 
 H                    -1.8642    2.8022    2.3247 
 H                    -0.8073    1.462     2.8225 
 H                    -0.3482    2.492     1.4623 
 C                    -2.2594    1.8981   -0.2817 
 H                    -2.8116    2.8153   -0.043 
 H                    -1.3239    2.1843   -0.773 
 H                    -2.8485    1.3071   -0.9881 
 
 Symmetry turned off by external request.
 Stoichiometry    C23H46BLiO5
 Framework group  C1[X(C23H46BLiO5)]
 Deg. of freedom   222
 Full point group                 C1      NOp   1
                          Input orientation:                          
 ---------------------------------------------------------------------
 Center     Atomic      Atomic             Coordinates (Angstroms)
 Number     Number       Type             X           Y           Z
 ---------------------------------------------------------------------
      1          3           0        0.739600    0.191000    0.168400
      2          6           0        1.109700    2.276800   -2.107300
      3          8           0        1.329000    1.873500   -0.752800
      4          6           0        0.730500    3.767900   -2.047700
      5          1           0        0.330800    1.636100   -2.524300
      6          6           0        1.904600    2.999600   -0.090700
      7          6           0        1.103800    4.191200   -0.608800
      8          1           0       -0.336200    3.913400   -2.238300
      9          1           0        1.286300    4.336500   -2.798400
     10          1           0        1.828900    2.829000    0.984400
     11          1           0        2.966600    3.077800   -0.369000
     12          1           0        0.203300    4.327300   -0.001600
     13          1           0        1.682900    5.118000   -0.575100
     14          6           0        3.056000   -0.710900   -1.551500
     15          8           0        1.922000   -1.122800   -0.791700
     16          6           0        2.791900   -1.276800   -2.939600
     17          1           0        3.969400   -1.141500   -1.112400
     18          6           0        1.637700   -2.475500   -1.169900
     19          6           0        2.135200   -2.633800   -2.621600
     20          1           0        3.705000   -1.372000   -3.533900
     21          1           0        2.095700   -0.622900   -3.476000
     22          1           0        2.166400   -3.151700   -0.484900
     23          1           0        0.562700   -2.619100   -1.066300
     24          1           0        2.861800   -3.448900   -2.691800
     25          1           0        1.311400   -2.858100   -3.304100
     26          6           0        1.308700   -0.561900    2.873900
     27          8           0        1.761600    0.369300    1.888400
     28          6           0        2.180200   -1.799800    2.667000
     29          1           0        0.245300   -0.725900    2.695700
     30          6           0        3.184700    0.258300    1.858000
     31          6           0        3.505300   -1.223700    2.118600
     32          1           0        1.715300   -2.462300    1.931400
     33          1           0        2.312300   -2.362300    3.595500
     34          1           0        3.524900    0.623900    0.886700
     35          1           0        3.605400    0.901500    2.643400
     36          1           0        3.799400   -1.732300    1.196800
     37          1           0        4.325600   -1.322100    2.835500
     38          8           0       -1.083300   -0.001100    0.645600
     39          1           0        3.112400    0.377000   -1.502400
     40          1           0        2.036700    2.124700   -2.677700
     41          1           0        1.453700   -0.126000    3.873200
     42          6           0       -1.999000   -1.551800   -1.264100
     43          6           0       -1.270100   -0.882000   -2.171600
     44          1           0       -0.640500   -0.074200   -1.794700
     45          6           0       -1.195600   -1.064300   -3.666800
     46          1           0       -1.704400   -0.245400   -4.197200
     47          1           0       -0.152100   -1.052800   -4.009500
     48          1           0       -1.641500   -2.004300   -4.008600
     49          6           0       -2.919200   -2.687100   -1.661400
     50          1           0       -3.205700   -2.686400   -2.720200
     51          1           0       -2.452700   -3.660500   -1.449100
     52          1           0       -3.841200   -2.650300   -1.067400
     53          5           0       -1.939500   -1.220700    0.338500
     54          6           0       -1.372000   -2.512800    1.179300
     55          1           0       -0.328000   -2.761600    0.935100
     56          1           0       -1.415800   -2.352800    2.266700
     57          1           0       -1.963600   -3.419200    0.974400
     58          8           0       -3.293900   -0.789300    0.805700
     59          6           0       -3.184100    0.380600    1.581900
     60          6           0       -1.926200    1.095800    0.983000
     61          6           0       -2.985500    0.015600    3.064000
     62          1           0       -3.043200    0.896600    3.715200
     63          1           0       -3.776300   -0.682300    3.362000
     64          1           0       -2.022200   -0.473800    3.233800
     65          6           0       -4.473700    1.191500    1.455100
     66          1           0       -4.741000    1.353300    0.406900
     67          1           0       -5.298900    0.649000    1.932000
     68          1           0       -4.382400    2.167500    1.948700
     69          6           0       -1.195900    2.011500    1.961700
     70          1           0       -1.864200    2.802200    2.324700
     71          1           0       -0.807300    1.462000    2.822500
     72          1           0       -0.348200    2.492000    1.462300
     73          6           0       -2.259400    1.898100   -0.281700
     74          1           0       -2.811600    2.815300   -0.043000
     75          1           0       -1.323900    2.184300   -0.773000
     76          1           0       -2.848500    1.307100   -0.988100
 ---------------------------------------------------------------------
 Rotational constants (GHZ):           0.1732911           0.1383779           0.1318708
 Standard basis: 6-311++G(d,p) (5D, 7F)
   982 basis functions,  1494 primitive gaussians,  1012 cartesian basis functions
   116 alpha electrons      116 beta electrons
       nuclear repulsion energy      3495.3942553061 Hartrees.
 NAtoms=   76 NActive=   76 NUniq=   76 SFac= 1.00D+00 NAtFMM=   60 NAOKFM=T Big=T
 Integral buffers will be    131072 words long.
 Raffenetti 2 integral format.
 Two-electron integral symmetry is turned off.
 Nuclear repulsion after empirical dispersion term =     3495.2940124981 Hartrees.
 ------------------------------------------------------------------------------
 Polarizable Continuum Model (PCM)
 =================================
 Model                : PCM.
 Atomic radii         : SMD-Coulomb.
 Polarization charges : Total charges.
 Charge compensation  : None.
 Solution method      : On-the-fly selection.
 Cavity type          : VdW (van der Waals Surface) (Alpha=1.000).
 Cavity algorithm     : GePol (No added spheres)
                        Default sphere list used, NSphG=   76.
                        Lebedev-Laikov grids with approx.  5.0 points / Ang**2.
                        Smoothing algorithm: York/Karplus (Gamma=1.0000).
                        Polarization charges: spherical gaussians, with
                                              point-specific exponents (IZeta= 3).
                        Self-potential: point-specific (ISelfS= 7).
                        Self-field    : sphere-specific E.n sum rule (ISelfD= 2).
 Solvent              : TetraHydroFuran, Eps=   7.425700 Eps(inf)=   1.974025
 ------------------------------------------------------------------------------
 ------------------------------------------------------------------------------
 Atomic radii for non-electrostatic terms: SMD-CDS.
 ------------------------------------------------------------------------------
 Nuclear repulsion after PCM non-electrostatic terms =     3495.2879041576 Hartrees.
 One-electron integrals computed using PRISM.
 NBasis=   982 RedAO= T EigKep=  1.00D-06  NBF=   982
 NBsUse=   979 1.00D-06 EigRej=  7.00D-07 NBFU=   979
 ExpMin= 7.40D-03 ExpMax= 8.59D+03 ExpMxC= 1.30D+03 IAcc=3 IRadAn=         5 AccDes= 0.00D+00
 Harris functional with IExCor= 4639 and IRadAn=       5 diagonalized for initial guess.
 HarFok:  IExCor= 4639 AccDes= 0.00D+00 IRadAn=         5 IDoV= 1 UseB2=F ITyADJ=14
 ICtDFT=  3500011 ScaDFX=  1.000000  1.000000  1.000000  1.000000
 FoFCou: FMM=F IPFlag=           0 FMFlag=      100000 FMFlg1=        2001
         NFxFlg=           0 DoJE=T BraDBF=F KetDBF=T FulRan=T
         wScrn=  0.000000 ICntrl=       500 IOpCl=  0 I1Cent=   200000004 NGrid=           0
         NMat0=    1 NMatS0=      1 NMatT0=    0 NMatD0=    1 NMtDS0=    0 NMtDT0=    0
 Symmetry not used in FoFCou.
 Requested convergence on RMS density matrix=1.00D-08 within 128 cycles.
 Requested convergence on MAX density matrix=1.00D-06.
 Requested convergence on             energy=1.00D-06.
 No special actions if energy rises.
 Inv3:  Mode=1 IEnd=    57658368.
 Iteration    1 A*A^-1 deviation from unit magnitude is 6.44D-15 for   4378.
 Iteration    1 A*A^-1 deviation from orthogonality  is 2.67D-15 for   2013   1229.
 Iteration    1 A^-1*A deviation from unit magnitude is 6.44D-15 for   4378.
 Iteration    1 A^-1*A deviation from orthogonality  is 1.62D-15 for   2769    235.
 Error on total polarization charges =  0.07301
 SCF Done:  E(RwB97XD) =  -1312.80846177     A.U. after   15 cycles
            NFock= 15  Conv=0.34D-08     -V/T= 2.0046
 SMD-CDS (non-electrostatic) energy       (kcal/mol) =      -3.83
 (included in total energy above)

 **********************************************************************

            Population analysis using the SCF Density.

 **********************************************************************

 Alpha  occ. eigenvalues --  -19.26700 -19.26107 -19.25920 -19.19351 -19.17233
 Alpha  occ. eigenvalues --  -10.32927 -10.32850 -10.32592 -10.32540 -10.32006
 Alpha  occ. eigenvalues --  -10.31920 -10.31435 -10.30834 -10.28007 -10.27976
 Alpha  occ. eigenvalues --  -10.27843 -10.27697 -10.27645 -10.27448 -10.25737
 Alpha  occ. eigenvalues --  -10.25316 -10.24863 -10.24705 -10.24674 -10.24572
 Alpha  occ. eigenvalues --  -10.24333 -10.22627 -10.20713  -6.80080  -1.99600
 Alpha  occ. eigenvalues --   -1.15864  -1.15232  -1.15014  -1.09965  -1.03257
 Alpha  occ. eigenvalues --   -0.88096  -0.87931  -0.87583  -0.87312  -0.86092
 Alpha  occ. eigenvalues --   -0.84107  -0.83740  -0.83298  -0.81767  -0.79308
 Alpha  occ. eigenvalues --   -0.77847  -0.75168  -0.74279  -0.72045  -0.69758
 Alpha  occ. eigenvalues --   -0.69266  -0.69107  -0.68767  -0.68335  -0.68272
 Alpha  occ. eigenvalues --   -0.67851  -0.61036  -0.60286  -0.60039  -0.59644
 Alpha  occ. eigenvalues --   -0.59455  -0.58280  -0.57932  -0.57452  -0.56973
 Alpha  occ. eigenvalues --   -0.54508  -0.54098  -0.53803  -0.53728  -0.52440
 Alpha  occ. eigenvalues --   -0.52058  -0.50868  -0.50753  -0.50222  -0.49998
 Alpha  occ. eigenvalues --   -0.49805  -0.49019  -0.48651  -0.48396  -0.47882
 Alpha  occ. eigenvalues --   -0.47252  -0.46396  -0.46246  -0.45914  -0.45661
 Alpha  occ. eigenvalues --   -0.45086  -0.44580  -0.44411  -0.44272  -0.43879
 Alpha  occ. eigenvalues --   -0.43715  -0.43334  -0.43045  -0.42933  -0.42745
 Alpha  occ. eigenvalues --   -0.42381  -0.42295  -0.42045  -0.41845  -0.41291
 Alpha  occ. eigenvalues --   -0.41090  -0.40591  -0.40518  -0.40412  -0.40004
 Alpha  occ. eigenvalues --   -0.39698  -0.38600  -0.36969  -0.35989  -0.35596
 Alpha  occ. eigenvalues --   -0.35463  -0.34907  -0.33858  -0.30732  -0.28086
 Alpha  occ. eigenvalues --   -0.27024
 Alpha virt. eigenvalues --    0.02070   0.02414   0.02463   0.02661   0.06014
 Alpha virt. eigenvalues --    0.06091   0.06189   0.06221   0.06311   0.06967
 Alpha virt. eigenvalues --    0.07424   0.07571   0.07709   0.07736   0.07929
 Alpha virt. eigenvalues --    0.07943   0.07969   0.08114   0.08170   0.08354
 Alpha virt. eigenvalues --    0.09819   0.09887   0.10033   0.10060   0.10359
 Alpha virt. eigenvalues --    0.10464   0.10627   0.10811   0.10950   0.11554
 Alpha virt. eigenvalues --    0.12147   0.12451   0.12668   0.12922   0.13191
 Alpha virt. eigenvalues --    0.13286   0.13454   0.13484   0.13661   0.13891
 Alpha virt. eigenvalues --    0.14033   0.14304   0.14710   0.14800   0.15080
 Alpha virt. eigenvalues --    0.15442   0.15484   0.15955   0.16225   0.16416
 Alpha virt. eigenvalues --    0.16515   0.16602   0.16718   0.16922   0.17200
 Alpha virt. eigenvalues --    0.17427   0.17821   0.17904   0.17972   0.18171
 Alpha virt. eigenvalues --    0.18261   0.18497   0.18689   0.18729   0.18991
 Alpha virt. eigenvalues --    0.19185   0.19381   0.19421   0.19513   0.19764
 Alpha virt. eigenvalues --    0.19908   0.20188   0.20267   0.20447   0.20648
 Alpha virt. eigenvalues --    0.20756   0.21012   0.21299   0.21394   0.21429
 Alpha virt. eigenvalues --    0.21542   0.21764   0.21857   0.22084   0.22147
 Alpha virt. eigenvalues --    0.22307   0.22472   0.22555   0.22735   0.22817
 Alpha virt. eigenvalues --    0.22900   0.23160   0.23232   0.23432   0.23759
 Alpha virt. eigenvalues --    0.23847   0.23922   0.24018   0.24276   0.24495
 Alpha virt. eigenvalues --    0.24607   0.24669   0.24936   0.25126   0.25307
 Alpha virt. eigenvalues --    0.25495   0.25561   0.25744   0.25859   0.25989
 Alpha virt. eigenvalues --    0.26135   0.26262   0.26541   0.26702   0.26955
 Alpha virt. eigenvalues --    0.27034   0.27139   0.27525   0.27668   0.27715
 Alpha virt. eigenvalues --    0.27956   0.28046   0.28237   0.28438   0.28773
 Alpha virt. eigenvalues --    0.28916   0.29107   0.29367   0.29519   0.29770
 Alpha virt. eigenvalues --    0.29851   0.30023   0.30224   0.30488   0.30676
 Alpha virt. eigenvalues --    0.30874   0.30881   0.31295   0.31416   0.31501
 Alpha virt. eigenvalues --    0.31780   0.31924   0.32298   0.32362   0.32563
 Alpha virt. eigenvalues --    0.32807   0.33062   0.33153   0.33428   0.33779
 Alpha virt. eigenvalues --    0.33908   0.34134   0.34261   0.34718   0.34886
 Alpha virt. eigenvalues --    0.35004   0.35310   0.35545   0.35606   0.35979
 Alpha virt. eigenvalues --    0.36234   0.36373   0.36793   0.36934   0.37236
 Alpha virt. eigenvalues --    0.37391   0.37585   0.37641   0.37883   0.37956
 Alpha virt. eigenvalues --    0.38544   0.38650   0.38955   0.39031   0.39333
 Alpha virt. eigenvalues --    0.39441   0.39881   0.39991   0.40168   0.40372
 Alpha virt. eigenvalues --    0.40381   0.40601   0.40706   0.41036   0.41230
 Alpha virt. eigenvalues --    0.41549   0.41709   0.41890   0.42211   0.42363
 Alpha virt. eigenvalues --    0.42577   0.42917   0.42967   0.43223   0.43547
 Alpha virt. eigenvalues --    0.43910   0.43972   0.44128   0.44504   0.44537
 Alpha virt. eigenvalues --    0.44858   0.45002   0.45138   0.45299   0.45582
 Alpha virt. eigenvalues --    0.45779   0.46142   0.46665   0.46939   0.47086
 Alpha virt. eigenvalues --    0.47144   0.47662   0.47883   0.48178   0.48639
 Alpha virt. eigenvalues --    0.48737   0.49390   0.49718   0.49913   0.50437
 Alpha virt. eigenvalues --    0.50685   0.50918   0.51661   0.52093   0.52456
 Alpha virt. eigenvalues --    0.52695   0.53185   0.53618   0.54041   0.54542
 Alpha virt. eigenvalues --    0.55192   0.55466   0.56016   0.56738   0.57523
 Alpha virt. eigenvalues --    0.57734   0.57805   0.58250   0.58760   0.59246
 Alpha virt. eigenvalues --    0.59630   0.59986   0.60044   0.60745   0.61338
 Alpha virt. eigenvalues --    0.61911   0.62153   0.62371   0.62646   0.63146
 Alpha virt. eigenvalues --    0.63707   0.64117   0.64300   0.64407   0.64731
 Alpha virt. eigenvalues --    0.65437   0.65714   0.65951   0.66754   0.67063
 Alpha virt. eigenvalues --    0.67210   0.67508   0.67797   0.67979   0.68338
 Alpha virt. eigenvalues --    0.68649   0.69100   0.69582   0.69866   0.70407
 Alpha virt. eigenvalues --    0.71048   0.71279   0.71662   0.71791   0.72474
 Alpha virt. eigenvalues --    0.72585   0.72991   0.73079   0.73440   0.73922
 Alpha virt. eigenvalues --    0.74553   0.74589   0.74877   0.75012   0.75641
 Alpha virt. eigenvalues --    0.76226   0.76302   0.76623   0.77109   0.77425
 Alpha virt. eigenvalues --    0.77702   0.77935   0.77939   0.78172   0.78733
 Alpha virt. eigenvalues --    0.79226   0.79316   0.79922   0.80050   0.80554
 Alpha virt. eigenvalues --    0.80623   0.80946   0.81417   0.81674   0.81951
 Alpha virt. eigenvalues --    0.82093   0.82364   0.82650   0.83148   0.83309
 Alpha virt. eigenvalues --    0.83573   0.83794   0.84184   0.84579   0.84799
 Alpha virt. eigenvalues --    0.85059   0.85300   0.85713   0.85967   0.86105
 Alpha virt. eigenvalues --    0.86412   0.86588   0.87036   0.87250   0.87465
 Alpha virt. eigenvalues --    0.87981   0.88223   0.88440   0.88534   0.88964
 Alpha virt. eigenvalues --    0.89008   0.89521   0.89582   0.89864   0.90037
 Alpha virt. eigenvalues --    0.90299   0.90769   0.91046   0.91455   0.91761
 Alpha virt. eigenvalues --    0.92175   0.92592   0.92894   0.93086   0.93489
 Alpha virt. eigenvalues --    0.93678   0.94244   0.94685   0.94949   0.95350
 Alpha virt. eigenvalues --    0.95663   0.96587   0.97136   0.97378   0.97938
 Alpha virt. eigenvalues --    0.98355   0.99051   1.00090   1.00214   1.00966
 Alpha virt. eigenvalues --    1.01159   1.01724   1.02117   1.03007   1.04660
 Alpha virt. eigenvalues --    1.05048   1.05722   1.06382   1.07259   1.08409
 Alpha virt. eigenvalues --    1.08883   1.09180   1.11585   1.11840   1.12446
 Alpha virt. eigenvalues --    1.12630   1.13414   1.14105   1.15064   1.15191
 Alpha virt. eigenvalues --    1.16527   1.17737   1.18056   1.18419   1.19249
 Alpha virt. eigenvalues --    1.19934   1.21321   1.22042   1.23173   1.23771
 Alpha virt. eigenvalues --    1.24546   1.25605   1.25845   1.26400   1.26952
 Alpha virt. eigenvalues --    1.27298   1.28195   1.28348   1.28724   1.29872
 Alpha virt. eigenvalues --    1.30353   1.31386   1.32386   1.33244   1.34677
 Alpha virt. eigenvalues --    1.35061   1.35857   1.36453   1.37687   1.38160
 Alpha virt. eigenvalues --    1.38388   1.38815   1.39154   1.39955   1.40674
 Alpha virt. eigenvalues --    1.41229   1.42013   1.42450   1.43136   1.43720
 Alpha virt. eigenvalues --    1.44949   1.45737   1.46323   1.47012   1.47251
 Alpha virt. eigenvalues --    1.48574   1.49069   1.49920   1.50519   1.51330
 Alpha virt. eigenvalues --    1.51964   1.52272   1.53435   1.54834   1.55246
 Alpha virt. eigenvalues --    1.56115   1.56309   1.56752   1.57054   1.57705
 Alpha virt. eigenvalues --    1.58260   1.58723   1.59419   1.60246   1.60512
 Alpha virt. eigenvalues --    1.61104   1.61581   1.62052   1.62575   1.63193
 Alpha virt. eigenvalues --    1.64030   1.64164   1.64525   1.64909   1.65713
 Alpha virt. eigenvalues --    1.66048   1.66119   1.66662   1.67476   1.67572
 Alpha virt. eigenvalues --    1.68139   1.68275   1.68709   1.69163   1.69304
 Alpha virt. eigenvalues --    1.69676   1.70478   1.70646   1.71117   1.71276
 Alpha virt. eigenvalues --    1.72254   1.72584   1.73119   1.73242   1.73452
 Alpha virt. eigenvalues --    1.73672   1.74149   1.74544   1.74924   1.75066
 Alpha virt. eigenvalues --    1.75369   1.75860   1.76099   1.76331   1.76850
 Alpha virt. eigenvalues --    1.77234   1.77436   1.77811   1.78092   1.78887
 Alpha virt. eigenvalues --    1.79095   1.79848   1.80214   1.80572   1.80643
 Alpha virt. eigenvalues --    1.80918   1.81569   1.81903   1.82196   1.83000
 Alpha virt. eigenvalues --    1.83408   1.83789   1.83992   1.84623   1.85037
 Alpha virt. eigenvalues --    1.85484   1.85855   1.86564   1.87044   1.87480
 Alpha virt. eigenvalues --    1.87845   1.88165   1.88461   1.89006   1.89345
 Alpha virt. eigenvalues --    1.89933   1.90254   1.90442   1.91007   1.91256
 Alpha virt. eigenvalues --    1.91882   1.92164   1.92945   1.93324   1.94131
 Alpha virt. eigenvalues --    1.94265   1.94812   1.95265   1.95482   1.95878
 Alpha virt. eigenvalues --    1.96316   1.96439   1.96959   1.97382   1.98254
 Alpha virt. eigenvalues --    1.99187   1.99605   2.00180   2.00375   2.01274
 Alpha virt. eigenvalues --    2.01624   2.02212   2.02756   2.03232   2.03997
 Alpha virt. eigenvalues --    2.04222   2.04655   2.05086   2.05426   2.06201
 Alpha virt. eigenvalues --    2.06822   2.06999   2.08064   2.08167   2.08711
 Alpha virt. eigenvalues --    2.09186   2.10048   2.10709   2.11093   2.11180
 Alpha virt. eigenvalues --    2.12306   2.12711   2.13552   2.13615   2.14202
 Alpha virt. eigenvalues --    2.14983   2.15843   2.16008   2.16523   2.17463
 Alpha virt. eigenvalues --    2.18139   2.18598   2.19370   2.20503   2.21718
 Alpha virt. eigenvalues --    2.21824   2.23165   2.23815   2.24790   2.25031
 Alpha virt. eigenvalues --    2.25753   2.26416   2.27227   2.27542   2.28519
 Alpha virt. eigenvalues --    2.29060   2.29447   2.29692   2.29852   2.31209
 Alpha virt. eigenvalues --    2.31941   2.32325   2.32954   2.33665   2.34926
 Alpha virt. eigenvalues --    2.35333   2.35417   2.36875   2.37518   2.37915
 Alpha virt. eigenvalues --    2.39578   2.40266   2.41079   2.41976   2.42177
 Alpha virt. eigenvalues --    2.42396   2.43059   2.43578   2.43832   2.44460
 Alpha virt. eigenvalues --    2.44877   2.45386   2.46484   2.48075   2.48733
 Alpha virt. eigenvalues --    2.49582   2.50218   2.50930   2.52314   2.54930
 Alpha virt. eigenvalues --    2.55202   2.55656   2.56482   2.57812   2.59436
 Alpha virt. eigenvalues --    2.60168   2.60512   2.60999   2.61390   2.61872
 Alpha virt. eigenvalues --    2.62510   2.62900   2.63125   2.63791   2.64218
 Alpha virt. eigenvalues --    2.64686   2.65166   2.65571   2.66219   2.66898
 Alpha virt. eigenvalues --    2.67080   2.67489   2.67927   2.68399   2.68767
 Alpha virt. eigenvalues --    2.69318   2.69365   2.70296   2.70742   2.71144
 Alpha virt. eigenvalues --    2.71422   2.72463   2.72965   2.73283   2.73683
 Alpha virt. eigenvalues --    2.73865   2.74827   2.75655   2.76009   2.76321
 Alpha virt. eigenvalues --    2.77018   2.77106   2.77841   2.78769   2.79420
 Alpha virt. eigenvalues --    2.80005   2.80402   2.80566   2.81043   2.81368
 Alpha virt. eigenvalues --    2.82786   2.83252   2.84023   2.84534   2.85049
 Alpha virt. eigenvalues --    2.85659   2.86016   2.87379   2.87905   2.88542
 Alpha virt. eigenvalues --    2.89271   2.89704   2.90129   2.90963   2.91694
 Alpha virt. eigenvalues --    2.92494   2.93746   2.94006   2.94373   2.94778
 Alpha virt. eigenvalues --    2.95299   2.96395   2.96582   2.96832   2.97302
 Alpha virt. eigenvalues --    2.97578   2.98023   2.98823   2.99734   2.99958
 Alpha virt. eigenvalues --    3.01076   3.01429   3.01863   3.02914   3.03342
 Alpha virt. eigenvalues --    3.03863   3.04636   3.04863   3.05549   3.06006
 Alpha virt. eigenvalues --    3.06866   3.07485   3.07995   3.09324   3.09874
 Alpha virt. eigenvalues --    3.10654   3.11855   3.13263   3.13486   3.14306
 Alpha virt. eigenvalues --    3.15408   3.16317   3.16574   3.17943   3.18072
 Alpha virt. eigenvalues --    3.19369   3.19995   3.21356   3.22413   3.23456
 Alpha virt. eigenvalues --    3.24158   3.24846   3.26692   3.26968   3.27286
 Alpha virt. eigenvalues --    3.28254   3.29006   3.30170   3.31781   3.31986
 Alpha virt. eigenvalues --    3.32383   3.33480   3.34312   3.35210   3.37008
 Alpha virt. eigenvalues --    3.37196   3.38871   3.39285   3.39936   3.40785
 Alpha virt. eigenvalues --    3.42171   3.42550   3.43501   3.44478   3.45772
 Alpha virt. eigenvalues --    3.47559   3.48001   3.49062   3.50022   3.51100
 Alpha virt. eigenvalues --    3.52701   3.55212   3.57743   3.64446   3.67636
 Alpha virt. eigenvalues --    3.74329   3.75600   3.75865   3.83345   3.83471
 Alpha virt. eigenvalues --    3.86351   3.87736   3.88942   3.89995   3.91247
 Alpha virt. eigenvalues --    3.92009   3.92225   3.93473   3.93808   3.94685
 Alpha virt. eigenvalues --    3.95079   3.96139   3.96982   3.98164   3.99072
 Alpha virt. eigenvalues --    4.00394   4.01851   4.02837   4.03174   4.04624
 Alpha virt. eigenvalues --    4.05421   4.07207   4.14632   4.15084   4.15464
 Alpha virt. eigenvalues --    4.17860   4.19653   4.20221   4.20704   4.21897
 Alpha virt. eigenvalues --    4.22623   4.24287   4.26331   4.27190   4.27806
 Alpha virt. eigenvalues --    4.29805   4.34898   4.38513   4.40955   4.42457
 Alpha virt. eigenvalues --    4.43552   4.44750   4.47314   4.48424   4.49301
 Alpha virt. eigenvalues --    4.50286   4.53683   4.56376   4.75713   5.36245
 Alpha virt. eigenvalues --    5.39755   5.42050   5.46654   5.54839   5.59053
 Alpha virt. eigenvalues --    5.66990   5.70144   5.72319   5.75585   5.78117
 Alpha virt. eigenvalues --    5.79980   5.80260   5.83464   5.90851  14.97241
 Alpha virt. eigenvalues --   23.95244  23.97240  24.01841  24.02310  24.02596
 Alpha virt. eigenvalues --   24.03604  24.03643  24.04571  24.05486  24.10169
 Alpha virt. eigenvalues --   24.10807  24.11676  24.12089  24.13689  24.14250
 Alpha virt. eigenvalues --   24.14685  24.15231  24.16127  24.17660  24.19192
 Alpha virt. eigenvalues --   24.22443  24.22862  24.43785  50.14334  50.15019
 Alpha virt. eigenvalues --   50.16236  50.24898  50.27361
          Condensed to atoms (all electrons):
 Mulliken charges:
               1
     1  Li  -1.127801
     2  C   -0.009246
     3  O    0.002884
     4  C   -0.509272
     5  H    0.287389
     6  C   -0.107257
     7  C   -0.588168
     8  H    0.222959
     9  H    0.226071
    10  H    0.137785
    11  H    0.258616
    12  H    0.189833
    13  H    0.240512
    14  C   -0.076051
    15  O    0.143972
    16  C   -0.529805
    17  H    0.208019
    18  C    0.017272
    19  C   -0.612065
    20  H    0.253770
    21  H    0.186494
    22  H    0.269510
    23  H    0.091063
    24  H    0.226141
    25  H    0.214434
    26  C   -0.202135
    27  O    0.072297
    28  C   -0.267914
    29  H    0.111298
    30  C   -0.108916
    31  C   -0.602996
    32  H    0.180935
    33  H    0.255769
    34  H    0.207035
    35  H    0.227495
    36  H    0.174869
    37  H    0.250849
    38  O    0.083351
    39  H    0.292470
    40  H    0.234987
    41  H    0.238691
    42  C   -0.090504
    43  C    0.399611
    44  H   -0.596186
    45  C   -0.476285
    46  H    0.204784
    47  H    0.152641
    48  H    0.159514
    49  C   -0.836360
    50  H    0.141781
    51  H    0.183824
    52  H    0.186994
    53  B    0.563073
    54  C   -0.696702
    55  H    0.195661
    56  H    0.157546
    57  H    0.130419
    58  O   -0.086039
    59  C   -0.071495
    60  C   -0.218427
    61  C   -0.163841
    62  H    0.191405
    63  H    0.200770
    64  H    0.119023
    65  C   -0.835271
    66  H    0.187905
    67  H    0.187778
    68  H    0.178946
    69  C   -0.850033
    70  H    0.254911
    71  H    0.171343
    72  H    0.027046
    73  C   -0.387870
    74  H    0.228451
    75  H    0.074164
    76  H    0.246284
 Sum of Mulliken charges =  -0.00000
 Mulliken charges with hydrogens summed into heavy atoms:
               1
     1  Li  -1.127801
     2  C    0.513130
     3  O    0.002884
     4  C   -0.060242
     6  C    0.289144
     7  C   -0.157823
    14  C    0.424438
    15  O    0.143972
    16  C   -0.089541
    18  C    0.377845
    19  C   -0.171490
    26  C    0.147854
    27  O    0.072297
    28  C    0.168790
    30  C    0.325614
    31  C   -0.177278
    38  O    0.083351
    42  C   -0.090504
    43  C   -0.196575
    45  C    0.040654
    49  C   -0.323762
    53  B    0.563073
    54  C   -0.213077
    58  O   -0.086039
    59  C   -0.071495
    60  C   -0.218427
    61  C    0.347357
    65  C   -0.280642
    69  C   -0.396733
    73  C    0.161029
 Electronic spatial extent (au):  <R**2>=          11155.9394
 Charge=             -0.0000 electrons
 Dipole moment (field-independent basis, Debye):
    X=             13.5369    Y=              5.7109    Z=             -1.7976  Tot=             14.8018
 Quadrupole moment (field-independent basis, Debye-Ang):
   XX=           -190.2065   YY=           -177.8627   ZZ=           -177.2850
   XY=             -9.9827   XZ=             -0.0547   YZ=             -0.2491
 Traceless Quadrupole moment (field-independent basis, Debye-Ang):
   XX=             -8.4218   YY=              3.9220   ZZ=              4.4997
   XY=             -9.9827   XZ=             -0.0547   YZ=             -0.2491
 Octapole moment (field-independent basis, Debye-Ang**2):
  XXX=            187.2365  YYY=             66.1769  ZZZ=             13.6265  XYY=             63.9497
  XXY=             30.4593  XXZ=             -5.5942  XZZ=             59.1228  YZZ=             10.1493
  YYZ=            -25.3087  XYZ=             -9.7226
 Hexadecapole moment (field-independent basis, Debye-Ang**3):
 XXXX=          -6434.5640 YYYY=          -4388.1644 ZZZZ=          -4445.9207 XXXY=            -72.5817
 XXXZ=            358.3727 YYYX=             30.0208 YYYZ=           -131.0023 ZZZX=            377.2028
 ZZZY=           -166.2587 XXYY=          -1769.0073 XXZZ=          -1728.0827 YYZZ=          -1475.9540
 XXYZ=            -23.3012 YYXZ=             81.8326 ZZXY=            -28.4443
 N-N= 3.495287904158D+03 E-N=-1.005159306688D+04  KE= 1.306768131176D+03
 Unable to Open any file for archive entry.
 1\1\GINC-NODE09\SP\RwB97XD\6-311++G(d,p)\C23H46B1Li1O5\WHUGHES2\08-Oct
 -2025\0\\# wb97xd/6-311++g** nosymm int=ultrafine scrf=(smd,solvent=te
 trahydrofuran)\\r1-li-3thf-c2_tzpop-sp\\0,1\Li,0,0.7396,0.191,0.1684\C
 ,0,1.1097,2.2768,-2.1073\O,0,1.329,1.8735,-0.7528\C,0,0.7305,3.7679,-2
 .0477\H,0,0.3308,1.6361,-2.5243\C,0,1.9046,2.9996,-0.0907\C,0,1.1038,4
 .1912,-0.6088\H,0,-0.3362,3.9134,-2.2383\H,0,1.2863,4.3365,-2.7984\H,0
 ,1.8289,2.829,0.9844\H,0,2.9666,3.0778,-0.369\H,0,0.2033,4.3273,-0.001
 6\H,0,1.6829,5.118,-0.5751\C,0,3.056,-0.7109,-1.5515\O,0,1.922,-1.1228
 ,-0.7917\C,0,2.7919,-1.2768,-2.9396\H,0,3.9694,-1.1415,-1.1124\C,0,1.6
 377,-2.4755,-1.1699\C,0,2.1352,-2.6338,-2.6216\H,0,3.705,-1.372,-3.533
 9\H,0,2.0957,-0.6229,-3.476\H,0,2.1664,-3.1517,-0.4849\H,0,0.5627,-2.6
 191,-1.0663\H,0,2.8618,-3.4489,-2.6918\H,0,1.3114,-2.8581,-3.3041\C,0,
 1.3087,-0.5619,2.8739\O,0,1.7616,0.3693,1.8884\C,0,2.1802,-1.7998,2.66
 7\H,0,0.2453,-0.7259,2.6957\C,0,3.1847,0.2583,1.858\C,0,3.5053,-1.2237
 ,2.1186\H,0,1.7153,-2.4623,1.9314\H,0,2.3123,-2.3623,3.5955\H,0,3.5249
 ,0.6239,0.8867\H,0,3.6054,0.9015,2.6434\H,0,3.7994,-1.7323,1.1968\H,0,
 4.3256,-1.3221,2.8355\O,0,-1.0833,-0.0011,0.6456\H,0,3.1124,0.377,-1.5
 024\H,0,2.0367,2.1247,-2.6777\H,0,1.4537,-0.126,3.8732\C,0,-1.999,-1.5
 518,-1.2641\C,0,-1.2701,-0.882,-2.1716\H,0,-0.6405,-0.0742,-1.7947\C,0
 ,-1.1956,-1.0643,-3.6668\H,0,-1.7044,-0.2454,-4.1972\H,0,-0.1521,-1.05
 28,-4.0095\H,0,-1.6415,-2.0043,-4.0086\C,0,-2.9192,-2.6871,-1.6614\H,0
 ,-3.2057,-2.6864,-2.7202\H,0,-2.4527,-3.6605,-1.4491\H,0,-3.8412,-2.65
 03,-1.0674\B,0,-1.9395,-1.2207,0.3385\C,0,-1.372,-2.5128,1.1793\H,0,-0
 .328,-2.7616,0.9351\H,0,-1.4158,-2.3528,2.2667\H,0,-1.9636,-3.4192,0.9
 744\O,0,-3.2939,-0.7893,0.8057\C,0,-3.1841,0.3806,1.5819\C,0,-1.9262,1
 .0958,0.983\C,0,-2.9855,0.0156,3.064\H,0,-3.0432,0.8966,3.7152\H,0,-3.
 7763,-0.6823,3.362\H,0,-2.0222,-0.4738,3.2338\C,0,-4.4737,1.1915,1.455
 1\H,0,-4.741,1.3533,0.4069\H,0,-5.2989,0.649,1.932\H,0,-4.3824,2.1675,
 1.9487\C,0,-1.1959,2.0115,1.9617\H,0,-1.8642,2.8022,2.3247\H,0,-0.8073
 ,1.462,2.8225\H,0,-0.3482,2.492,1.4623\C,0,-2.2594,1.8981,-0.2817\H,0,
 -2.8116,2.8153,-0.043\H,0,-1.3239,2.1843,-0.773\H,0,-2.8485,1.3071,-0.
 9881\\Version=AS64L-G16RevC.01\HF=-1312.8084618\RMSD=3.447e-09\Dipole=
 5.3258271,2.2468396,-0.7072316\Quadrupole=-6.2613721,2.9159376,3.34543
 45,-7.421894,-0.0406623,-0.1852228\PG=C01 [X(C23H46B1Li1O5)]\\@
 The archive entry for this job was punched.


 ALL OUR THINKING ABOUT NATURE MUST NECESSARILY MOVE IN CIRCLES OR SPIRALS;
 FOR WE CAN ONLY UNDERSTAND NATURE IF WE THINK ABOUT HER, AND WE CAN ONLY
 THINK BECAUSE OUR BRAIN IS BUILT IN ACCORDANCE WITH NATURE'S LAWS.

                                             -- TIMOTHY FERRIS, "GALAXIES"
 Job cpu time:       0 days  4 hours 48 minutes  8.8 seconds.
 Elapsed time:       0 days  1 hours 12 minutes 41.2 seconds.
 File lengths (MBytes):  RWF=    825 Int=      0 D2E=      0 Chk=     59 Scr=      1
 Normal termination of Gaussian 16 at Wed Oct  8 16:40:27 2025.
