Job Start Time: Wed Oct  8 15:27:45 MDT 2025
SLURM Job ID: 768198
SLURM Job Name: r1-li-3thf-c3_tzpop-sp
 Entering Gaussian System, Link 0=/opt/apps/Gaussian/G16C/g16/g16
 Initial command:
 /opt/apps/Gaussian/G16C/g16/l1.exe "/tmp/768198/Gau-1730618.inp" -scrdir="/tmp/768198/"
 Entering Link 1 = /opt/apps/Gaussian/G16C/g16/l1.exe PID=   1730622.
  
 Copyright (c) 1988-2019, Gaussian, Inc.  All Rights Reserved.
  
 This is part of the Gaussian(R) 16 program.  It is based on
 the Gaussian(R) 09 system (copyright 2009, Gaussian, Inc.),
 the Gaussian(R) 03 system (copyright 2003, Gaussian, Inc.),
 the Gaussian(R) 98 system (copyright 1998, Gaussian, Inc.),
 the Gaussian(R) 94 system (copyright 1995, Gaussian, Inc.),
 the Gaussian 92(TM) system (copyright 1992, Gaussian, Inc.),
 the Gaussian 90(TM) system (copyright 1990, Gaussian, Inc.),
 the Gaussian 88(TM) system (copyright 1988, Gaussian, Inc.),
 the Gaussian 86(TM) system (copyright 1986, Carnegie Mellon
 University), and the Gaussian 82(TM) system (copyright 1983,
 Carnegie Mellon University). Gaussian is a federally registered
 trademark of Gaussian, Inc.
  
 This software contains proprietary and confidential information,
 including trade secrets, belonging to Gaussian, Inc.
  
 This software is provided under written license and may be
 used, copied, transmitted, or stored only in accord with that
 written license.
  
 The following legend is applicable only to US Government
 contracts under FAR:
  
                    RESTRICTED RIGHTS LEGEND
  
 Use, reproduction and disclosure by the US Government is
 subject to restrictions as set forth in subparagraphs (a)
 and (c) of the Commercial Computer Software - Restricted
 Rights clause in FAR 52.227-19.
  
 Gaussian, Inc.
 340 Quinnipiac St., Bldg. 40, Wallingford CT 06492
  
  
 ---------------------------------------------------------------
 Warning -- This program may not be used in any manner that
 competes with the business of Gaussian, Inc. or will provide
 assistance to any competitor of Gaussian, Inc.  The licensee
 of this program is prohibited from giving any competitor of
 Gaussian, Inc. access to this program.  By using this program,
 the user acknowledges that Gaussian, Inc. is engaged in the
 business of creating and licensing software in the field of
 computational chemistry and represents and warrants to the
 licensee that it is not a competitor of Gaussian, Inc. and that
 it will not use this program in any manner prohibited above.
 ---------------------------------------------------------------
  

 Cite this work as:
 Gaussian 16, Revision C.01,
 M. J. Frisch, G. W. Trucks, H. B. Schlegel, G. E. Scuseria, 
 M. A. Robb, J. R. Cheeseman, G. Scalmani, V. Barone, 
 G. A. Petersson, H. Nakatsuji, X. Li, M. Caricato, A. V. Marenich, 
 J. Bloino, B. G. Janesko, R. Gomperts, B. Mennucci, H. P. Hratchian, 
 J. V. Ortiz, A. F. Izmaylov, J. L. Sonnenberg, D. Williams-Young, 
 F. Ding, F. Lipparini, F. Egidi, J. Goings, B. Peng, A. Petrone, 
 T. Henderson, D. Ranasinghe, V. G. Zakrzewski, J. Gao, N. Rega, 
 G. Zheng, W. Liang, M. Hada, M. Ehara, K. Toyota, R. Fukuda, 
 J. Hasegawa, M. Ishida, T. Nakajima, Y. Honda, O. Kitao, H. Nakai, 
 T. Vreven, K. Throssell, J. A. Montgomery, Jr., J. E. Peralta, 
 F. Ogliaro, M. J. Bearpark, J. J. Heyd, E. N. Brothers, K. N. Kudin, 
 V. N. Staroverov, T. A. Keith, R. Kobayashi, J. Normand, 
 K. Raghavachari, A. P. Rendell, J. C. Burant, S. S. Iyengar, 
 J. Tomasi, M. Cossi, J. M. Millam, M. Klene, C. Adamo, R. Cammi, 
 J. W. Ochterski, R. L. Martin, K. Morokuma, O. Farkas, 
 J. B. Foresman, and D. J. Fox, Gaussian, Inc., Wallingford CT, 2019.
 
 ******************************************
 Gaussian 16:  AS64L-G16RevC.01  3-Jul-2019
                 8-Oct-2025 
 ******************************************
 %chk=r1-li-3thf-c3_tzpop-sp.chk
 %nprocshared=4
 Will use up to    4 processors via shared memory.
 %mem=8GB
 ----------------------------------------------------------------------
 # wb97xd/6-311++g** nosymm int=ultrafine scrf=(smd,solvent=tetrahydrof
 uran)
 ----------------------------------------------------------------------
 1/38=1,172=1/1;
 2/12=2,15=1,17=6,18=5,40=1/2;
 3/5=4,6=6,7=1111,11=2,25=1,30=1,70=32201,72=20,74=-58,75=-5/1,2,3;
 4//1;
 5/5=2,38=5,53=20/2;
 6/7=2,8=2,9=2,10=2,28=1/1;
 99/5=1,9=1/99;
 ----------------------
 r1-li-3thf-c3_tzpop-sp
 ----------------------
 Symbolic Z-matrix:
 Charge =  0 Multiplicity = 1
 Li                    0.7245   -0.0173   -0.3065 
 C                     1.6096    0.9181    2.5542 
 O                     1.9311    0.7471    1.1707 
 C                     1.8319    2.4113    2.8506 
 H                     2.2866    0.2888    3.1505 
 C                     3.0456    1.6045    0.9341 
 C                     2.6906    2.9006    1.6606 
 H                     2.3403    2.5467    3.8095 
 H                     0.8802    2.9479    2.8953 
 H                     3.95      1.144     1.3609 
 H                     3.1711    1.704    -0.1437 
 H                     3.583     3.4491    1.9749 
 H                     2.1048    3.5502    1.0026 
 C                     1.3858    2.4718   -2.0134 
 O                     1.5139    1.0643   -1.8142 
 C                     0.8035    2.6088   -3.4167 
 H                     2.3799    2.94     -1.9483 
 C                     1.9921    0.5168   -3.0457 
 C                     1.3976    1.3943   -4.1644 
 H                     1.0721    3.5633   -3.8775 
 H                    -0.2874    2.5427   -3.3759 
 H                     3.0901    0.557    -3.0481 
 H                     1.6791   -0.5288   -3.0809 
 H                     2.1768    1.6945   -4.8707 
 H                     0.6261    0.8587   -4.7242 
 C                     1.348    -2.8372    0.1452 
 O                     1.7545   -1.728    -0.6584 
 C                     2.1685   -2.7002    1.4235 
 H                     1.5782   -3.7724   -0.3865 
 C                     3.1748   -1.6363   -0.5146 
 C                     3.4943   -2.0864    0.924 
 H                     2.3052   -3.6603    1.9289 
 H                     1.6628   -2.0179    2.1139 
 H                     3.6458   -2.2973   -1.2549 
 H                     3.4607   -0.6056   -0.7311 
 H                     4.3075   -2.8182    0.9266 
 H                     3.7972   -1.2414    1.5475 
 O                    -1.1403   -0.4973   -0.245 
 H                     0.7517    2.8651   -1.2176 
 H                     0.5836    0.5775    2.6964 
 H                     0.2707   -2.76      0.2883 
 C                    -1.8988   -0.0494    2.1988 
 C                    -1.2458   -1.1575    2.5868 
 H                    -0.7568   -1.733     1.7989 
 C                    -1.0434   -1.7142    3.972 
 H                     0.0135   -1.6424    4.2718 
 H                    -1.6319   -1.1982    4.7378 
 H                    -1.3042   -2.7809    4.0136 
 C                    -2.6057    0.8507    3.1899 
 H                    -3.5254    1.257     2.7494 
 H                    -2.8784    0.359     4.1318 
 H                    -1.9772    1.7168    3.4465 
 B                    -1.9309    0.46      0.641 
 C                    -1.3329    1.9841    0.5141 
 H                    -0.2815    2.0657    0.8315 
 H                    -1.3899    2.3407   -0.5252 
 H                    -1.8986    2.7039    1.1258 
 O                    -3.297     0.4075    0.0461 
 C                    -3.4075   -0.7351   -0.7715 
 C                    -1.9566   -0.9067   -1.338 
 C                    -4.4627   -0.4785   -1.8471 
 H                    -5.4539   -0.414    -1.3824 
 H                    -4.2773    0.4634   -2.3715 
 H                    -4.4884   -1.2916   -2.5838 
 C                    -3.8512   -1.948     0.0641 
 H                    -4.0806   -2.8173   -0.5649 
 H                    -3.0881   -2.2331    0.7931 
 H                    -4.7586   -1.6775    0.6167 
 C                    -1.6911    0.0175   -2.5322 
 H                    -2.2259   -0.3098   -3.4317 
 H                    -1.9826    1.0472   -2.3071 
 H                    -0.6202    0.0068   -2.7519 
 C                    -1.6025   -2.3362   -1.7386 
 H                    -2.2745   -2.6936   -2.5289 
 H                    -0.5765   -2.3759   -2.1236 
 H                    -1.6735   -3.0238   -0.8916 
 
 Symmetry turned off by external request.
 Stoichiometry    C23H46BLiO5
 Framework group  C1[X(C23H46BLiO5)]
 Deg. of freedom   222
 Full point group                 C1      NOp   1
                          Input orientation:                          
 ---------------------------------------------------------------------
 Center     Atomic      Atomic             Coordinates (Angstroms)
 Number     Number       Type             X           Y           Z
 ---------------------------------------------------------------------
      1          3           0        0.724500   -0.017300   -0.306500
      2          6           0        1.609600    0.918100    2.554200
      3          8           0        1.931100    0.747100    1.170700
      4          6           0        1.831900    2.411300    2.850600
      5          1           0        2.286600    0.288800    3.150500
      6          6           0        3.045600    1.604500    0.934100
      7          6           0        2.690600    2.900600    1.660600
      8          1           0        2.340300    2.546700    3.809500
      9          1           0        0.880200    2.947900    2.895300
     10          1           0        3.950000    1.144000    1.360900
     11          1           0        3.171100    1.704000   -0.143700
     12          1           0        3.583000    3.449100    1.974900
     13          1           0        2.104800    3.550200    1.002600
     14          6           0        1.385800    2.471800   -2.013400
     15          8           0        1.513900    1.064300   -1.814200
     16          6           0        0.803500    2.608800   -3.416700
     17          1           0        2.379900    2.940000   -1.948300
     18          6           0        1.992100    0.516800   -3.045700
     19          6           0        1.397600    1.394300   -4.164400
     20          1           0        1.072100    3.563300   -3.877500
     21          1           0       -0.287400    2.542700   -3.375900
     22          1           0        3.090100    0.557000   -3.048100
     23          1           0        1.679100   -0.528800   -3.080900
     24          1           0        2.176800    1.694500   -4.870700
     25          1           0        0.626100    0.858700   -4.724200
     26          6           0        1.348000   -2.837200    0.145200
     27          8           0        1.754500   -1.728000   -0.658400
     28          6           0        2.168500   -2.700200    1.423500
     29          1           0        1.578200   -3.772400   -0.386500
     30          6           0        3.174800   -1.636300   -0.514600
     31          6           0        3.494300   -2.086400    0.924000
     32          1           0        2.305200   -3.660300    1.928900
     33          1           0        1.662800   -2.017900    2.113900
     34          1           0        3.645800   -2.297300   -1.254900
     35          1           0        3.460700   -0.605600   -0.731100
     36          1           0        4.307500   -2.818200    0.926600
     37          1           0        3.797200   -1.241400    1.547500
     38          8           0       -1.140300   -0.497300   -0.245000
     39          1           0        0.751700    2.865100   -1.217600
     40          1           0        0.583600    0.577500    2.696400
     41          1           0        0.270700   -2.760000    0.288300
     42          6           0       -1.898800   -0.049400    2.198800
     43          6           0       -1.245800   -1.157500    2.586800
     44          1           0       -0.756800   -1.733000    1.798900
     45          6           0       -1.043400   -1.714200    3.972000
     46          1           0        0.013500   -1.642400    4.271800
     47          1           0       -1.631900   -1.198200    4.737800
     48          1           0       -1.304200   -2.780900    4.013600
     49          6           0       -2.605700    0.850700    3.189900
     50          1           0       -3.525400    1.257000    2.749400
     51          1           0       -2.878400    0.359000    4.131800
     52          1           0       -1.977200    1.716800    3.446500
     53          5           0       -1.930900    0.460000    0.641000
     54          6           0       -1.332900    1.984100    0.514100
     55          1           0       -0.281500    2.065700    0.831500
     56          1           0       -1.389900    2.340700   -0.525200
     57          1           0       -1.898600    2.703900    1.125800
     58          8           0       -3.297000    0.407500    0.046100
     59          6           0       -3.407500   -0.735100   -0.771500
     60          6           0       -1.956600   -0.906700   -1.338000
     61          6           0       -4.462700   -0.478500   -1.847100
     62          1           0       -5.453900   -0.414000   -1.382400
     63          1           0       -4.277300    0.463400   -2.371500
     64          1           0       -4.488400   -1.291600   -2.583800
     65          6           0       -3.851200   -1.948000    0.064100
     66          1           0       -4.080600   -2.817300   -0.564900
     67          1           0       -3.088100   -2.233100    0.793100
     68          1           0       -4.758600   -1.677500    0.616700
     69          6           0       -1.691100    0.017500   -2.532200
     70          1           0       -2.225900   -0.309800   -3.431700
     71          1           0       -1.982600    1.047200   -2.307100
     72          1           0       -0.620200    0.006800   -2.751900
     73          6           0       -1.602500   -2.336200   -1.738600
     74          1           0       -2.274500   -2.693600   -2.528900
     75          1           0       -0.576500   -2.375900   -2.123600
     76          1           0       -1.673500   -3.023800   -0.891600
 ---------------------------------------------------------------------
 Rotational constants (GHZ):           0.1722724           0.1469222           0.1213968
 Standard basis: 6-311++G(d,p) (5D, 7F)
   982 basis functions,  1494 primitive gaussians,  1012 cartesian basis functions
   116 alpha electrons      116 beta electrons
       nuclear repulsion energy      3484.9249801369 Hartrees.
 NAtoms=   76 NActive=   76 NUniq=   76 SFac= 1.00D+00 NAtFMM=   60 NAOKFM=T Big=T
 Integral buffers will be    131072 words long.
 Raffenetti 2 integral format.
 Two-electron integral symmetry is turned off.
 Nuclear repulsion after empirical dispersion term =     3484.8257887088 Hartrees.
 ------------------------------------------------------------------------------
 Polarizable Continuum Model (PCM)
 =================================
 Model                : PCM.
 Atomic radii         : SMD-Coulomb.
 Polarization charges : Total charges.
 Charge compensation  : None.
 Solution method      : On-the-fly selection.
 Cavity type          : VdW (van der Waals Surface) (Alpha=1.000).
 Cavity algorithm     : GePol (No added spheres)
                        Default sphere list used, NSphG=   76.
                        Lebedev-Laikov grids with approx.  5.0 points / Ang**2.
                        Smoothing algorithm: York/Karplus (Gamma=1.0000).
                        Polarization charges: spherical gaussians, with
                                              point-specific exponents (IZeta= 3).
                        Self-potential: point-specific (ISelfS= 7).
                        Self-field    : sphere-specific E.n sum rule (ISelfD= 2).
 Solvent              : TetraHydroFuran, Eps=   7.425700 Eps(inf)=   1.974025
 ------------------------------------------------------------------------------
 ------------------------------------------------------------------------------
 Atomic radii for non-electrostatic terms: SMD-CDS.
 ------------------------------------------------------------------------------
 Nuclear repulsion after PCM non-electrostatic terms =     3484.8192741421 Hartrees.
 One-electron integrals computed using PRISM.
 NBasis=   982 RedAO= T EigKep=  1.11D-06  NBF=   982
 NBsUse=   980 1.00D-06 EigRej=  7.01D-07 NBFU=   980
 ExpMin= 7.40D-03 ExpMax= 8.59D+03 ExpMxC= 1.30D+03 IAcc=3 IRadAn=         5 AccDes= 0.00D+00
 Harris functional with IExCor= 4639 and IRadAn=       5 diagonalized for initial guess.
 HarFok:  IExCor= 4639 AccDes= 0.00D+00 IRadAn=         5 IDoV= 1 UseB2=F ITyADJ=14
 ICtDFT=  3500011 ScaDFX=  1.000000  1.000000  1.000000  1.000000
 FoFCou: FMM=F IPFlag=           0 FMFlag=      100000 FMFlg1=        2001
         NFxFlg=           0 DoJE=T BraDBF=F KetDBF=T FulRan=T
         wScrn=  0.000000 ICntrl=       500 IOpCl=  0 I1Cent=   200000004 NGrid=           0
         NMat0=    1 NMatS0=      1 NMatT0=    0 NMatD0=    1 NMtDS0=    0 NMtDT0=    0
 Symmetry not used in FoFCou.
 Requested convergence on RMS density matrix=1.00D-08 within 128 cycles.
 Requested convergence on MAX density matrix=1.00D-06.
 Requested convergence on             energy=1.00D-06.
 No special actions if energy rises.
 Inv3:  Mode=1 IEnd=    57159675.
 Iteration    1 A*A^-1 deviation from unit magnitude is 7.55D-15 for   4355.
 Iteration    1 A*A^-1 deviation from orthogonality  is 3.12D-15 for   2660    200.
 Iteration    1 A^-1*A deviation from unit magnitude is 7.55D-15 for   4355.
 Iteration    1 A^-1*A deviation from orthogonality  is 4.78D-15 for   2722   2642.
 Error on total polarization charges =  0.07149
 SCF Done:  E(RwB97XD) =  -1312.80710728     A.U. after   15 cycles
            NFock= 15  Conv=0.40D-08     -V/T= 2.0046
 SMD-CDS (non-electrostatic) energy       (kcal/mol) =      -4.09
 (included in total energy above)

 **********************************************************************

            Population analysis using the SCF Density.

 **********************************************************************

 Alpha  occ. eigenvalues --  -19.26455 -19.26173 -19.26032 -19.19272 -19.17356
 Alpha  occ. eigenvalues --  -10.32778 -10.32645 -10.32505 -10.32504 -10.32117
 Alpha  occ. eigenvalues --  -10.31934 -10.31438 -10.30786 -10.27931 -10.27781
 Alpha  occ. eigenvalues --  -10.27754 -10.27735 -10.27567 -10.27563 -10.25677
 Alpha  occ. eigenvalues --  -10.25318 -10.24884 -10.24862 -10.24765 -10.24264
 Alpha  occ. eigenvalues --  -10.24178 -10.22632 -10.21003  -6.80135  -2.00121
 Alpha  occ. eigenvalues --   -1.15686  -1.15297  -1.15076  -1.09926  -1.03282
 Alpha  occ. eigenvalues --   -0.87973  -0.87764  -0.87635  -0.87318  -0.86096
 Alpha  occ. eigenvalues --   -0.84005  -0.83692  -0.83229  -0.81758  -0.79340
 Alpha  occ. eigenvalues --   -0.77857  -0.75126  -0.74602  -0.72052  -0.69568
 Alpha  occ. eigenvalues --   -0.69331  -0.69234  -0.68715  -0.68313  -0.68216
 Alpha  occ. eigenvalues --   -0.67790  -0.60954  -0.60161  -0.59904  -0.59688
 Alpha  occ. eigenvalues --   -0.59230  -0.58322  -0.57734  -0.57417  -0.57077
 Alpha  occ. eigenvalues --   -0.54324  -0.54128  -0.53957  -0.53623  -0.52835
 Alpha  occ. eigenvalues --   -0.51424  -0.50928  -0.50615  -0.50578  -0.49917
 Alpha  occ. eigenvalues --   -0.49677  -0.48969  -0.48863  -0.48368  -0.47418
 Alpha  occ. eigenvalues --   -0.47100  -0.46430  -0.46405  -0.45956  -0.45808
 Alpha  occ. eigenvalues --   -0.44876  -0.44730  -0.44513  -0.44303  -0.43887
 Alpha  occ. eigenvalues --   -0.43646  -0.43169  -0.42943  -0.42862  -0.42741
 Alpha  occ. eigenvalues --   -0.42692  -0.42267  -0.41952  -0.41773  -0.41465
 Alpha  occ. eigenvalues --   -0.41295  -0.40492  -0.40397  -0.40268  -0.39961
 Alpha  occ. eigenvalues --   -0.39912  -0.38153  -0.37191  -0.35776  -0.35491
 Alpha  occ. eigenvalues --   -0.35436  -0.35095  -0.34056  -0.30671  -0.27995
 Alpha  occ. eigenvalues --   -0.27238
 Alpha virt. eigenvalues --    0.02064   0.02409   0.02442   0.02641   0.05956
 Alpha virt. eigenvalues --    0.06108   0.06150   0.06229   0.06326   0.06933
 Alpha virt. eigenvalues --    0.07437   0.07477   0.07604   0.07760   0.07802
 Alpha virt. eigenvalues --    0.07835   0.07927   0.08053   0.08263   0.08408
 Alpha virt. eigenvalues --    0.09549   0.09826   0.09901   0.10138   0.10345
 Alpha virt. eigenvalues --    0.10436   0.10663   0.10741   0.11023   0.11640
 Alpha virt. eigenvalues --    0.12315   0.12440   0.12640   0.12745   0.12787
 Alpha virt. eigenvalues --    0.13136   0.13386   0.13592   0.13714   0.14039
 Alpha virt. eigenvalues --    0.14176   0.14364   0.14503   0.14838   0.15062
 Alpha virt. eigenvalues --    0.15423   0.15488   0.15757   0.15890   0.16042
 Alpha virt. eigenvalues --    0.16340   0.16505   0.16742   0.16836   0.17182
 Alpha virt. eigenvalues --    0.17391   0.17785   0.17794   0.18243   0.18291
 Alpha virt. eigenvalues --    0.18627   0.18672   0.18825   0.18923   0.19198
 Alpha virt. eigenvalues --    0.19275   0.19400   0.19614   0.19667   0.19743
 Alpha virt. eigenvalues --    0.19996   0.20066   0.20489   0.20583   0.20643
 Alpha virt. eigenvalues --    0.20824   0.20888   0.21145   0.21178   0.21351
 Alpha virt. eigenvalues --    0.21560   0.21607   0.21812   0.22077   0.22144
 Alpha virt. eigenvalues --    0.22288   0.22450   0.22685   0.22817   0.22873
 Alpha virt. eigenvalues --    0.23141   0.23361   0.23401   0.23506   0.23642
 Alpha virt. eigenvalues --    0.23809   0.23959   0.24017   0.24272   0.24474
 Alpha virt. eigenvalues --    0.24585   0.24816   0.24889   0.25039   0.25193
 Alpha virt. eigenvalues --    0.25395   0.25540   0.25747   0.25872   0.26053
 Alpha virt. eigenvalues --    0.26117   0.26253   0.26311   0.26659   0.26811
 Alpha virt. eigenvalues --    0.27120   0.27230   0.27572   0.27797   0.27998
 Alpha virt. eigenvalues --    0.28111   0.28242   0.28367   0.28419   0.28628
 Alpha virt. eigenvalues --    0.28839   0.28958   0.29231   0.29375   0.29610
 Alpha virt. eigenvalues --    0.29723   0.29842   0.30048   0.30255   0.30485
 Alpha virt. eigenvalues --    0.30631   0.30857   0.31069   0.31224   0.31458
 Alpha virt. eigenvalues --    0.31696   0.31879   0.31930   0.32199   0.32228
 Alpha virt. eigenvalues --    0.32619   0.32788   0.33088   0.33158   0.33447
 Alpha virt. eigenvalues --    0.33609   0.34120   0.34281   0.34384   0.34649
 Alpha virt. eigenvalues --    0.34849   0.35215   0.35336   0.35731   0.35881
 Alpha virt. eigenvalues --    0.36193   0.36348   0.36511   0.36754   0.36913
 Alpha virt. eigenvalues --    0.37151   0.37384   0.37722   0.37913   0.37990
 Alpha virt. eigenvalues --    0.38257   0.38348   0.38662   0.38735   0.39055
 Alpha virt. eigenvalues --    0.39393   0.39566   0.39635   0.39847   0.39956
 Alpha virt. eigenvalues --    0.40218   0.40472   0.40571   0.41060   0.41260
 Alpha virt. eigenvalues --    0.41325   0.41559   0.41741   0.41893   0.42204
 Alpha virt. eigenvalues --    0.42574   0.42608   0.42925   0.43131   0.43712
 Alpha virt. eigenvalues --    0.43964   0.44160   0.44207   0.44420   0.44606
 Alpha virt. eigenvalues --    0.44707   0.44800   0.45002   0.45242   0.45482
 Alpha virt. eigenvalues --    0.45634   0.45850   0.45969   0.46082   0.46584
 Alpha virt. eigenvalues --    0.46922   0.47253   0.47488   0.47906   0.48172
 Alpha virt. eigenvalues --    0.48733   0.49195   0.49376   0.49486   0.49987
 Alpha virt. eigenvalues --    0.50056   0.50706   0.51339   0.51689   0.52011
 Alpha virt. eigenvalues --    0.52393   0.52809   0.53219   0.53436   0.54479
 Alpha virt. eigenvalues --    0.54579   0.54824   0.55301   0.56114   0.56227
 Alpha virt. eigenvalues --    0.56640   0.57061   0.57716   0.57896   0.58027
 Alpha virt. eigenvalues --    0.58953   0.59366   0.60226   0.60509   0.60724
 Alpha virt. eigenvalues --    0.61156   0.61286   0.61744   0.61973   0.62350
 Alpha virt. eigenvalues --    0.62692   0.63097   0.63402   0.63944   0.64327
 Alpha virt. eigenvalues --    0.64713   0.65244   0.65560   0.66293   0.66385
 Alpha virt. eigenvalues --    0.66725   0.66991   0.67297   0.67657   0.68332
 Alpha virt. eigenvalues --    0.68744   0.69041   0.69340   0.69842   0.70065
 Alpha virt. eigenvalues --    0.70524   0.70836   0.70980   0.71878   0.72501
 Alpha virt. eigenvalues --    0.72652   0.72884   0.73309   0.73450   0.73956
 Alpha virt. eigenvalues --    0.74067   0.74194   0.74698   0.74883   0.75133
 Alpha virt. eigenvalues --    0.75617   0.76247   0.76279   0.76603   0.77308
 Alpha virt. eigenvalues --    0.77734   0.77900   0.77989   0.78725   0.78952
 Alpha virt. eigenvalues --    0.79400   0.79559   0.79741   0.80242   0.80365
 Alpha virt. eigenvalues --    0.80739   0.81004   0.81298   0.81570   0.81665
 Alpha virt. eigenvalues --    0.82080   0.82227   0.82343   0.82881   0.83286
 Alpha virt. eigenvalues --    0.83475   0.83589   0.83921   0.84336   0.84485
 Alpha virt. eigenvalues --    0.84526   0.84676   0.85228   0.85399   0.85652
 Alpha virt. eigenvalues --    0.86091   0.86218   0.86458   0.86790   0.87272
 Alpha virt. eigenvalues --    0.87352   0.87627   0.87707   0.88022   0.88090
 Alpha virt. eigenvalues --    0.88244   0.88984   0.89334   0.89726   0.89933
 Alpha virt. eigenvalues --    0.90266   0.90378   0.90595   0.90869   0.91222
 Alpha virt. eigenvalues --    0.91463   0.91765   0.91966   0.92615   0.92816
 Alpha virt. eigenvalues --    0.93327   0.93713   0.94121   0.94424   0.94989
 Alpha virt. eigenvalues --    0.95234   0.95703   0.95983   0.96161   0.96657
 Alpha virt. eigenvalues --    0.97499   0.97757   0.98655   0.99859   1.00415
 Alpha virt. eigenvalues --    1.00723   1.01642   1.02753   1.03177   1.03733
 Alpha virt. eigenvalues --    1.04444   1.04855   1.05248   1.06551   1.06968
 Alpha virt. eigenvalues --    1.07922   1.08812   1.09840   1.10264   1.11089
 Alpha virt. eigenvalues --    1.11720   1.12056   1.13251   1.13612   1.14450
 Alpha virt. eigenvalues --    1.15719   1.16395   1.17019   1.17657   1.18897
 Alpha virt. eigenvalues --    1.19493   1.20387   1.20716   1.22007   1.22451
 Alpha virt. eigenvalues --    1.22708   1.23695   1.24459   1.24945   1.25232
 Alpha virt. eigenvalues --    1.27159   1.27528   1.28085   1.28592   1.29311
 Alpha virt. eigenvalues --    1.29354   1.31319   1.32391   1.32970   1.33468
 Alpha virt. eigenvalues --    1.33991   1.34228   1.35033   1.36226   1.36963
 Alpha virt. eigenvalues --    1.37462   1.37693   1.38111   1.38966   1.39441
 Alpha virt. eigenvalues --    1.39976   1.40869   1.41416   1.42128   1.43386
 Alpha virt. eigenvalues --    1.43969   1.45285   1.45760   1.46245   1.46397
 Alpha virt. eigenvalues --    1.47272   1.47961   1.48534   1.49723   1.50287
 Alpha virt. eigenvalues --    1.51198   1.51971   1.52902   1.53112   1.54081
 Alpha virt. eigenvalues --    1.54652   1.54780   1.55880   1.56029   1.56649
 Alpha virt. eigenvalues --    1.57251   1.58048   1.58217   1.59019   1.59351
 Alpha virt. eigenvalues --    1.59509   1.60116   1.60714   1.61313   1.62015
 Alpha virt. eigenvalues --    1.62931   1.63368   1.63945   1.64529   1.64783
 Alpha virt. eigenvalues --    1.64904   1.65501   1.66142   1.66452   1.66599
 Alpha virt. eigenvalues --    1.67160   1.67700   1.67756   1.68492   1.69617
 Alpha virt. eigenvalues --    1.69975   1.70004   1.70221   1.70600   1.70831
 Alpha virt. eigenvalues --    1.71303   1.71473   1.71960   1.72418   1.72932
 Alpha virt. eigenvalues --    1.73201   1.73551   1.73894   1.74144   1.74394
 Alpha virt. eigenvalues --    1.74607   1.75018   1.75407   1.75991   1.76049
 Alpha virt. eigenvalues --    1.76670   1.76780   1.77339   1.77994   1.78084
 Alpha virt. eigenvalues --    1.78665   1.78781   1.79252   1.79842   1.80273
 Alpha virt. eigenvalues --    1.80648   1.80854   1.81585   1.82044   1.82235
 Alpha virt. eigenvalues --    1.83118   1.83417   1.83748   1.83780   1.84166
 Alpha virt. eigenvalues --    1.84696   1.85459   1.85737   1.86336   1.87091
 Alpha virt. eigenvalues --    1.87262   1.87558   1.88085   1.88475   1.89027
 Alpha virt. eigenvalues --    1.89146   1.89800   1.90249   1.90446   1.91194
 Alpha virt. eigenvalues --    1.91433   1.92256   1.92436   1.92565   1.93232
 Alpha virt. eigenvalues --    1.93450   1.94134   1.94826   1.94952   1.95549
 Alpha virt. eigenvalues --    1.96369   1.96407   1.96937   1.97377   1.97595
 Alpha virt. eigenvalues --    1.98235   1.99033   1.99513   2.00076   2.00105
 Alpha virt. eigenvalues --    2.00710   2.01751   2.02037   2.02573   2.03075
 Alpha virt. eigenvalues --    2.03557   2.03873   2.04330   2.04819   2.05207
 Alpha virt. eigenvalues --    2.05844   2.07168   2.07211   2.08025   2.08248
 Alpha virt. eigenvalues --    2.08747   2.09358   2.10026   2.10590   2.11134
 Alpha virt. eigenvalues --    2.11444   2.12140   2.12552   2.12883   2.13310
 Alpha virt. eigenvalues --    2.14128   2.14714   2.15085   2.15893   2.16859
 Alpha virt. eigenvalues --    2.17959   2.18607   2.19053   2.19612   2.20035
 Alpha virt. eigenvalues --    2.21005   2.21563   2.22666   2.23583   2.24411
 Alpha virt. eigenvalues --    2.24682   2.24875   2.25724   2.26150   2.27356
 Alpha virt. eigenvalues --    2.27862   2.28616   2.28861   2.29297   2.29664
 Alpha virt. eigenvalues --    2.30953   2.31771   2.32289   2.33097   2.34049
 Alpha virt. eigenvalues --    2.34930   2.35193   2.35659   2.36462   2.36711
 Alpha virt. eigenvalues --    2.37850   2.39155   2.39985   2.40364   2.40804
 Alpha virt. eigenvalues --    2.41425   2.42551   2.42900   2.43059   2.43812
 Alpha virt. eigenvalues --    2.44484   2.45135   2.46562   2.47236   2.48391
 Alpha virt. eigenvalues --    2.49066   2.49765   2.50327   2.50740   2.52084
 Alpha virt. eigenvalues --    2.54020   2.55097   2.55560   2.57714   2.58597
 Alpha virt. eigenvalues --    2.59358   2.60090   2.60326   2.60966   2.61854
 Alpha virt. eigenvalues --    2.62413   2.63054   2.63103   2.63529   2.63817
 Alpha virt. eigenvalues --    2.64338   2.64589   2.65038   2.65652   2.66106
 Alpha virt. eigenvalues --    2.66686   2.67663   2.67899   2.68188   2.68393
 Alpha virt. eigenvalues --    2.68935   2.69645   2.69983   2.70263   2.70627
 Alpha virt. eigenvalues --    2.71204   2.71749   2.72338   2.72394   2.72931
 Alpha virt. eigenvalues --    2.73627   2.74081   2.74386   2.74628   2.75104
 Alpha virt. eigenvalues --    2.75433   2.76136   2.76570   2.77334   2.78249
 Alpha virt. eigenvalues --    2.79381   2.80070   2.80292   2.80539   2.81108
 Alpha virt. eigenvalues --    2.81929   2.82387   2.82612   2.83747   2.83977
 Alpha virt. eigenvalues --    2.84245   2.85433   2.86266   2.87199   2.87833
 Alpha virt. eigenvalues --    2.88230   2.88960   2.89387   2.90407   2.90645
 Alpha virt. eigenvalues --    2.91048   2.91552   2.93013   2.93316   2.93800
 Alpha virt. eigenvalues --    2.95318   2.95737   2.96119   2.96365   2.96897
 Alpha virt. eigenvalues --    2.97723   2.98420   2.98761   2.99036   2.99665
 Alpha virt. eigenvalues --    2.99997   3.00343   3.01262   3.02394   3.03119
 Alpha virt. eigenvalues --    3.03920   3.04996   3.05025   3.05961   3.07257
 Alpha virt. eigenvalues --    3.07714   3.08515   3.09131   3.09463   3.09532
 Alpha virt. eigenvalues --    3.10529   3.11114   3.11148   3.13426   3.13839
 Alpha virt. eigenvalues --    3.15188   3.15992   3.17046   3.17997   3.18117
 Alpha virt. eigenvalues --    3.18737   3.19765   3.19982   3.22673   3.23235
 Alpha virt. eigenvalues --    3.23774   3.24251   3.25602   3.25657   3.26613
 Alpha virt. eigenvalues --    3.27092   3.28235   3.28970   3.30305   3.30622
 Alpha virt. eigenvalues --    3.31318   3.33437   3.34231   3.34751   3.36032
 Alpha virt. eigenvalues --    3.36707   3.37263   3.38018   3.39324   3.40446
 Alpha virt. eigenvalues --    3.41518   3.41655   3.42366   3.44214   3.44720
 Alpha virt. eigenvalues --    3.45096   3.46885   3.48421   3.49360   3.50712
 Alpha virt. eigenvalues --    3.51822   3.53042   3.54557   3.56282   3.64266
 Alpha virt. eigenvalues --    3.67470   3.74209   3.75619   3.76381   3.81559
 Alpha virt. eigenvalues --    3.83543   3.86714   3.87732   3.89523   3.90083
 Alpha virt. eigenvalues --    3.91385   3.91753   3.92120   3.92978   3.93987
 Alpha virt. eigenvalues --    3.94679   3.95640   3.96841   3.97738   3.98451
 Alpha virt. eigenvalues --    3.98721   3.99430   4.01743   4.02959   4.03645
 Alpha virt. eigenvalues --    4.05061   4.05618   4.06865   4.14569   4.14901
 Alpha virt. eigenvalues --    4.15356   4.16420   4.17544   4.19746   4.20859
 Alpha virt. eigenvalues --    4.21954   4.22339   4.23432   4.26175   4.27242
 Alpha virt. eigenvalues --    4.27573   4.29260   4.34675   4.37498   4.40660
 Alpha virt. eigenvalues --    4.43061   4.43813   4.44781   4.47038   4.48835
 Alpha virt. eigenvalues --    4.49987   4.50371   4.53275   4.56178   4.74127
 Alpha virt. eigenvalues --    5.36431   5.38140   5.42714   5.47164   5.55034
 Alpha virt. eigenvalues --    5.59041   5.67221   5.68940   5.70568   5.74491
 Alpha virt. eigenvalues --    5.78610   5.79063   5.79823   5.82846   5.91491
 Alpha virt. eigenvalues --   14.95899  23.95377  23.98135  24.01212  24.02015
 Alpha virt. eigenvalues --   24.03105  24.03315  24.03452  24.04464  24.05648
 Alpha virt. eigenvalues --   24.09577  24.10655  24.12106  24.12269  24.13276
 Alpha virt. eigenvalues --   24.13841  24.15021  24.16007  24.16065  24.18198
 Alpha virt. eigenvalues --   24.18775  24.19957  24.24068  24.43101  50.14130
 Alpha virt. eigenvalues --   50.14956  50.15771  50.24940  50.26705
          Condensed to atoms (all electrons):
 Mulliken charges:
               1
     1  Li  -0.696738
     2  C   -0.086542
     3  O    0.039237
     4  C   -0.555909
     5  H    0.259649
     6  C   -0.119988
     7  C   -0.531815
     8  H    0.221747
     9  H    0.211182
    10  H    0.228105
    11  H    0.205503
    12  H    0.241546
    13  H    0.186867
    14  C   -0.101598
    15  O    0.019079
    16  C   -0.470418
    17  H    0.243297
    18  C    0.027021
    19  C   -0.621204
    20  H    0.253298
    21  H    0.162841
    22  H    0.241418
    23  H    0.185915
    24  H    0.225936
    25  H    0.208030
    26  C   -0.239347
    27  O    0.046734
    28  C   -0.340358
    29  H    0.213132
    30  C   -0.141578
    31  C   -0.592815
    32  H    0.260955
    33  H    0.160608
    34  H    0.209635
    35  H    0.153069
    36  H    0.253175
    37  H    0.143908
    38  O    0.097364
    39  H    0.189253
    40  H    0.231734
    41  H    0.071226
    42  C   -0.061469
    43  C    0.277802
    44  H   -0.025368
    45  C   -0.634782
    46  H    0.168981
    47  H    0.152876
    48  H    0.190022
    49  C   -0.763163
    50  H    0.190662
    51  H    0.136033
    52  H    0.194230
    53  B    0.309273
    54  C   -0.814591
    55  H    0.238100
    56  H    0.233368
    57  H    0.177604
    58  O   -0.093774
    59  C   -0.051630
    60  C   -0.270553
    61  C   -0.834140
    62  H    0.191387
    63  H    0.174562
    64  H    0.183758
    65  C   -0.360974
    66  H    0.182923
    67  H    0.160640
    68  H    0.200655
    69  C   -0.425800
    70  H    0.228614
    71  H    0.230749
    72  H    0.082798
    73  C   -0.877254
    74  H    0.231922
    75  H    0.194021
    76  H    0.189368
 Sum of Mulliken charges =  -0.00000
 Mulliken charges with hydrogens summed into heavy atoms:
               1
     1  Li  -0.696738
     2  C    0.404840
     3  O    0.039237
     4  C   -0.122980
     6  C    0.313620
     7  C   -0.103402
    14  C    0.330953
    15  O    0.019079
    16  C   -0.054279
    18  C    0.454353
    19  C   -0.187238
    26  C    0.045011
    27  O    0.046734
    28  C    0.081204
    30  C    0.221126
    31  C   -0.195733
    38  O    0.097364
    42  C   -0.061469
    43  C    0.252434
    45  C   -0.122903
    49  C   -0.242239
    53  B    0.309273
    54  C   -0.165518
    58  O   -0.093774
    59  C   -0.051630
    60  C   -0.270553
    61  C   -0.284432
    65  C    0.183243
    69  C    0.116361
    73  C   -0.261943
 Electronic spatial extent (au):  <R**2>=          11294.6462
 Charge=             -0.0000 electrons
 Dipole moment (field-independent basis, Debye):
    X=             13.3326    Y=             -0.1269    Z=             -3.7076  Tot=             13.8391
 Quadrupole moment (field-independent basis, Debye-Ang):
   XX=           -190.5589   YY=           -176.4452   ZZ=           -175.4588
   XY=              7.0984   XZ=              5.4265   YZ=             -2.4572
 Traceless Quadrupole moment (field-independent basis, Debye-Ang):
   XX=             -9.7380   YY=              4.3758   ZZ=              5.3622
   XY=              7.0984   XZ=              5.4265   YZ=             -2.4572
 Octapole moment (field-independent basis, Debye-Ang**2):
  XXX=            180.5305  YYY=              1.2952  ZZZ=            -61.8577  XYY=             61.3614
  XXY=             -6.0430  XXZ=            -23.2698  XZZ=             56.1854  YZZ=             31.2029
  YYZ=            -17.4752  XYZ=             -7.7376
 Hexadecapole moment (field-independent basis, Debye-Ang**3):
 XXXX=          -6585.1813 YYYY=          -3550.7077 ZZZZ=          -5282.2362 XXXY=           -344.9211
 XXXZ=             -3.5397 YYYX=           -400.7787 YYYZ=            148.0816 ZZZX=            -42.6941
 ZZZY=            182.2632 XXYY=          -1631.0131 XXZZ=          -1921.5335 YYZZ=          -1456.6551
 XXYZ=             89.0608 YYXZ=              2.9080 ZZXY=            -74.4207
 N-N= 3.484819274142D+03 E-N=-1.003086364184D+04  KE= 1.306765945441D+03
 Unable to Open any file for archive entry.
 1\1\GINC-NODE09\SP\RwB97XD\6-311++G(d,p)\C23H46B1Li1O5\WHUGHES2\08-Oct
 -2025\0\\# wb97xd/6-311++g** nosymm int=ultrafine scrf=(smd,solvent=te
 trahydrofuran)\\r1-li-3thf-c3_tzpop-sp\\0,1\Li,0,0.7245,-0.0173,-0.306
 5\C,0,1.6096,0.9181,2.5542\O,0,1.9311,0.7471,1.1707\C,0,1.8319,2.4113,
 2.8506\H,0,2.2866,0.2888,3.1505\C,0,3.0456,1.6045,0.9341\C,0,2.6906,2.
 9006,1.6606\H,0,2.3403,2.5467,3.8095\H,0,0.8802,2.9479,2.8953\H,0,3.95
 ,1.144,1.3609\H,0,3.1711,1.704,-0.1437\H,0,3.583,3.4491,1.9749\H,0,2.1
 048,3.5502,1.0026\C,0,1.3858,2.4718,-2.0134\O,0,1.5139,1.0643,-1.8142\
 C,0,0.8035,2.6088,-3.4167\H,0,2.3799,2.94,-1.9483\C,0,1.9921,0.5168,-3
 .0457\C,0,1.3976,1.3943,-4.1644\H,0,1.0721,3.5633,-3.8775\H,0,-0.2874,
 2.5427,-3.3759\H,0,3.0901,0.557,-3.0481\H,0,1.6791,-0.5288,-3.0809\H,0
 ,2.1768,1.6945,-4.8707\H,0,0.6261,0.8587,-4.7242\C,0,1.348,-2.8372,0.1
 452\O,0,1.7545,-1.728,-0.6584\C,0,2.1685,-2.7002,1.4235\H,0,1.5782,-3.
 7724,-0.3865\C,0,3.1748,-1.6363,-0.5146\C,0,3.4943,-2.0864,0.924\H,0,2
 .3052,-3.6603,1.9289\H,0,1.6628,-2.0179,2.1139\H,0,3.6458,-2.2973,-1.2
 549\H,0,3.4607,-0.6056,-0.7311\H,0,4.3075,-2.8182,0.9266\H,0,3.7972,-1
 .2414,1.5475\O,0,-1.1403,-0.4973,-0.245\H,0,0.7517,2.8651,-1.2176\H,0,
 0.5836,0.5775,2.6964\H,0,0.2707,-2.76,0.2883\C,0,-1.8988,-0.0494,2.198
 8\C,0,-1.2458,-1.1575,2.5868\H,0,-0.7568,-1.733,1.7989\C,0,-1.0434,-1.
 7142,3.972\H,0,0.0135,-1.6424,4.2718\H,0,-1.6319,-1.1982,4.7378\H,0,-1
 .3042,-2.7809,4.0136\C,0,-2.6057,0.8507,3.1899\H,0,-3.5254,1.257,2.749
 4\H,0,-2.8784,0.359,4.1318\H,0,-1.9772,1.7168,3.4465\B,0,-1.9309,0.46,
 0.641\C,0,-1.3329,1.9841,0.5141\H,0,-0.2815,2.0657,0.8315\H,0,-1.3899,
 2.3407,-0.5252\H,0,-1.8986,2.7039,1.1258\O,0,-3.297,0.4075,0.0461\C,0,
 -3.4075,-0.7351,-0.7715\C,0,-1.9566,-0.9067,-1.338\C,0,-4.4627,-0.4785
 ,-1.8471\H,0,-5.4539,-0.414,-1.3824\H,0,-4.2773,0.4634,-2.3715\H,0,-4.
 4884,-1.2916,-2.5838\C,0,-3.8512,-1.948,0.0641\H,0,-4.0806,-2.8173,-0.
 5649\H,0,-3.0881,-2.2331,0.7931\H,0,-4.7586,-1.6775,0.6167\C,0,-1.6911
 ,0.0175,-2.5322\H,0,-2.2259,-0.3098,-3.4317\H,0,-1.9826,1.0472,-2.3071
 \H,0,-0.6202,0.0068,-2.7519\C,0,-1.6025,-2.3362,-1.7386\H,0,-2.2745,-2
 .6936,-2.5289\H,0,-0.5765,-2.3759,-2.1236\H,0,-1.6735,-3.0238,-0.8916\
 \Version=AS64L-G16RevC.01\HF=-1312.8071073\RMSD=4.027e-09\Dipole=5.245
 4397,-0.0499106,-1.4587001\Quadrupole=-7.2399384,3.2532812,3.9866572,5
 .2774538,4.0344379,-1.8268684\PG=C01 [X(C23H46B1Li1O5)]\\@
 The archive entry for this job was punched.


 Happiness is a conscious choice, not an automatic response.
 -- Mildred Barthel
 Job cpu time:       0 days  4 hours 45 minutes 49.6 seconds.
 Elapsed time:       0 days  1 hours 12 minutes  6.9 seconds.
 File lengths (MBytes):  RWF=    822 Int=      0 D2E=      0 Chk=     59 Scr=      1
 Normal termination of Gaussian 16 at Wed Oct  8 16:39:53 2025.
