Job Start Time: Wed Oct  8 15:27:45 MDT 2025
SLURM Job ID: 768196
SLURM Job Name: r1-li-3thf-c1_tzpop-sp
 Entering Gaussian System, Link 0=/opt/apps/Gaussian/G16C/g16/g16
 Initial command:
 /opt/apps/Gaussian/G16C/g16/l1.exe "/tmp/768196/Gau-376104.inp" -scrdir="/tmp/768196/"
 Entering Link 1 = /opt/apps/Gaussian/G16C/g16/l1.exe PID=    376105.
  
 Copyright (c) 1988-2019, Gaussian, Inc.  All Rights Reserved.
  
 This is part of the Gaussian(R) 16 program.  It is based on
 the Gaussian(R) 09 system (copyright 2009, Gaussian, Inc.),
 the Gaussian(R) 03 system (copyright 2003, Gaussian, Inc.),
 the Gaussian(R) 98 system (copyright 1998, Gaussian, Inc.),
 the Gaussian(R) 94 system (copyright 1995, Gaussian, Inc.),
 the Gaussian 92(TM) system (copyright 1992, Gaussian, Inc.),
 the Gaussian 90(TM) system (copyright 1990, Gaussian, Inc.),
 the Gaussian 88(TM) system (copyright 1988, Gaussian, Inc.),
 the Gaussian 86(TM) system (copyright 1986, Carnegie Mellon
 University), and the Gaussian 82(TM) system (copyright 1983,
 Carnegie Mellon University). Gaussian is a federally registered
 trademark of Gaussian, Inc.
  
 This software contains proprietary and confidential information,
 including trade secrets, belonging to Gaussian, Inc.
  
 This software is provided under written license and may be
 used, copied, transmitted, or stored only in accord with that
 written license.
  
 The following legend is applicable only to US Government
 contracts under FAR:
  
                    RESTRICTED RIGHTS LEGEND
  
 Use, reproduction and disclosure by the US Government is
 subject to restrictions as set forth in subparagraphs (a)
 and (c) of the Commercial Computer Software - Restricted
 Rights clause in FAR 52.227-19.
  
 Gaussian, Inc.
 340 Quinnipiac St., Bldg. 40, Wallingford CT 06492
  
  
 ---------------------------------------------------------------
 Warning -- This program may not be used in any manner that
 competes with the business of Gaussian, Inc. or will provide
 assistance to any competitor of Gaussian, Inc.  The licensee
 of this program is prohibited from giving any competitor of
 Gaussian, Inc. access to this program.  By using this program,
 the user acknowledges that Gaussian, Inc. is engaged in the
 business of creating and licensing software in the field of
 computational chemistry and represents and warrants to the
 licensee that it is not a competitor of Gaussian, Inc. and that
 it will not use this program in any manner prohibited above.
 ---------------------------------------------------------------
  

 Cite this work as:
 Gaussian 16, Revision C.01,
 M. J. Frisch, G. W. Trucks, H. B. Schlegel, G. E. Scuseria, 
 M. A. Robb, J. R. Cheeseman, G. Scalmani, V. Barone, 
 G. A. Petersson, H. Nakatsuji, X. Li, M. Caricato, A. V. Marenich, 
 J. Bloino, B. G. Janesko, R. Gomperts, B. Mennucci, H. P. Hratchian, 
 J. V. Ortiz, A. F. Izmaylov, J. L. Sonnenberg, D. Williams-Young, 
 F. Ding, F. Lipparini, F. Egidi, J. Goings, B. Peng, A. Petrone, 
 T. Henderson, D. Ranasinghe, V. G. Zakrzewski, J. Gao, N. Rega, 
 G. Zheng, W. Liang, M. Hada, M. Ehara, K. Toyota, R. Fukuda, 
 J. Hasegawa, M. Ishida, T. Nakajima, Y. Honda, O. Kitao, H. Nakai, 
 T. Vreven, K. Throssell, J. A. Montgomery, Jr., J. E. Peralta, 
 F. Ogliaro, M. J. Bearpark, J. J. Heyd, E. N. Brothers, K. N. Kudin, 
 V. N. Staroverov, T. A. Keith, R. Kobayashi, J. Normand, 
 K. Raghavachari, A. P. Rendell, J. C. Burant, S. S. Iyengar, 
 J. Tomasi, M. Cossi, J. M. Millam, M. Klene, C. Adamo, R. Cammi, 
 J. W. Ochterski, R. L. Martin, K. Morokuma, O. Farkas, 
 J. B. Foresman, and D. J. Fox, Gaussian, Inc., Wallingford CT, 2019.
 
 ******************************************
 Gaussian 16:  AS64L-G16RevC.01  3-Jul-2019
                 8-Oct-2025 
 ******************************************
 %chk=r1-li-3thf-c1_tzpop-sp.chk
 %nprocshared=4
 Will use up to    4 processors via shared memory.
 %mem=8GB
 ----------------------------------------------------------------------
 # wb97xd/6-311++g** nosymm int=ultrafine scrf=(smd,solvent=tetrahydrof
 uran)
 ----------------------------------------------------------------------
 1/38=1,172=1/1;
 2/12=2,15=1,17=6,18=5,40=1/2;
 3/5=4,6=6,7=1111,11=2,25=1,30=1,70=32201,72=20,74=-58,75=-5/1,2,3;
 4//1;
 5/5=2,38=5,53=20/2;
 6/7=2,8=2,9=2,10=2,28=1/1;
 99/5=1,9=1/99;
 ----------------------
 r1-li-3thf-c1_tzpop-sp
 ----------------------
 Symbolic Z-matrix:
 Charge =  0 Multiplicity = 1
 Li                    0.6037    0.3457   -0.0687 
 C                     2.4208    2.8521   -0.3039 
 O                     1.1485    2.271    -0.0207 
 C                     3.0357    3.2391    1.0579 
 H                     2.2719    3.7356   -0.9393 
 C                     0.6659    2.8978    1.1679 
 C                     1.8952    2.9806    2.0655 
 H                     3.3361    4.291     1.0561 
 H                     3.921     2.6399    1.2874 
 H                     0.2786    3.8981    0.9216 
 H                    -0.1484    2.282     1.5533 
 H                     1.8074    3.7675    2.8199 
 H                     2.0373    2.0237    2.5777 
 C                     1.5377    0.499    -2.9783 
 O                     1.6304   -0.1572   -1.7113 
 C                     1.1822   -0.5958   -4.004 
 H                     2.5069    0.9619   -3.2081 
 C                     2.1093   -1.4758   -1.9722 
 C                     1.3404   -1.9135   -3.2137 
 H                     1.8628   -0.5544   -4.8592 
 H                     0.1629   -0.4775   -4.3811 
 H                     3.1923   -1.4368   -2.1632 
 H                     1.9241   -2.0781   -1.0811 
 H                     1.8711   -2.6865   -3.7763 
 H                     0.3618   -2.3096   -2.9241 
 C                     3.2523   -0.3534    1.0944 
 O                     1.8444   -0.514     1.2793 
 C                     3.8649   -1.7627    1.2125 
 H                     3.6396    0.3139    1.8759 
 C                     1.6868   -1.5807    2.2161 
 C                     2.7105   -2.6211    1.7739 
 H                     4.7272   -1.7516    1.8853 
 H                     4.2038   -2.1351    0.2418 
 H                     1.9032   -1.205     3.2274 
 H                     0.653    -1.919     2.1633 
 H                     3.022    -3.2675    2.5991 
 H                     2.2781   -3.2521    0.9906 
 O                    -1.2862    0.4499    0.0661 
 H                     0.787     1.2854   -2.8858 
 H                     3.0015    2.1154   -0.8631 
 H                     3.4021    0.1138    0.1199 
 C                    -1.6115   -2.0206    0.8745 
 C                    -0.7849   -2.4737   -0.0818 
 H                    -0.3675   -1.743    -0.7755 
 C                    -0.369    -3.908    -0.3203 
 H                    -1.1606   -4.494    -0.8105 
 H                     0.5124   -3.9624   -0.9707 
 H                    -0.1193   -4.4302    0.6126 
 C                    -2.2371   -2.99      1.8561 
 H                    -1.624    -3.0782    2.7666 
 H                    -3.2231   -2.6338    2.1792 
 H                    -2.3633   -4.003     1.4526 
 B                    -1.968    -0.4402    1.0918 
 C                    -1.5264    0.0566    2.596 
 H                    -0.4334    0.0944    2.7242 
 H                    -1.9088    1.0633    2.8208 
 H                    -1.9128   -0.6072    3.3859 
 O                    -3.4176   -0.2164    0.8061 
 C                    -3.5716    0.9026   -0.0348 
 C                    -2.2455    0.919    -0.8719 
 C                    -3.7305    2.1782    0.8126 
 H                    -4.5259    2.0118    1.5481 
 H                    -2.8121    2.418     1.3563 
 H                    -4.0057    3.0469    0.2016 
 C                    -4.8325    0.7248   -0.8802 
 H                    -5.718     0.7639   -0.2344 
 H                    -4.9272    1.5201   -1.6305 
 H                    -4.8342   -0.2417   -1.3926 
 C                    -1.8472    2.3062   -1.3696 
 H                    -0.9338    2.2489   -1.9704 
 H                    -2.6398    2.731    -1.9983 
 H                    -1.653     2.9923   -0.5421 
 C                    -2.2942   -0.0392   -2.0694 
 H                    -2.6426   -1.0321   -1.7723 
 H                    -2.9433    0.3403   -2.8678 
 H                    -1.2821   -0.1459   -2.4771 
 
 Symmetry turned off by external request.
 Stoichiometry    C23H46BLiO5
 Framework group  C1[X(C23H46BLiO5)]
 Deg. of freedom   222
 Full point group                 C1      NOp   1
                          Input orientation:                          
 ---------------------------------------------------------------------
 Center     Atomic      Atomic             Coordinates (Angstroms)
 Number     Number       Type             X           Y           Z
 ---------------------------------------------------------------------
      1          3           0        0.603700    0.345700   -0.068700
      2          6           0        2.420800    2.852100   -0.303900
      3          8           0        1.148500    2.271000   -0.020700
      4          6           0        3.035700    3.239100    1.057900
      5          1           0        2.271900    3.735600   -0.939300
      6          6           0        0.665900    2.897800    1.167900
      7          6           0        1.895200    2.980600    2.065500
      8          1           0        3.336100    4.291000    1.056100
      9          1           0        3.921000    2.639900    1.287400
     10          1           0        0.278600    3.898100    0.921600
     11          1           0       -0.148400    2.282000    1.553300
     12          1           0        1.807400    3.767500    2.819900
     13          1           0        2.037300    2.023700    2.577700
     14          6           0        1.537700    0.499000   -2.978300
     15          8           0        1.630400   -0.157200   -1.711300
     16          6           0        1.182200   -0.595800   -4.004000
     17          1           0        2.506900    0.961900   -3.208100
     18          6           0        2.109300   -1.475800   -1.972200
     19          6           0        1.340400   -1.913500   -3.213700
     20          1           0        1.862800   -0.554400   -4.859200
     21          1           0        0.162900   -0.477500   -4.381100
     22          1           0        3.192300   -1.436800   -2.163200
     23          1           0        1.924100   -2.078100   -1.081100
     24          1           0        1.871100   -2.686500   -3.776300
     25          1           0        0.361800   -2.309600   -2.924100
     26          6           0        3.252300   -0.353400    1.094400
     27          8           0        1.844400   -0.514000    1.279300
     28          6           0        3.864900   -1.762700    1.212500
     29          1           0        3.639600    0.313900    1.875900
     30          6           0        1.686800   -1.580700    2.216100
     31          6           0        2.710500   -2.621100    1.773900
     32          1           0        4.727200   -1.751600    1.885300
     33          1           0        4.203800   -2.135100    0.241800
     34          1           0        1.903200   -1.205000    3.227400
     35          1           0        0.653000   -1.919000    2.163300
     36          1           0        3.022000   -3.267500    2.599100
     37          1           0        2.278100   -3.252100    0.990600
     38          8           0       -1.286200    0.449900    0.066100
     39          1           0        0.787000    1.285400   -2.885800
     40          1           0        3.001500    2.115400   -0.863100
     41          1           0        3.402100    0.113800    0.119900
     42          6           0       -1.611500   -2.020600    0.874500
     43          6           0       -0.784900   -2.473700   -0.081800
     44          1           0       -0.367500   -1.743000   -0.775500
     45          6           0       -0.369000   -3.908000   -0.320300
     46          1           0       -1.160600   -4.494000   -0.810500
     47          1           0        0.512400   -3.962400   -0.970700
     48          1           0       -0.119300   -4.430200    0.612600
     49          6           0       -2.237100   -2.990000    1.856100
     50          1           0       -1.624000   -3.078200    2.766600
     51          1           0       -3.223100   -2.633800    2.179200
     52          1           0       -2.363300   -4.003000    1.452600
     53          5           0       -1.968000   -0.440200    1.091800
     54          6           0       -1.526400    0.056600    2.596000
     55          1           0       -0.433400    0.094400    2.724200
     56          1           0       -1.908800    1.063300    2.820800
     57          1           0       -1.912800   -0.607200    3.385900
     58          8           0       -3.417600   -0.216400    0.806100
     59          6           0       -3.571600    0.902600   -0.034800
     60          6           0       -2.245500    0.919000   -0.871900
     61          6           0       -3.730500    2.178200    0.812600
     62          1           0       -4.525900    2.011800    1.548100
     63          1           0       -2.812100    2.418000    1.356300
     64          1           0       -4.005700    3.046900    0.201600
     65          6           0       -4.832500    0.724800   -0.880200
     66          1           0       -5.718000    0.763900   -0.234400
     67          1           0       -4.927200    1.520100   -1.630500
     68          1           0       -4.834200   -0.241700   -1.392600
     69          6           0       -1.847200    2.306200   -1.369600
     70          1           0       -0.933800    2.248900   -1.970400
     71          1           0       -2.639800    2.731000   -1.998300
     72          1           0       -1.653000    2.992300   -0.542100
     73          6           0       -2.294200   -0.039200   -2.069400
     74          1           0       -2.642600   -1.032100   -1.772300
     75          1           0       -2.943300    0.340300   -2.867800
     76          1           0       -1.282100   -0.145900   -2.477100
 ---------------------------------------------------------------------
 Rotational constants (GHZ):           0.1793606           0.1393695           0.1268548
 Standard basis: 6-311++G(d,p) (5D, 7F)
   982 basis functions,  1494 primitive gaussians,  1012 cartesian basis functions
   116 alpha electrons      116 beta electrons
       nuclear repulsion energy      3496.0072969758 Hartrees.
 NAtoms=   76 NActive=   76 NUniq=   76 SFac= 1.00D+00 NAtFMM=   60 NAOKFM=T Big=T
 Integral buffers will be    131072 words long.
 Raffenetti 2 integral format.
 Two-electron integral symmetry is turned off.
 Nuclear repulsion after empirical dispersion term =     3495.9065070201 Hartrees.
 ------------------------------------------------------------------------------
 Polarizable Continuum Model (PCM)
 =================================
 Model                : PCM.
 Atomic radii         : SMD-Coulomb.
 Polarization charges : Total charges.
 Charge compensation  : None.
 Solution method      : On-the-fly selection.
 Cavity type          : VdW (van der Waals Surface) (Alpha=1.000).
 Cavity algorithm     : GePol (No added spheres)
                        Default sphere list used, NSphG=   76.
                        Lebedev-Laikov grids with approx.  5.0 points / Ang**2.
                        Smoothing algorithm: York/Karplus (Gamma=1.0000).
                        Polarization charges: spherical gaussians, with
                                              point-specific exponents (IZeta= 3).
                        Self-potential: point-specific (ISelfS= 7).
                        Self-field    : sphere-specific E.n sum rule (ISelfD= 2).
 Solvent              : TetraHydroFuran, Eps=   7.425700 Eps(inf)=   1.974025
 ------------------------------------------------------------------------------
 ------------------------------------------------------------------------------
 Atomic radii for non-electrostatic terms: SMD-CDS.
 ------------------------------------------------------------------------------
 Nuclear repulsion after PCM non-electrostatic terms =     3495.9000212459 Hartrees.
 One-electron integrals computed using PRISM.
 NBasis=   982 RedAO= T EigKep=  1.14D-06  NBF=   982
 NBsUse=   979 1.00D-06 EigRej=  8.12D-07 NBFU=   979
 ExpMin= 7.40D-03 ExpMax= 8.59D+03 ExpMxC= 1.30D+03 IAcc=3 IRadAn=         5 AccDes= 0.00D+00
 Harris functional with IExCor= 4639 and IRadAn=       5 diagonalized for initial guess.
 HarFok:  IExCor= 4639 AccDes= 0.00D+00 IRadAn=         5 IDoV= 1 UseB2=F ITyADJ=14
 ICtDFT=  3500011 ScaDFX=  1.000000  1.000000  1.000000  1.000000
 FoFCou: FMM=F IPFlag=           0 FMFlag=      100000 FMFlg1=        2001
         NFxFlg=           0 DoJE=T BraDBF=F KetDBF=T FulRan=T
         wScrn=  0.000000 ICntrl=       500 IOpCl=  0 I1Cent=   200000004 NGrid=           0
         NMat0=    1 NMatS0=      1 NMatT0=    0 NMatD0=    1 NMtDS0=    0 NMtDT0=    0
 Symmetry not used in FoFCou.
 Requested convergence on RMS density matrix=1.00D-08 within 128 cycles.
 Requested convergence on MAX density matrix=1.00D-06.
 Requested convergence on             energy=1.00D-06.
 No special actions if energy rises.
 Inv3:  Mode=1 IEnd=    57474387.
 Iteration    1 A*A^-1 deviation from unit magnitude is 5.00D-15 for   4363.
 Iteration    1 A*A^-1 deviation from orthogonality  is 2.88D-15 for   2852    438.
 Iteration    1 A^-1*A deviation from unit magnitude is 5.00D-15 for   4363.
 Iteration    1 A^-1*A deviation from orthogonality  is 2.54D-15 for   4373   4024.
 Error on total polarization charges =  0.07308
 SCF Done:  E(RwB97XD) =  -1312.80801760     A.U. after   15 cycles
            NFock= 15  Conv=0.35D-08     -V/T= 2.0046
 SMD-CDS (non-electrostatic) energy       (kcal/mol) =      -4.07
 (included in total energy above)

 **********************************************************************

            Population analysis using the SCF Density.

 **********************************************************************

 Alpha  occ. eigenvalues --  -19.26551 -19.26102 -19.25762 -19.19182 -19.17210
 Alpha  occ. eigenvalues --  -10.32842 -10.32779 -10.32546 -10.32520 -10.31974
 Alpha  occ. eigenvalues --  -10.31911 -10.31393 -10.30805 -10.27976 -10.27891
 Alpha  occ. eigenvalues --  -10.27867 -10.27813 -10.27640 -10.27562 -10.25793
 Alpha  occ. eigenvalues --  -10.25177 -10.24842 -10.24804 -10.24781 -10.24520
 Alpha  occ. eigenvalues --  -10.24252 -10.22602 -10.20668  -6.80020  -1.99492
 Alpha  occ. eigenvalues --   -1.15768  -1.15167  -1.14991  -1.09913  -1.03226
 Alpha  occ. eigenvalues --   -0.88067  -0.87804  -0.87709  -0.87321  -0.86235
 Alpha  occ. eigenvalues --   -0.84066  -0.83639  -0.83315  -0.81674  -0.79197
 Alpha  occ. eigenvalues --   -0.77811  -0.75121  -0.74218  -0.72058  -0.69655
 Alpha  occ. eigenvalues --   -0.69212  -0.69020  -0.68743  -0.68432  -0.68311
 Alpha  occ. eigenvalues --   -0.67765  -0.61119  -0.60220  -0.60097  -0.59628
 Alpha  occ. eigenvalues --   -0.58920  -0.58544  -0.57777  -0.57596  -0.56956
 Alpha  occ. eigenvalues --   -0.54350  -0.54070  -0.53882  -0.53695  -0.52395
 Alpha  occ. eigenvalues --   -0.52050  -0.50769  -0.50556  -0.50240  -0.49986
 Alpha  occ. eigenvalues --   -0.49774  -0.49147  -0.48773  -0.48425  -0.47462
 Alpha  occ. eigenvalues --   -0.47327  -0.46397  -0.46163  -0.45881  -0.45660
 Alpha  occ. eigenvalues --   -0.45125  -0.44678  -0.44519  -0.44227  -0.43767
 Alpha  occ. eigenvalues --   -0.43501  -0.43328  -0.43084  -0.42910  -0.42705
 Alpha  occ. eigenvalues --   -0.42427  -0.42298  -0.41976  -0.41725  -0.41274
 Alpha  occ. eigenvalues --   -0.40974  -0.40661  -0.40401  -0.40288  -0.40146
 Alpha  occ. eigenvalues --   -0.39944  -0.38552  -0.36766  -0.35771  -0.35621
 Alpha  occ. eigenvalues --   -0.35246  -0.34975  -0.33879  -0.30740  -0.28066
 Alpha  occ. eigenvalues --   -0.26999
 Alpha virt. eigenvalues --    0.02088   0.02417   0.02466   0.02653   0.05963
 Alpha virt. eigenvalues --    0.06088   0.06217   0.06223   0.06333   0.06934
 Alpha virt. eigenvalues --    0.07424   0.07537   0.07591   0.07756   0.07876
 Alpha virt. eigenvalues --    0.07957   0.08076   0.08081   0.08173   0.08374
 Alpha virt. eigenvalues --    0.09724   0.09788   0.10067   0.10187   0.10265
 Alpha virt. eigenvalues --    0.10447   0.10625   0.10786   0.10918   0.11317
 Alpha virt. eigenvalues --    0.12252   0.12387   0.12733   0.12805   0.12971
 Alpha virt. eigenvalues --    0.13074   0.13226   0.13332   0.13757   0.14080
 Alpha virt. eigenvalues --    0.14170   0.14439   0.14729   0.14940   0.14992
 Alpha virt. eigenvalues --    0.15298   0.15766   0.15845   0.15926   0.16173
 Alpha virt. eigenvalues --    0.16501   0.16517   0.16772   0.16911   0.17057
 Alpha virt. eigenvalues --    0.17294   0.17419   0.17775   0.18042   0.18139
 Alpha virt. eigenvalues --    0.18306   0.18646   0.18682   0.19012   0.19156
 Alpha virt. eigenvalues --    0.19387   0.19579   0.19711   0.19861   0.20208
 Alpha virt. eigenvalues --    0.20295   0.20409   0.20451   0.20710   0.20851
 Alpha virt. eigenvalues --    0.21028   0.21176   0.21313   0.21489   0.21544
 Alpha virt. eigenvalues --    0.21635   0.21834   0.21967   0.22069   0.22165
 Alpha virt. eigenvalues --    0.22325   0.22541   0.22693   0.22792   0.22845
 Alpha virt. eigenvalues --    0.23086   0.23169   0.23178   0.23471   0.23557
 Alpha virt. eigenvalues --    0.23763   0.23974   0.24082   0.24117   0.24385
 Alpha virt. eigenvalues --    0.24528   0.24628   0.25037   0.25134   0.25183
 Alpha virt. eigenvalues --    0.25251   0.25410   0.25699   0.25765   0.25954
 Alpha virt. eigenvalues --    0.26233   0.26430   0.26580   0.26676   0.26756
 Alpha virt. eigenvalues --    0.26991   0.27130   0.27220   0.27552   0.27690
 Alpha virt. eigenvalues --    0.27944   0.28141   0.28202   0.28467   0.28733
 Alpha virt. eigenvalues --    0.28980   0.29080   0.29215   0.29320   0.29457
 Alpha virt. eigenvalues --    0.29582   0.29987   0.30077   0.30173   0.30478
 Alpha virt. eigenvalues --    0.30772   0.31013   0.31140   0.31238   0.31425
 Alpha virt. eigenvalues --    0.31625   0.31939   0.32041   0.32237   0.32527
 Alpha virt. eigenvalues --    0.32634   0.33177   0.33300   0.33407   0.33548
 Alpha virt. eigenvalues --    0.33719   0.34074   0.34181   0.34605   0.34819
 Alpha virt. eigenvalues --    0.34889   0.35390   0.35492   0.35861   0.36128
 Alpha virt. eigenvalues --    0.36215   0.36629   0.36672   0.36796   0.37086
 Alpha virt. eigenvalues --    0.37209   0.37387   0.37733   0.37975   0.38109
 Alpha virt. eigenvalues --    0.38264   0.38465   0.39041   0.39193   0.39276
 Alpha virt. eigenvalues --    0.39650   0.39817   0.40005   0.40122   0.40349
 Alpha virt. eigenvalues --    0.40449   0.40541   0.40794   0.40889   0.41140
 Alpha virt. eigenvalues --    0.41265   0.41474   0.41675   0.42256   0.42431
 Alpha virt. eigenvalues --    0.42518   0.42747   0.43064   0.43316   0.43370
 Alpha virt. eigenvalues --    0.43847   0.43966   0.44219   0.44611   0.44806
 Alpha virt. eigenvalues --    0.44944   0.45206   0.45419   0.45659   0.45953
 Alpha virt. eigenvalues --    0.46126   0.46482   0.46747   0.46836   0.47007
 Alpha virt. eigenvalues --    0.47460   0.47702   0.48043   0.48236   0.48604
 Alpha virt. eigenvalues --    0.49036   0.49355   0.49709   0.50048   0.50432
 Alpha virt. eigenvalues --    0.50919   0.51156   0.51382   0.51704   0.52134
 Alpha virt. eigenvalues --    0.52515   0.52845   0.53900   0.54181   0.54595
 Alpha virt. eigenvalues --    0.54835   0.55692   0.56049   0.56724   0.57179
 Alpha virt. eigenvalues --    0.57440   0.57850   0.58212   0.58532   0.58882
 Alpha virt. eigenvalues --    0.59506   0.59897   0.60061   0.60440   0.61454
 Alpha virt. eigenvalues --    0.61690   0.62340   0.62429   0.62819   0.63209
 Alpha virt. eigenvalues --    0.63642   0.64017   0.64530   0.64703   0.64983
 Alpha virt. eigenvalues --    0.65168   0.65683   0.66026   0.66535   0.66709
 Alpha virt. eigenvalues --    0.67117   0.67408   0.67895   0.68514   0.68708
 Alpha virt. eigenvalues --    0.68976   0.69436   0.69927   0.70192   0.70764
 Alpha virt. eigenvalues --    0.70965   0.71219   0.71526   0.72016   0.72188
 Alpha virt. eigenvalues --    0.72269   0.72898   0.73142   0.73196   0.73567
 Alpha virt. eigenvalues --    0.74156   0.74303   0.75114   0.75152   0.75535
 Alpha virt. eigenvalues --    0.75767   0.76137   0.76712   0.77182   0.77396
 Alpha virt. eigenvalues --    0.77513   0.77800   0.78426   0.78615   0.79158
 Alpha virt. eigenvalues --    0.79278   0.79859   0.80102   0.80282   0.80575
 Alpha virt. eigenvalues --    0.80790   0.81107   0.81357   0.81965   0.82183
 Alpha virt. eigenvalues --    0.82682   0.82768   0.82818   0.83150   0.83238
 Alpha virt. eigenvalues --    0.83420   0.83909   0.84348   0.84607   0.84681
 Alpha virt. eigenvalues --    0.84743   0.85012   0.85607   0.85895   0.86292
 Alpha virt. eigenvalues --    0.86364   0.86587   0.86645   0.87010   0.87181
 Alpha virt. eigenvalues --    0.87397   0.87911   0.88233   0.88519   0.88580
 Alpha virt. eigenvalues --    0.88943   0.89134   0.89466   0.89834   0.90092
 Alpha virt. eigenvalues --    0.90158   0.90716   0.91104   0.91275   0.91888
 Alpha virt. eigenvalues --    0.92049   0.92204   0.92708   0.92990   0.93155
 Alpha virt. eigenvalues --    0.93549   0.94205   0.94605   0.94908   0.95087
 Alpha virt. eigenvalues --    0.95480   0.96116   0.96750   0.97287   0.97952
 Alpha virt. eigenvalues --    0.98277   0.98598   0.99942   1.00178   1.00926
 Alpha virt. eigenvalues --    1.01361   1.01568   1.02830   1.03459   1.04052
 Alpha virt. eigenvalues --    1.04580   1.05779   1.06428   1.06803   1.07507
 Alpha virt. eigenvalues --    1.08516   1.08844   1.10007   1.10800   1.11103
 Alpha virt. eigenvalues --    1.11363   1.14292   1.14735   1.15544   1.16289
 Alpha virt. eigenvalues --    1.16927   1.18147   1.18599   1.18859   1.19945
 Alpha virt. eigenvalues --    1.20604   1.21320   1.22291   1.22718   1.23254
 Alpha virt. eigenvalues --    1.23857   1.24338   1.25395   1.25609   1.26884
 Alpha virt. eigenvalues --    1.27163   1.28517   1.28843   1.29514   1.30166
 Alpha virt. eigenvalues --    1.30352   1.32028   1.32297   1.32864   1.33991
 Alpha virt. eigenvalues --    1.34500   1.35158   1.36452   1.36734   1.37342
 Alpha virt. eigenvalues --    1.37474   1.38210   1.38988   1.39321   1.40652
 Alpha virt. eigenvalues --    1.41115   1.41488   1.42772   1.43353   1.43961
 Alpha virt. eigenvalues --    1.44614   1.45645   1.46418   1.47270   1.48334
 Alpha virt. eigenvalues --    1.48883   1.49657   1.49777   1.50216   1.51785
 Alpha virt. eigenvalues --    1.52695   1.53410   1.53546   1.54509   1.54681
 Alpha virt. eigenvalues --    1.55500   1.55805   1.56436   1.56822   1.57101
 Alpha virt. eigenvalues --    1.57792   1.58543   1.58664   1.59736   1.60204
 Alpha virt. eigenvalues --    1.60954   1.61509   1.61631   1.62629   1.63076
 Alpha virt. eigenvalues --    1.63619   1.63849   1.64601   1.64791   1.65632
 Alpha virt. eigenvalues --    1.66259   1.66351   1.66577   1.67110   1.67714
 Alpha virt. eigenvalues --    1.67864   1.67920   1.68662   1.69011   1.69570
 Alpha virt. eigenvalues --    1.69822   1.70024   1.70565   1.70900   1.71375
 Alpha virt. eigenvalues --    1.71582   1.71954   1.72484   1.72614   1.72755
 Alpha virt. eigenvalues --    1.73147   1.73683   1.74108   1.74624   1.75226
 Alpha virt. eigenvalues --    1.75593   1.75661   1.76093   1.76233   1.76507
 Alpha virt. eigenvalues --    1.76971   1.77869   1.78021   1.78294   1.78786
 Alpha virt. eigenvalues --    1.79247   1.79580   1.80352   1.80660   1.81123
 Alpha virt. eigenvalues --    1.81438   1.81932   1.82074   1.82330   1.82864
 Alpha virt. eigenvalues --    1.83565   1.83828   1.83900   1.84388   1.84750
 Alpha virt. eigenvalues --    1.85739   1.86032   1.86250   1.86868   1.87173
 Alpha virt. eigenvalues --    1.87646   1.87932   1.88241   1.88829   1.89378
 Alpha virt. eigenvalues --    1.89747   1.90196   1.90595   1.91305   1.91435
 Alpha virt. eigenvalues --    1.91561   1.92246   1.93063   1.93466   1.93664
 Alpha virt. eigenvalues --    1.94105   1.94427   1.94861   1.95570   1.96083
 Alpha virt. eigenvalues --    1.96517   1.97041   1.97465   1.97782   1.98742
 Alpha virt. eigenvalues --    1.99074   1.99813   2.00326   2.00667   2.00866
 Alpha virt. eigenvalues --    2.01473   2.01894   2.02716   2.02925   2.03377
 Alpha virt. eigenvalues --    2.04136   2.04273   2.05410   2.05597   2.05738
 Alpha virt. eigenvalues --    2.06171   2.06874   2.07257   2.08046   2.08586
 Alpha virt. eigenvalues --    2.09116   2.09456   2.09977   2.10745   2.11863
 Alpha virt. eigenvalues --    2.12178   2.12536   2.12781   2.13647   2.14583
 Alpha virt. eigenvalues --    2.14725   2.15266   2.16450   2.16986   2.17889
 Alpha virt. eigenvalues --    2.18473   2.18655   2.19738   2.20450   2.21117
 Alpha virt. eigenvalues --    2.21889   2.22274   2.23580   2.24385   2.24753
 Alpha virt. eigenvalues --    2.25108   2.26114   2.26726   2.27180   2.28684
 Alpha virt. eigenvalues --    2.29155   2.29454   2.30091   2.30754   2.31294
 Alpha virt. eigenvalues --    2.31782   2.31972   2.33046   2.33404   2.34344
 Alpha virt. eigenvalues --    2.34530   2.35381   2.35558   2.37498   2.38679
 Alpha virt. eigenvalues --    2.39429   2.40058   2.41523   2.41935   2.42086
 Alpha virt. eigenvalues --    2.43149   2.43452   2.43574   2.43681   2.44877
 Alpha virt. eigenvalues --    2.45116   2.45931   2.47080   2.47913   2.48856
 Alpha virt. eigenvalues --    2.49322   2.50801   2.51130   2.51909   2.52995
 Alpha virt. eigenvalues --    2.54944   2.55830   2.58388   2.58791   2.58957
 Alpha virt. eigenvalues --    2.59877   2.60454   2.60721   2.61716   2.62257
 Alpha virt. eigenvalues --    2.62583   2.63348   2.63786   2.64587   2.64784
 Alpha virt. eigenvalues --    2.64864   2.65507   2.65894   2.66249   2.67051
 Alpha virt. eigenvalues --    2.67530   2.67804   2.68213   2.68660   2.68951
 Alpha virt. eigenvalues --    2.69239   2.69440   2.70225   2.70682   2.71325
 Alpha virt. eigenvalues --    2.71630   2.71943   2.72294   2.73124   2.73871
 Alpha virt. eigenvalues --    2.74480   2.74814   2.75532   2.75828   2.77193
 Alpha virt. eigenvalues --    2.77296   2.77830   2.77938   2.78511   2.78654
 Alpha virt. eigenvalues --    2.79143   2.80092   2.80491   2.80995   2.81837
 Alpha virt. eigenvalues --    2.83093   2.83321   2.84241   2.84720   2.85397
 Alpha virt. eigenvalues --    2.86016   2.86280   2.86901   2.87741   2.88031
 Alpha virt. eigenvalues --    2.88477   2.89935   2.89991   2.90203   2.90977
 Alpha virt. eigenvalues --    2.92421   2.93190   2.93568   2.93688   2.94244
 Alpha virt. eigenvalues --    2.94770   2.96116   2.96621   2.97124   2.97603
 Alpha virt. eigenvalues --    2.98064   2.98319   2.98896   2.98982   2.99830
 Alpha virt. eigenvalues --    3.00118   3.00830   3.01895   3.02377   3.02767
 Alpha virt. eigenvalues --    3.03904   3.04283   3.05205   3.05655   3.06240
 Alpha virt. eigenvalues --    3.06609   3.08225   3.08425   3.09374   3.10366
 Alpha virt. eigenvalues --    3.12240   3.12670   3.13113   3.13912   3.15269
 Alpha virt. eigenvalues --    3.16245   3.16907   3.17950   3.18315   3.19785
 Alpha virt. eigenvalues --    3.20547   3.21126   3.21420   3.23574   3.24814
 Alpha virt. eigenvalues --    3.25317   3.25876   3.26455   3.27150   3.28063
 Alpha virt. eigenvalues --    3.28752   3.28874   3.30131   3.31047   3.31741
 Alpha virt. eigenvalues --    3.32827   3.34206   3.34643   3.35511   3.36323
 Alpha virt. eigenvalues --    3.36851   3.38307   3.39611   3.40063   3.40426
 Alpha virt. eigenvalues --    3.40932   3.42128   3.43903   3.44168   3.45049
 Alpha virt. eigenvalues --    3.46856   3.48305   3.48862   3.50259   3.51193
 Alpha virt. eigenvalues --    3.51737   3.53860   3.57749   3.64481   3.67426
 Alpha virt. eigenvalues --    3.74215   3.74871   3.75684   3.82503   3.83523
 Alpha virt. eigenvalues --    3.87121   3.88038   3.88960   3.89753   3.91425
 Alpha virt. eigenvalues --    3.92430   3.92522   3.93736   3.94236   3.94759
 Alpha virt. eigenvalues --    3.95029   3.96006   3.96824   3.97845   3.98931
 Alpha virt. eigenvalues --    4.00467   4.01698   4.02584   4.03277   4.03460
 Alpha virt. eigenvalues --    4.04771   4.07466   4.14325   4.14540   4.15154
 Alpha virt. eigenvalues --    4.17638   4.19070   4.20499   4.21495   4.21981
 Alpha virt. eigenvalues --    4.23184   4.23863   4.26795   4.28120   4.28266
 Alpha virt. eigenvalues --    4.28494   4.35002   4.38235   4.40469   4.42779
 Alpha virt. eigenvalues --    4.44925   4.46214   4.47573   4.48611   4.49435
 Alpha virt. eigenvalues --    4.49826   4.53431   4.54188   4.72349   5.37412
 Alpha virt. eigenvalues --    5.38030   5.41455   5.46397   5.55205   5.58900
 Alpha virt. eigenvalues --    5.67523   5.71080   5.71977   5.72852   5.78592
 Alpha virt. eigenvalues --    5.79887   5.81113   5.84042   5.92646  14.96803
 Alpha virt. eigenvalues --   23.95780  23.98017  24.02270  24.02345  24.02962
 Alpha virt. eigenvalues --   24.03119  24.03578  24.04484  24.05241  24.09602
 Alpha virt. eigenvalues --   24.11225  24.11918  24.12647  24.13125  24.14458
 Alpha virt. eigenvalues --   24.15036  24.15276  24.16683  24.17838  24.19352
 Alpha virt. eigenvalues --   24.22262  24.22854  24.43567  50.13141  50.14706
 Alpha virt. eigenvalues --   50.17718  50.24627  50.27732
          Condensed to atoms (all electrons):
 Mulliken charges:
               1
     1  Li  -0.438729
     2  C   -0.065196
     3  O    0.137762
     4  C   -0.646494
     5  H    0.206224
     6  C   -0.171697
     7  C   -0.314037
     8  H    0.244277
     9  H    0.163750
    10  H    0.247819
    11  H    0.229114
    12  H    0.250855
    13  H    0.218622
    14  C   -0.030783
    15  O   -0.005979
    16  C   -0.764386
    17  H    0.210807
    18  C   -0.186935
    19  C   -0.317341
    20  H    0.232502
    21  H    0.221156
    22  H    0.231818
    23  H    0.080332
    24  H    0.244429
    25  H    0.211784
    26  C    0.048403
    27  O    0.057855
    28  C   -0.901779
    29  H    0.233801
    30  C   -0.045292
    31  C   -0.441452
    32  H    0.235758
    33  H    0.171608
    34  H    0.230311
    35  H    0.244182
    36  H    0.241810
    37  H    0.188936
    38  O    0.130000
    39  H    0.134291
    40  H    0.086852
    41  H    0.061334
    42  C   -0.169553
    43  C    0.309367
    44  H   -0.294520
    45  C   -0.780808
    46  H    0.220837
    47  H    0.131305
    48  H    0.199202
    49  C   -0.748485
    50  H    0.194444
    51  H    0.190546
    52  H    0.166345
    53  B    0.461450
    54  C   -0.678545
    55  H    0.233490
    56  H    0.147685
    57  H    0.139031
    58  O   -0.077095
    59  C    0.054883
    60  C   -0.422101
    61  C   -0.191749
    62  H    0.190772
    63  H    0.133323
    64  H    0.189556
    65  C   -0.876495
    66  H    0.188527
    67  H    0.179711
    68  H    0.183925
    69  C   -0.863259
    70  H    0.158492
    71  H    0.241523
    72  H    0.142429
    73  C   -0.379201
    74  H    0.205130
    75  H    0.221512
    76  H    0.132035
 Sum of Mulliken charges =  -0.00000
 Mulliken charges with hydrogens summed into heavy atoms:
               1
     1  Li  -0.438729
     2  C    0.227880
     3  O    0.137762
     4  C   -0.238467
     6  C    0.305236
     7  C    0.155440
    14  C    0.314314
    15  O   -0.005979
    16  C   -0.310729
    18  C    0.125215
    19  C    0.138872
    26  C    0.343538
    27  O    0.057855
    28  C   -0.494413
    30  C    0.429201
    31  C   -0.010706
    38  O    0.130000
    42  C   -0.169553
    43  C    0.014847
    45  C   -0.229463
    49  C   -0.197150
    53  B    0.461450
    54  C   -0.158339
    58  O   -0.077095
    59  C    0.054883
    60  C   -0.422101
    61  C    0.321903
    65  C   -0.324332
    69  C   -0.320816
    73  C    0.179476
 Electronic spatial extent (au):  <R**2>=          11187.6571
 Charge=             -0.0000 electrons
 Dipole moment (field-independent basis, Debye):
    X=             13.5577    Y=              2.6606    Z=             -4.7664  Tot=             14.6154
 Quadrupole moment (field-independent basis, Debye-Ang):
   XX=           -190.1300   YY=           -176.5005   ZZ=           -178.8768
   XY=             -5.5369   XZ=              8.7893   YZ=              1.9052
 Traceless Quadrupole moment (field-independent basis, Debye-Ang):
   XX=             -8.2942   YY=              5.3352   ZZ=              2.9590
   XY=             -5.5369   XZ=              8.7893   YZ=              1.9052
 Octapole moment (field-independent basis, Debye-Ang**2):
  XXX=            180.2491  YYY=             61.7875  ZZZ=            -55.6615  XYY=             54.9721
  XXY=             23.4280  XXZ=            -26.8956  XZZ=             67.7134  YZZ=             -1.4268
  YYZ=              5.3540  XYZ=              0.8885
 Hexadecapole moment (field-independent basis, Debye-Ang**3):
 XXXX=          -6985.5754 YYYY=          -4683.2178 ZZZZ=          -3690.2785 XXXY=             52.7568
 XXXZ=             52.2685 YYYX=            168.7788 YYYZ=             14.5184 ZZZX=            -44.8836
 ZZZY=            -35.4345 XXYY=          -1893.9202 XXZZ=          -1716.0653 YYZZ=          -1375.0699
 XXYZ=            -15.5167 YYXZ=             14.4762 ZZXY=              2.0915
 N-N= 3.495900021246D+03 E-N=-1.005281456478D+04  KE= 1.306766508404D+03
 Unable to Open any file for archive entry.
 1\1\GINC-NODE08\SP\RwB97XD\6-311++G(d,p)\C23H46B1Li1O5\WHUGHES2\08-Oct
 -2025\0\\# wb97xd/6-311++g** nosymm int=ultrafine scrf=(smd,solvent=te
 trahydrofuran)\\r1-li-3thf-c1_tzpop-sp\\0,1\Li,0,0.6037,0.3457,-0.0687
 \C,0,2.4208,2.8521,-0.3039\O,0,1.1485,2.271,-0.0207\C,0,3.0357,3.2391,
 1.0579\H,0,2.2719,3.7356,-0.9393\C,0,0.6659,2.8978,1.1679\C,0,1.8952,2
 .9806,2.0655\H,0,3.3361,4.291,1.0561\H,0,3.921,2.6399,1.2874\H,0,0.278
 6,3.8981,0.9216\H,0,-0.1484,2.282,1.5533\H,0,1.8074,3.7675,2.8199\H,0,
 2.0373,2.0237,2.5777\C,0,1.5377,0.499,-2.9783\O,0,1.6304,-0.1572,-1.71
 13\C,0,1.1822,-0.5958,-4.004\H,0,2.5069,0.9619,-3.2081\C,0,2.1093,-1.4
 758,-1.9722\C,0,1.3404,-1.9135,-3.2137\H,0,1.8628,-0.5544,-4.8592\H,0,
 0.1629,-0.4775,-4.3811\H,0,3.1923,-1.4368,-2.1632\H,0,1.9241,-2.0781,-
 1.0811\H,0,1.8711,-2.6865,-3.7763\H,0,0.3618,-2.3096,-2.9241\C,0,3.252
 3,-0.3534,1.0944\O,0,1.8444,-0.514,1.2793\C,0,3.8649,-1.7627,1.2125\H,
 0,3.6396,0.3139,1.8759\C,0,1.6868,-1.5807,2.2161\C,0,2.7105,-2.6211,1.
 7739\H,0,4.7272,-1.7516,1.8853\H,0,4.2038,-2.1351,0.2418\H,0,1.9032,-1
 .205,3.2274\H,0,0.653,-1.919,2.1633\H,0,3.022,-3.2675,2.5991\H,0,2.278
 1,-3.2521,0.9906\O,0,-1.2862,0.4499,0.0661\H,0,0.787,1.2854,-2.8858\H,
 0,3.0015,2.1154,-0.8631\H,0,3.4021,0.1138,0.1199\C,0,-1.6115,-2.0206,0
 .8745\C,0,-0.7849,-2.4737,-0.0818\H,0,-0.3675,-1.743,-0.7755\C,0,-0.36
 9,-3.908,-0.3203\H,0,-1.1606,-4.494,-0.8105\H,0,0.5124,-3.9624,-0.9707
 \H,0,-0.1193,-4.4302,0.6126\C,0,-2.2371,-2.99,1.8561\H,0,-1.624,-3.078
 2,2.7666\H,0,-3.2231,-2.6338,2.1792\H,0,-2.3633,-4.003,1.4526\B,0,-1.9
 68,-0.4402,1.0918\C,0,-1.5264,0.0566,2.596\H,0,-0.4334,0.0944,2.7242\H
 ,0,-1.9088,1.0633,2.8208\H,0,-1.9128,-0.6072,3.3859\O,0,-3.4176,-0.216
 4,0.8061\C,0,-3.5716,0.9026,-0.0348\C,0,-2.2455,0.919,-0.8719\C,0,-3.7
 305,2.1782,0.8126\H,0,-4.5259,2.0118,1.5481\H,0,-2.8121,2.418,1.3563\H
 ,0,-4.0057,3.0469,0.2016\C,0,-4.8325,0.7248,-0.8802\H,0,-5.718,0.7639,
 -0.2344\H,0,-4.9272,1.5201,-1.6305\H,0,-4.8342,-0.2417,-1.3926\C,0,-1.
 8472,2.3062,-1.3696\H,0,-0.9338,2.2489,-1.9704\H,0,-2.6398,2.731,-1.99
 83\H,0,-1.653,2.9923,-0.5421\C,0,-2.2942,-0.0392,-2.0694\H,0,-2.6426,-
 1.0321,-1.7723\H,0,-2.9433,0.3403,-2.8678\H,0,-1.2821,-0.1459,-2.4771\
 \Version=AS64L-G16RevC.01\HF=-1312.8080176\RMSD=3.535e-09\Dipole=5.334
 0179,1.0467554,-1.8752576\Quadrupole=-6.1665671,3.9666222,2.1999449,-4
 .1165548,6.534628,1.4165039\PG=C01 [X(C23H46B1Li1O5)]\\@
 The archive entry for this job was punched.


 Experience is what you get when you don't get what you want.
 -- Dan Stanford
 Job cpu time:       0 days  4 hours 46 minutes 38.4 seconds.
 Elapsed time:       0 days  1 hours 12 minutes 22.4 seconds.
 File lengths (MBytes):  RWF=    824 Int=      0 D2E=      0 Chk=     59 Scr=      1
 Normal termination of Gaussian 16 at Wed Oct  8 16:40:08 2025.
