Job Start Time: Wed Oct  8 15:57:02 MDT 2025
SLURM Job ID: 768203
SLURM Job Name: r1-li-3thf-c8_tzpop-sp
 Entering Gaussian System, Link 0=/opt/apps/Gaussian/G16C/g16/g16
 Initial command:
 /opt/apps/Gaussian/G16C/g16/l1.exe "/tmp/768203/Gau-2785578.inp" -scrdir="/tmp/768203/"
 Entering Link 1 = /opt/apps/Gaussian/G16C/g16/l1.exe PID=   2785579.
  
 Copyright (c) 1988-2019, Gaussian, Inc.  All Rights Reserved.
  
 This is part of the Gaussian(R) 16 program.  It is based on
 the Gaussian(R) 09 system (copyright 2009, Gaussian, Inc.),
 the Gaussian(R) 03 system (copyright 2003, Gaussian, Inc.),
 the Gaussian(R) 98 system (copyright 1998, Gaussian, Inc.),
 the Gaussian(R) 94 system (copyright 1995, Gaussian, Inc.),
 the Gaussian 92(TM) system (copyright 1992, Gaussian, Inc.),
 the Gaussian 90(TM) system (copyright 1990, Gaussian, Inc.),
 the Gaussian 88(TM) system (copyright 1988, Gaussian, Inc.),
 the Gaussian 86(TM) system (copyright 1986, Carnegie Mellon
 University), and the Gaussian 82(TM) system (copyright 1983,
 Carnegie Mellon University). Gaussian is a federally registered
 trademark of Gaussian, Inc.
  
 This software contains proprietary and confidential information,
 including trade secrets, belonging to Gaussian, Inc.
  
 This software is provided under written license and may be
 used, copied, transmitted, or stored only in accord with that
 written license.
  
 The following legend is applicable only to US Government
 contracts under FAR:
  
                    RESTRICTED RIGHTS LEGEND
  
 Use, reproduction and disclosure by the US Government is
 subject to restrictions as set forth in subparagraphs (a)
 and (c) of the Commercial Computer Software - Restricted
 Rights clause in FAR 52.227-19.
  
 Gaussian, Inc.
 340 Quinnipiac St., Bldg. 40, Wallingford CT 06492
  
  
 ---------------------------------------------------------------
 Warning -- This program may not be used in any manner that
 competes with the business of Gaussian, Inc. or will provide
 assistance to any competitor of Gaussian, Inc.  The licensee
 of this program is prohibited from giving any competitor of
 Gaussian, Inc. access to this program.  By using this program,
 the user acknowledges that Gaussian, Inc. is engaged in the
 business of creating and licensing software in the field of
 computational chemistry and represents and warrants to the
 licensee that it is not a competitor of Gaussian, Inc. and that
 it will not use this program in any manner prohibited above.
 ---------------------------------------------------------------
  

 Cite this work as:
 Gaussian 16, Revision C.01,
 M. J. Frisch, G. W. Trucks, H. B. Schlegel, G. E. Scuseria, 
 M. A. Robb, J. R. Cheeseman, G. Scalmani, V. Barone, 
 G. A. Petersson, H. Nakatsuji, X. Li, M. Caricato, A. V. Marenich, 
 J. Bloino, B. G. Janesko, R. Gomperts, B. Mennucci, H. P. Hratchian, 
 J. V. Ortiz, A. F. Izmaylov, J. L. Sonnenberg, D. Williams-Young, 
 F. Ding, F. Lipparini, F. Egidi, J. Goings, B. Peng, A. Petrone, 
 T. Henderson, D. Ranasinghe, V. G. Zakrzewski, J. Gao, N. Rega, 
 G. Zheng, W. Liang, M. Hada, M. Ehara, K. Toyota, R. Fukuda, 
 J. Hasegawa, M. Ishida, T. Nakajima, Y. Honda, O. Kitao, H. Nakai, 
 T. Vreven, K. Throssell, J. A. Montgomery, Jr., J. E. Peralta, 
 F. Ogliaro, M. J. Bearpark, J. J. Heyd, E. N. Brothers, K. N. Kudin, 
 V. N. Staroverov, T. A. Keith, R. Kobayashi, J. Normand, 
 K. Raghavachari, A. P. Rendell, J. C. Burant, S. S. Iyengar, 
 J. Tomasi, M. Cossi, J. M. Millam, M. Klene, C. Adamo, R. Cammi, 
 J. W. Ochterski, R. L. Martin, K. Morokuma, O. Farkas, 
 J. B. Foresman, and D. J. Fox, Gaussian, Inc., Wallingford CT, 2019.
 
 ******************************************
 Gaussian 16:  AS64L-G16RevC.01  3-Jul-2019
                 8-Oct-2025 
 ******************************************
 %chk=r1-li-3thf-c8_tzpop-sp.chk
 %nprocshared=4
 Will use up to    4 processors via shared memory.
 %mem=8GB
 ----------------------------------------------------------------------
 # wb97xd/6-311++g** nosymm int=ultrafine scrf=(smd,solvent=tetrahydrof
 uran)
 ----------------------------------------------------------------------
 1/38=1,172=1/1;
 2/12=2,15=1,17=6,18=5,40=1/2;
 3/5=4,6=6,7=1111,11=2,25=1,30=1,70=32201,72=20,74=-58,75=-5/1,2,3;
 4//1;
 5/5=2,38=5,53=20/2;
 6/7=2,8=2,9=2,10=2,28=1/1;
 99/5=1,9=1/99;
 ----------------------
 r1-li-3thf-c8_tzpop-sp
 ----------------------
 Symbolic Z-matrix:
 Charge =  0 Multiplicity = 1
 Li                    0.5326    0.0838    0.2129 
 C                     1.09      2.2952    1.9357 
 O                     1.4437    1.8591    0.6122 
 C                     1.2002    3.831     1.9355 
 H                     1.7768    1.8366    2.6579 
 C                     2.1323    2.9134   -0.0528 
 C                     1.4695    4.1823    0.4636 
 H                     2.0346    4.1542    2.5658 
 H                     0.2897    4.3027    2.3148 
 H                     3.2017    2.884     0.2081 
 H                     2.0263    2.7573   -1.1289 
 H                     2.1047    5.0647    0.3456 
 H                     0.5312    4.3546   -0.0745 
 C                     0.5814   -1.8374   -2.2686 
 O                     1.0419   -0.6857   -1.5481 
 C                     1.0556   -1.6299   -3.7003 
 H                    -0.5031   -1.8975   -2.1603 
 C                     2.0483    0.0089   -2.2989 
 C                     2.3809   -0.893    -3.4832 
 H                     0.3487   -0.9963   -4.2486 
 H                     1.1685   -2.5742   -4.2394 
 H                     1.6296    0.9678   -2.6306 
 H                     2.8987    0.2025   -1.6373 
 H                     2.7077   -0.3215   -4.356 
 H                     3.1727   -1.6026   -3.2169 
 C                     2.0795   -2.3525    0.987 
 O                     1.9795   -0.9552    1.2544 
 C                     3.3458   -2.5051    0.1457 
 H                     1.1599   -2.6621    0.4869 
 C                     3.3061   -0.5055    1.5271 
 C                     4.2332   -1.3307    0.6169 
 H                     3.1092   -2.4049   -0.9171 
 H                     3.8167   -3.4802    0.2982 
 H                     3.3333    0.5666    1.3308 
 H                     3.5293   -0.6845    2.5883 
 H                     4.5844   -0.7375   -0.2324 
 H                     5.1126   -1.6746    1.1687 
 O                    -1.2863    0.5657    0.5173 
 H                     1.0284   -2.7378   -1.8269 
 H                     0.0785    1.927     2.1236 
 H                     2.166    -2.897     1.9384 
 C                    -1.6138   -1.817     1.4284 
 C                    -1.8505   -2.748     0.4864 
 H                    -2.5171   -2.4607   -0.3285 
 C                    -1.3459   -4.165     0.3801 
 H                    -0.6373   -4.4398    1.1679 
 H                    -2.1771   -4.8834    0.4206 
 H                    -0.8466   -4.3272   -0.5863 
 C                    -0.7689   -2.12      2.6497 
 H                    -0.2778   -3.0993    2.6321 
 H                     0.0122   -1.3622    2.791 
 H                    -1.3928   -2.0874    3.5533 
 B                    -2.2542   -0.2988    1.3243 
 C                    -2.5254    0.3085    2.8295 
 H                    -3.0246    1.287     2.8037 
 H                    -3.1835   -0.3588    3.4105 
 H                    -1.6061    0.433     3.4237 
 O                    -3.4963   -0.21      0.5061 
 C                    -3.3246    0.5972   -0.6356 
 C                    -2.0251    1.4319   -0.3327 
 C                    -4.5739    1.4584   -0.8389 
 H                    -4.4453    2.1644   -1.6697 
 H                    -5.4286    0.8131   -1.0751 
 H                    -4.8224    2.0231    0.0643 
 C                    -3.161    -0.2994   -1.8727 
 H                    -3.1403    0.2769   -2.806 
 H                    -2.244    -0.8895   -1.8096 
 H                    -4.0071   -0.9947   -1.9183 
 C                    -2.3161    2.7538    0.3941 
 H                    -2.7835    3.4846   -0.2768 
 H                    -2.97      2.6165    1.2574 
 H                    -1.3712    3.1788    0.7484 
 C                    -1.1923    1.7572   -1.5729 
 H                    -0.8314    0.8515   -2.0658 
 H                    -1.7785    2.3398   -2.2938 
 H                    -0.3207    2.3558   -1.286 
 
 Symmetry turned off by external request.
 Stoichiometry    C23H46BLiO5
 Framework group  C1[X(C23H46BLiO5)]
 Deg. of freedom   222
 Full point group                 C1      NOp   1
                          Input orientation:                          
 ---------------------------------------------------------------------
 Center     Atomic      Atomic             Coordinates (Angstroms)
 Number     Number       Type             X           Y           Z
 ---------------------------------------------------------------------
      1          3           0        0.532600    0.083800    0.212900
      2          6           0        1.090000    2.295200    1.935700
      3          8           0        1.443700    1.859100    0.612200
      4          6           0        1.200200    3.831000    1.935500
      5          1           0        1.776800    1.836600    2.657900
      6          6           0        2.132300    2.913400   -0.052800
      7          6           0        1.469500    4.182300    0.463600
      8          1           0        2.034600    4.154200    2.565800
      9          1           0        0.289700    4.302700    2.314800
     10          1           0        3.201700    2.884000    0.208100
     11          1           0        2.026300    2.757300   -1.128900
     12          1           0        2.104700    5.064700    0.345600
     13          1           0        0.531200    4.354600   -0.074500
     14          6           0        0.581400   -1.837400   -2.268600
     15          8           0        1.041900   -0.685700   -1.548100
     16          6           0        1.055600   -1.629900   -3.700300
     17          1           0       -0.503100   -1.897500   -2.160300
     18          6           0        2.048300    0.008900   -2.298900
     19          6           0        2.380900   -0.893000   -3.483200
     20          1           0        0.348700   -0.996300   -4.248600
     21          1           0        1.168500   -2.574200   -4.239400
     22          1           0        1.629600    0.967800   -2.630600
     23          1           0        2.898700    0.202500   -1.637300
     24          1           0        2.707700   -0.321500   -4.356000
     25          1           0        3.172700   -1.602600   -3.216900
     26          6           0        2.079500   -2.352500    0.987000
     27          8           0        1.979500   -0.955200    1.254400
     28          6           0        3.345800   -2.505100    0.145700
     29          1           0        1.159900   -2.662100    0.486900
     30          6           0        3.306100   -0.505500    1.527100
     31          6           0        4.233200   -1.330700    0.616900
     32          1           0        3.109200   -2.404900   -0.917100
     33          1           0        3.816700   -3.480200    0.298200
     34          1           0        3.333300    0.566600    1.330800
     35          1           0        3.529300   -0.684500    2.588300
     36          1           0        4.584400   -0.737500   -0.232400
     37          1           0        5.112600   -1.674600    1.168700
     38          8           0       -1.286300    0.565700    0.517300
     39          1           0        1.028400   -2.737800   -1.826900
     40          1           0        0.078500    1.927000    2.123600
     41          1           0        2.166000   -2.897000    1.938400
     42          6           0       -1.613800   -1.817000    1.428400
     43          6           0       -1.850500   -2.748000    0.486400
     44          1           0       -2.517100   -2.460700   -0.328500
     45          6           0       -1.345900   -4.165000    0.380100
     46          1           0       -0.637300   -4.439800    1.167900
     47          1           0       -2.177100   -4.883400    0.420600
     48          1           0       -0.846600   -4.327200   -0.586300
     49          6           0       -0.768900   -2.120000    2.649700
     50          1           0       -0.277800   -3.099300    2.632100
     51          1           0        0.012200   -1.362200    2.791000
     52          1           0       -1.392800   -2.087400    3.553300
     53          5           0       -2.254200   -0.298800    1.324300
     54          6           0       -2.525400    0.308500    2.829500
     55          1           0       -3.024600    1.287000    2.803700
     56          1           0       -3.183500   -0.358800    3.410500
     57          1           0       -1.606100    0.433000    3.423700
     58          8           0       -3.496300   -0.210000    0.506100
     59          6           0       -3.324600    0.597200   -0.635600
     60          6           0       -2.025100    1.431900   -0.332700
     61          6           0       -4.573900    1.458400   -0.838900
     62          1           0       -4.445300    2.164400   -1.669700
     63          1           0       -5.428600    0.813100   -1.075100
     64          1           0       -4.822400    2.023100    0.064300
     65          6           0       -3.161000   -0.299400   -1.872700
     66          1           0       -3.140300    0.276900   -2.806000
     67          1           0       -2.244000   -0.889500   -1.809600
     68          1           0       -4.007100   -0.994700   -1.918300
     69          6           0       -2.316100    2.753800    0.394100
     70          1           0       -2.783500    3.484600   -0.276800
     71          1           0       -2.970000    2.616500    1.257400
     72          1           0       -1.371200    3.178800    0.748400
     73          6           0       -1.192300    1.757200   -1.572900
     74          1           0       -0.831400    0.851500   -2.065800
     75          1           0       -1.778500    2.339800   -2.293800
     76          1           0       -0.320700    2.355800   -1.286000
 ---------------------------------------------------------------------
 Rotational constants (GHZ):           0.1743861           0.1442096           0.1230288
 Standard basis: 6-311++G(d,p) (5D, 7F)
   982 basis functions,  1494 primitive gaussians,  1012 cartesian basis functions
   116 alpha electrons      116 beta electrons
       nuclear repulsion energy      3485.7090709801 Hartrees.
 NAtoms=   76 NActive=   76 NUniq=   76 SFac= 1.00D+00 NAtFMM=   60 NAOKFM=T Big=T
 Integral buffers will be    131072 words long.
 Raffenetti 2 integral format.
 Two-electron integral symmetry is turned off.
 Nuclear repulsion after empirical dispersion term =     3485.6102698639 Hartrees.
 ------------------------------------------------------------------------------
 Polarizable Continuum Model (PCM)
 =================================
 Model                : PCM.
 Atomic radii         : SMD-Coulomb.
 Polarization charges : Total charges.
 Charge compensation  : None.
 Solution method      : On-the-fly selection.
 Cavity type          : VdW (van der Waals Surface) (Alpha=1.000).
 Cavity algorithm     : GePol (No added spheres)
                        Default sphere list used, NSphG=   76.
                        Lebedev-Laikov grids with approx.  5.0 points / Ang**2.
                        Smoothing algorithm: York/Karplus (Gamma=1.0000).
                        Polarization charges: spherical gaussians, with
                                              point-specific exponents (IZeta= 3).
                        Self-potential: point-specific (ISelfS= 7).
                        Self-field    : sphere-specific E.n sum rule (ISelfD= 2).
 Solvent              : TetraHydroFuran, Eps=   7.425700 Eps(inf)=   1.974025
 ------------------------------------------------------------------------------
 ------------------------------------------------------------------------------
 Atomic radii for non-electrostatic terms: SMD-CDS.
 ------------------------------------------------------------------------------
 Nuclear repulsion after PCM non-electrostatic terms =     3485.6038825805 Hartrees.
 One-electron integrals computed using PRISM.
 NBasis=   982 RedAO= T EigKep=  1.08D-06  NBF=   982
 NBsUse=   979 1.00D-06 EigRej=  8.89D-07 NBFU=   979
 ExpMin= 7.40D-03 ExpMax= 8.59D+03 ExpMxC= 1.30D+03 IAcc=3 IRadAn=         5 AccDes= 0.00D+00
 Harris functional with IExCor= 4639 and IRadAn=       5 diagonalized for initial guess.
 HarFok:  IExCor= 4639 AccDes= 0.00D+00 IRadAn=         5 IDoV= 1 UseB2=F ITyADJ=14
 ICtDFT=  3500011 ScaDFX=  1.000000  1.000000  1.000000  1.000000
 FoFCou: FMM=F IPFlag=           0 FMFlag=      100000 FMFlg1=        2001
         NFxFlg=           0 DoJE=T BraDBF=F KetDBF=T FulRan=T
         wScrn=  0.000000 ICntrl=       500 IOpCl=  0 I1Cent=   200000004 NGrid=           0
         NMat0=    1 NMatS0=      1 NMatT0=    0 NMatD0=    1 NMtDS0=    0 NMtDT0=    0
 Symmetry not used in FoFCou.
 Requested convergence on RMS density matrix=1.00D-08 within 128 cycles.
 Requested convergence on MAX density matrix=1.00D-06.
 Requested convergence on             energy=1.00D-06.
 No special actions if energy rises.
 Inv3:  Mode=1 IEnd=    58556172.
 Iteration    1 A*A^-1 deviation from unit magnitude is 7.99D-15 for   4418.
 Iteration    1 A*A^-1 deviation from orthogonality  is 2.77D-15 for   3923   1743.
 Iteration    1 A^-1*A deviation from unit magnitude is 7.99D-15 for   4418.
 Iteration    1 A^-1*A deviation from orthogonality  is 6.30D-15 for   3450   3449.
 Error on total polarization charges =  0.07386
 SCF Done:  E(RwB97XD) =  -1312.80041727     A.U. after   15 cycles
            NFock= 15  Conv=0.33D-08     -V/T= 2.0046
 SMD-CDS (non-electrostatic) energy       (kcal/mol) =      -4.01
 (included in total energy above)

 **********************************************************************

            Population analysis using the SCF Density.

 **********************************************************************

 Alpha  occ. eigenvalues --  -19.26008 -19.25841 -19.25833 -19.19114 -19.17043
 Alpha  occ. eigenvalues --  -10.32959 -10.32805 -10.32699 -10.32346 -10.32247
 Alpha  occ. eigenvalues --  -10.32064 -10.31528 -10.30857 -10.28301 -10.28156
 Alpha  occ. eigenvalues --  -10.27898 -10.27892 -10.27833 -10.27758 -10.25719
 Alpha  occ. eigenvalues --  -10.25326 -10.24836 -10.24806 -10.24577 -10.24565
 Alpha  occ. eigenvalues --  -10.24440 -10.22733 -10.20341  -6.80117  -1.99900
 Alpha  occ. eigenvalues --   -1.15270  -1.14936  -1.14812  -1.09716  -1.03071
 Alpha  occ. eigenvalues --   -0.88762  -0.88119  -0.87798  -0.87323  -0.86076
 Alpha  occ. eigenvalues --   -0.84289  -0.83806  -0.83477  -0.81740  -0.79396
 Alpha  occ. eigenvalues --   -0.77993  -0.75110  -0.73761  -0.72071  -0.69341
 Alpha  occ. eigenvalues --   -0.69317  -0.69067  -0.68740  -0.68559  -0.68406
 Alpha  occ. eigenvalues --   -0.67807  -0.60921  -0.60331  -0.60269  -0.59755
 Alpha  occ. eigenvalues --   -0.59091  -0.58832  -0.57943  -0.57839  -0.56969
 Alpha  occ. eigenvalues --   -0.54164  -0.53845  -0.53435  -0.52868  -0.52404
 Alpha  occ. eigenvalues --   -0.51932  -0.51554  -0.50705  -0.50483  -0.50199
 Alpha  occ. eigenvalues --   -0.49567  -0.49465  -0.48792  -0.48322  -0.47886
 Alpha  occ. eigenvalues --   -0.47205  -0.46607  -0.46384  -0.45990  -0.45797
 Alpha  occ. eigenvalues --   -0.45049  -0.44795  -0.44617  -0.44287  -0.43947
 Alpha  occ. eigenvalues --   -0.43718  -0.43309  -0.43089  -0.42954  -0.42667
 Alpha  occ. eigenvalues --   -0.42538  -0.42016  -0.41795  -0.41651  -0.41607
 Alpha  occ. eigenvalues --   -0.41574  -0.41337  -0.40589  -0.40286  -0.40043
 Alpha  occ. eigenvalues --   -0.39926  -0.38094  -0.36403  -0.35379  -0.35151
 Alpha  occ. eigenvalues --   -0.34687  -0.34280  -0.33759  -0.30710  -0.28450
 Alpha  occ. eigenvalues --   -0.26799
 Alpha virt. eigenvalues --    0.02127   0.02404   0.02476   0.02699   0.05924
 Alpha virt. eigenvalues --    0.06058   0.06185   0.06234   0.06330   0.07077
 Alpha virt. eigenvalues --    0.07362   0.07534   0.07592   0.07738   0.07778
 Alpha virt. eigenvalues --    0.07935   0.08044   0.08116   0.08366   0.08537
 Alpha virt. eigenvalues --    0.09601   0.09747   0.10043   0.10179   0.10368
 Alpha virt. eigenvalues --    0.10381   0.10549   0.10830   0.11174   0.11517
 Alpha virt. eigenvalues --    0.12206   0.12365   0.12521   0.12729   0.12922
 Alpha virt. eigenvalues --    0.13234   0.13438   0.13505   0.13704   0.13778
 Alpha virt. eigenvalues --    0.14140   0.14324   0.14473   0.14926   0.14961
 Alpha virt. eigenvalues --    0.15188   0.15585   0.15657   0.16037   0.16230
 Alpha virt. eigenvalues --    0.16307   0.16432   0.16695   0.16979   0.17198
 Alpha virt. eigenvalues --    0.17418   0.17557   0.17603   0.17695   0.18084
 Alpha virt. eigenvalues --    0.18208   0.18299   0.18610   0.18860   0.19057
 Alpha virt. eigenvalues --    0.19153   0.19291   0.19351   0.19772   0.19990
 Alpha virt. eigenvalues --    0.20124   0.20198   0.20324   0.20491   0.20560
 Alpha virt. eigenvalues --    0.20874   0.21009   0.21084   0.21258   0.21295
 Alpha virt. eigenvalues --    0.21684   0.21829   0.21881   0.21963   0.22170
 Alpha virt. eigenvalues --    0.22336   0.22490   0.22617   0.22859   0.22973
 Alpha virt. eigenvalues --    0.23099   0.23349   0.23394   0.23527   0.23612
 Alpha virt. eigenvalues --    0.23909   0.23928   0.24012   0.24213   0.24391
 Alpha virt. eigenvalues --    0.24600   0.24684   0.24806   0.24913   0.24953
 Alpha virt. eigenvalues --    0.25223   0.25435   0.25577   0.25777   0.25823
 Alpha virt. eigenvalues --    0.26078   0.26250   0.26347   0.26595   0.26683
 Alpha virt. eigenvalues --    0.26861   0.26980   0.27291   0.27575   0.27804
 Alpha virt. eigenvalues --    0.28014   0.28143   0.28193   0.28298   0.28573
 Alpha virt. eigenvalues --    0.28773   0.28812   0.29071   0.29301   0.29455
 Alpha virt. eigenvalues --    0.29872   0.29915   0.30088   0.30238   0.30516
 Alpha virt. eigenvalues --    0.30568   0.30822   0.30853   0.31237   0.31310
 Alpha virt. eigenvalues --    0.31486   0.31774   0.31938   0.32133   0.32411
 Alpha virt. eigenvalues --    0.32559   0.33184   0.33263   0.33305   0.33591
 Alpha virt. eigenvalues --    0.33669   0.34059   0.34341   0.34649   0.34807
 Alpha virt. eigenvalues --    0.34932   0.35094   0.35225   0.35574   0.35883
 Alpha virt. eigenvalues --    0.36002   0.36292   0.36868   0.36935   0.36980
 Alpha virt. eigenvalues --    0.37458   0.37665   0.37809   0.38223   0.38280
 Alpha virt. eigenvalues --    0.38640   0.38746   0.38927   0.39186   0.39338
 Alpha virt. eigenvalues --    0.39385   0.39522   0.39729   0.40009   0.40102
 Alpha virt. eigenvalues --    0.40304   0.40503   0.40704   0.41080   0.41184
 Alpha virt. eigenvalues --    0.41599   0.41645   0.41922   0.42122   0.42396
 Alpha virt. eigenvalues --    0.42631   0.42801   0.42890   0.43157   0.43326
 Alpha virt. eigenvalues --    0.43507   0.43677   0.44092   0.44217   0.44562
 Alpha virt. eigenvalues --    0.44774   0.44979   0.45086   0.45536   0.45825
 Alpha virt. eigenvalues --    0.45978   0.46132   0.46872   0.47084   0.47130
 Alpha virt. eigenvalues --    0.47544   0.47795   0.47933   0.48096   0.48387
 Alpha virt. eigenvalues --    0.48617   0.48958   0.49265   0.49639   0.49799
 Alpha virt. eigenvalues --    0.50654   0.50884   0.51173   0.51447   0.52248
 Alpha virt. eigenvalues --    0.52395   0.53329   0.53399   0.54444   0.54773
 Alpha virt. eigenvalues --    0.55087   0.55134   0.55644   0.56030   0.56702
 Alpha virt. eigenvalues --    0.56976   0.57460   0.57892   0.58129   0.58652
 Alpha virt. eigenvalues --    0.59234   0.59665   0.59892   0.60412   0.60791
 Alpha virt. eigenvalues --    0.61224   0.61605   0.62225   0.62932   0.63112
 Alpha virt. eigenvalues --    0.63281   0.63439   0.64079   0.64357   0.65063
 Alpha virt. eigenvalues --    0.65153   0.65580   0.66090   0.66398   0.66957
 Alpha virt. eigenvalues --    0.67413   0.67630   0.67753   0.68796   0.68875
 Alpha virt. eigenvalues --    0.68994   0.69133   0.70007   0.70259   0.70422
 Alpha virt. eigenvalues --    0.70699   0.70909   0.71550   0.71782   0.72044
 Alpha virt. eigenvalues --    0.72420   0.72642   0.73151   0.73340   0.73606
 Alpha virt. eigenvalues --    0.73759   0.74542   0.74727   0.75242   0.75384
 Alpha virt. eigenvalues --    0.75746   0.75891   0.76299   0.76679   0.77091
 Alpha virt. eigenvalues --    0.77666   0.77725   0.78241   0.78497   0.78644
 Alpha virt. eigenvalues --    0.78969   0.79673   0.79752   0.80027   0.80570
 Alpha virt. eigenvalues --    0.80757   0.81046   0.81440   0.81934   0.82095
 Alpha virt. eigenvalues --    0.82186   0.82436   0.82643   0.83207   0.83488
 Alpha virt. eigenvalues --    0.83512   0.83775   0.83927   0.84004   0.84180
 Alpha virt. eigenvalues --    0.84601   0.84730   0.85134   0.85563   0.85615
 Alpha virt. eigenvalues --    0.86038   0.86258   0.86881   0.87050   0.87336
 Alpha virt. eigenvalues --    0.87531   0.87919   0.88361   0.88584   0.88667
 Alpha virt. eigenvalues --    0.88768   0.88972   0.89112   0.89671   0.89954
 Alpha virt. eigenvalues --    0.90251   0.90442   0.90873   0.91145   0.91549
 Alpha virt. eigenvalues --    0.91816   0.92138   0.92455   0.93142   0.93204
 Alpha virt. eigenvalues --    0.93511   0.93668   0.94587   0.94983   0.95599
 Alpha virt. eigenvalues --    0.95867   0.96366   0.96672   0.97283   0.97530
 Alpha virt. eigenvalues --    0.98051   0.98503   0.99374   1.00058   1.00144
 Alpha virt. eigenvalues --    1.00436   1.01672   1.01822   1.02299   1.03222
 Alpha virt. eigenvalues --    1.03718   1.04064   1.04785   1.06640   1.07231
 Alpha virt. eigenvalues --    1.07665   1.08139   1.10273   1.10749   1.10911
 Alpha virt. eigenvalues --    1.11476   1.12200   1.13619   1.15006   1.15589
 Alpha virt. eigenvalues --    1.16297   1.17046   1.17965   1.18585   1.19040
 Alpha virt. eigenvalues --    1.19928   1.21272   1.21830   1.22379   1.23591
 Alpha virt. eigenvalues --    1.24094   1.24420   1.25107   1.26032   1.26315
 Alpha virt. eigenvalues --    1.27080   1.27595   1.29099   1.29451   1.30436
 Alpha virt. eigenvalues --    1.30589   1.31170   1.32096   1.32735   1.33715
 Alpha virt. eigenvalues --    1.34883   1.35017   1.35269   1.36214   1.37435
 Alpha virt. eigenvalues --    1.37658   1.38653   1.38971   1.39775   1.40501
 Alpha virt. eigenvalues --    1.40882   1.41806   1.42028   1.42426   1.42651
 Alpha virt. eigenvalues --    1.44581   1.45054   1.45869   1.46429   1.47442
 Alpha virt. eigenvalues --    1.48047   1.48171   1.50184   1.50693   1.51549
 Alpha virt. eigenvalues --    1.51950   1.52078   1.52469   1.52966   1.54419
 Alpha virt. eigenvalues --    1.55357   1.55548   1.56219   1.57309   1.57641
 Alpha virt. eigenvalues --    1.58444   1.58609   1.59272   1.59846   1.60323
 Alpha virt. eigenvalues --    1.60414   1.61399   1.62363   1.62866   1.63154
 Alpha virt. eigenvalues --    1.63300   1.63500   1.64443   1.65091   1.65457
 Alpha virt. eigenvalues --    1.65750   1.66309   1.66685   1.67138   1.67784
 Alpha virt. eigenvalues --    1.68152   1.68349   1.68624   1.68924   1.69410
 Alpha virt. eigenvalues --    1.69471   1.70110   1.70354   1.71210   1.71284
 Alpha virt. eigenvalues --    1.71612   1.72107   1.72389   1.72923   1.73176
 Alpha virt. eigenvalues --    1.73589   1.73966   1.74232   1.74581   1.75169
 Alpha virt. eigenvalues --    1.75308   1.75462   1.76051   1.76550   1.76771
 Alpha virt. eigenvalues --    1.77138   1.77391   1.77709   1.78269   1.78452
 Alpha virt. eigenvalues --    1.79262   1.79381   1.79703   1.80209   1.80230
 Alpha virt. eigenvalues --    1.80892   1.81049   1.81188   1.82215   1.82701
 Alpha virt. eigenvalues --    1.83097   1.83414   1.83859   1.84195   1.85229
 Alpha virt. eigenvalues --    1.85316   1.85766   1.86156   1.86382   1.87137
 Alpha virt. eigenvalues --    1.87577   1.87922   1.88076   1.88526   1.88969
 Alpha virt. eigenvalues --    1.89167   1.89961   1.90342   1.90455   1.91042
 Alpha virt. eigenvalues --    1.91267   1.91789   1.91979   1.92286   1.92874
 Alpha virt. eigenvalues --    1.93501   1.93772   1.94288   1.94587   1.95025
 Alpha virt. eigenvalues --    1.95234   1.95929   1.96272   1.96503   1.96610
 Alpha virt. eigenvalues --    1.97657   1.97809   1.98676   1.98884   1.99708
 Alpha virt. eigenvalues --    1.99945   2.00563   2.02165   2.02535   2.02670
 Alpha virt. eigenvalues --    2.03163   2.04077   2.04576   2.05203   2.05904
 Alpha virt. eigenvalues --    2.06125   2.07159   2.07217   2.08067   2.08333
 Alpha virt. eigenvalues --    2.08996   2.09152   2.09500   2.10621   2.11422
 Alpha virt. eigenvalues --    2.12072   2.12240   2.12736   2.13312   2.14217
 Alpha virt. eigenvalues --    2.14678   2.15259   2.16249   2.16357   2.17840
 Alpha virt. eigenvalues --    2.18148   2.19049   2.19504   2.20703   2.22265
 Alpha virt. eigenvalues --    2.22360   2.23335   2.24139   2.24391   2.24987
 Alpha virt. eigenvalues --    2.25967   2.26179   2.26770   2.27530   2.28763
 Alpha virt. eigenvalues --    2.29256   2.29482   2.30122   2.30582   2.31164
 Alpha virt. eigenvalues --    2.31819   2.32238   2.33479   2.34282   2.35049
 Alpha virt. eigenvalues --    2.35309   2.36474   2.37664   2.38105   2.38876
 Alpha virt. eigenvalues --    2.39598   2.40063   2.40663   2.41747   2.41910
 Alpha virt. eigenvalues --    2.42289   2.42659   2.42749   2.43659   2.44300
 Alpha virt. eigenvalues --    2.44962   2.45156   2.46133   2.46234   2.47255
 Alpha virt. eigenvalues --    2.48949   2.50172   2.50452   2.50925   2.52257
 Alpha virt. eigenvalues --    2.53321   2.55773   2.55958   2.57067   2.58525
 Alpha virt. eigenvalues --    2.58904   2.59393   2.59668   2.60558   2.61192
 Alpha virt. eigenvalues --    2.61372   2.62179   2.63305   2.64114   2.64297
 Alpha virt. eigenvalues --    2.64532   2.64969   2.65751   2.66102   2.66463
 Alpha virt. eigenvalues --    2.66662   2.67134   2.67801   2.68208   2.69156
 Alpha virt. eigenvalues --    2.69273   2.69857   2.70262   2.70869   2.71356
 Alpha virt. eigenvalues --    2.71780   2.72405   2.72824   2.73256   2.73746
 Alpha virt. eigenvalues --    2.74645   2.75619   2.75672   2.75981   2.76161
 Alpha virt. eigenvalues --    2.76748   2.77247   2.77761   2.78019   2.79204
 Alpha virt. eigenvalues --    2.79940   2.80130   2.80892   2.81171   2.81601
 Alpha virt. eigenvalues --    2.82586   2.83047   2.83881   2.84057   2.84739
 Alpha virt. eigenvalues --    2.85930   2.86891   2.87216   2.88183   2.88768
 Alpha virt. eigenvalues --    2.89218   2.89723   2.90471   2.90872   2.91851
 Alpha virt. eigenvalues --    2.92076   2.93101   2.93873   2.94485   2.94889
 Alpha virt. eigenvalues --    2.95125   2.95334   2.96130   2.96785   2.97299
 Alpha virt. eigenvalues --    2.98146   2.98473   2.98744   2.99201   3.00370
 Alpha virt. eigenvalues --    3.00984   3.01302   3.02420   3.02618   3.03422
 Alpha virt. eigenvalues --    3.03574   3.04373   3.04760   3.05225   3.06304
 Alpha virt. eigenvalues --    3.07304   3.07770   3.08356   3.09520   3.09785
 Alpha virt. eigenvalues --    3.10258   3.10715   3.13416   3.14267   3.15017
 Alpha virt. eigenvalues --    3.15697   3.16525   3.17088   3.17778   3.18290
 Alpha virt. eigenvalues --    3.19987   3.21164   3.21639   3.22631   3.23674
 Alpha virt. eigenvalues --    3.24088   3.24791   3.25783   3.26719   3.27947
 Alpha virt. eigenvalues --    3.28498   3.29066   3.29544   3.29709   3.30460
 Alpha virt. eigenvalues --    3.31461   3.32090   3.34505   3.35342   3.36200
 Alpha virt. eigenvalues --    3.38018   3.39038   3.39646   3.39835   3.41216
 Alpha virt. eigenvalues --    3.41946   3.42626   3.43741   3.43826   3.44523
 Alpha virt. eigenvalues --    3.46236   3.46683   3.48057   3.48524   3.51152
 Alpha virt. eigenvalues --    3.52774   3.54425   3.56300   3.65343   3.68625
 Alpha virt. eigenvalues --    3.74057   3.76076   3.78856   3.82456   3.84091
 Alpha virt. eigenvalues --    3.87553   3.88504   3.88848   3.89799   3.90898
 Alpha virt. eigenvalues --    3.92024   3.92670   3.93011   3.93661   3.94135
 Alpha virt. eigenvalues --    3.96091   3.96262   3.96555   3.97748   3.98624
 Alpha virt. eigenvalues --    3.99542   4.00036   4.01298   4.02812   4.03822
 Alpha virt. eigenvalues --    4.04431   4.07720   4.08074   4.13188   4.14746
 Alpha virt. eigenvalues --    4.16803   4.17324   4.19287   4.19877   4.23054
 Alpha virt. eigenvalues --    4.25090   4.26155   4.27510   4.27801   4.29127
 Alpha virt. eigenvalues --    4.32011   4.32971   4.37780   4.39908   4.40699
 Alpha virt. eigenvalues --    4.41434   4.43413   4.45173   4.46860   4.47950
 Alpha virt. eigenvalues --    4.49991   4.54068   4.56501   4.81907   5.36617
 Alpha virt. eigenvalues --    5.40088   5.40906   5.48362   5.52365   5.60363
 Alpha virt. eigenvalues --    5.67038   5.69657   5.71388   5.73365   5.76989
 Alpha virt. eigenvalues --    5.78841   5.80104   5.82784   5.91085  14.94808
 Alpha virt. eigenvalues --   23.94362  23.99092  24.00346  24.01110  24.02486
 Alpha virt. eigenvalues --   24.02962  24.04623  24.04895  24.05520  24.10192
 Alpha virt. eigenvalues --   24.11086  24.11513  24.12301  24.12704  24.13636
 Alpha virt. eigenvalues --   24.14097  24.15352  24.16869  24.18613  24.19486
 Alpha virt. eigenvalues --   24.20568  24.23829  24.42799  50.14778  50.16020
 Alpha virt. eigenvalues --   50.16796  50.25489  50.26593
          Condensed to atoms (all electrons):
 Mulliken charges:
               1
     1  Li  -1.001736
     2  C    0.071434
     3  O    0.026236
     4  C   -0.492315
     5  H    0.219085
     6  C   -0.159050
     7  C   -0.471900
     8  H    0.218233
     9  H    0.242337
    10  H    0.213237
    11  H    0.187575
    12  H    0.241256
    13  H    0.218845
    14  C    0.026369
    15  O    0.203873
    16  C   -0.746516
    17  H    0.254713
    18  C   -0.136792
    19  C   -0.582386
    20  H    0.195835
    21  H    0.250731
    22  H    0.196289
    23  H    0.188537
    24  H    0.251218
    25  H    0.203537
    26  C    0.011825
    27  O    0.154280
    28  C   -0.524471
    29  H    0.104255
    30  C   -0.222833
    31  C   -0.440487
    32  H    0.080532
    33  H    0.252579
    34  H    0.261026
    35  H    0.232634
    36  H    0.205811
    37  H    0.240086
    38  O    0.020114
    39  H    0.207384
    40  H    0.136183
    41  H    0.241458
    42  C   -0.263595
    43  C    0.242576
    44  H    0.153165
    45  C   -0.811654
    46  H    0.148744
    47  H    0.202462
    48  H    0.172575
    49  C   -0.706948
    50  H    0.082886
    51  H    0.139173
    52  H    0.223994
    53  B    0.893747
    54  C   -0.667783
    55  H    0.127150
    56  H    0.148040
    57  H    0.172234
    58  O   -0.091542
    59  C   -0.346427
    60  C   -0.101417
    61  C   -0.967599
    62  H    0.175074
    63  H    0.181980
    64  H    0.187908
    65  C   -0.245173
    66  H    0.196300
    67  H   -0.269594
    68  H    0.233397
    69  C   -0.298600
    70  H    0.210216
    71  H    0.139925
    72  H    0.050875
    73  C   -0.655535
    74  H    0.129303
    75  H    0.257309
    76  H    0.177814
 Sum of Mulliken charges =  -0.00000
 Mulliken charges with hydrogens summed into heavy atoms:
               1
     1  Li  -1.001736
     2  C    0.426702
     3  O    0.026236
     4  C   -0.031744
     6  C    0.241762
     7  C   -0.011798
    14  C    0.488466
    15  O    0.203873
    16  C   -0.299951
    18  C    0.248034
    19  C   -0.127631
    26  C    0.357538
    27  O    0.154280
    28  C   -0.191359
    30  C    0.270826
    31  C    0.005410
    38  O    0.020114
    42  C   -0.263595
    43  C    0.395741
    45  C   -0.287873
    49  C   -0.260896
    53  B    0.893747
    54  C   -0.220360
    58  O   -0.091542
    59  C   -0.346427
    60  C   -0.101417
    61  C   -0.422637
    65  C   -0.085070
    69  C    0.102416
    73  C   -0.091109
 Electronic spatial extent (au):  <R**2>=          11268.5766
 Charge=              0.0000 electrons
 Dipole moment (field-independent basis, Debye):
    X=             15.1330    Y=              2.7511    Z=             -6.5185  Tot=             16.7054
 Quadrupole moment (field-independent basis, Debye-Ang):
   XX=           -197.5207   YY=           -171.7982   ZZ=           -182.8636
   XY=             -5.4431   XZ=             12.9089   YZ=              6.2657
 Traceless Quadrupole moment (field-independent basis, Debye-Ang):
   XX=            -13.4598   YY=             12.2626   ZZ=              1.1972
   XY=             -5.4431   XZ=             12.9089   YZ=              6.2657
 Octapole moment (field-independent basis, Debye-Ang**2):
  XXX=            229.0963  YYY=             40.9823  ZZZ=            -92.3859  XYY=             70.1759
  XXY=             14.9654  XXZ=            -43.1377  XZZ=             76.9456  YZZ=             -1.8027
  YYZ=            -12.6062  XYZ=              0.3556
 Hexadecapole moment (field-independent basis, Debye-Ang**3):
 XXXX=          -6857.4797 YYYY=          -5121.1449 ZZZZ=          -3635.7409 XXXY=            162.8743
 XXXZ=            280.5009 YYYX=            243.8334 YYYZ=           -130.2417 ZZZX=            152.6216
 ZZZY=           -151.8011 XXYY=          -1906.1912 XXZZ=          -1720.7558 YYZZ=          -1438.0243
 XXYZ=            -62.5970 YYXZ=             79.1757 ZZXY=             65.7834
 N-N= 3.485603882580D+03 E-N=-1.003193334997D+04  KE= 1.306749327473D+03
 Unable to Open any file for archive entry.
 1\1\GINC-NODE07\SP\RwB97XD\6-311++G(d,p)\C23H46B1Li1O5\WHUGHES2\08-Oct
 -2025\0\\# wb97xd/6-311++g** nosymm int=ultrafine scrf=(smd,solvent=te
 trahydrofuran)\\r1-li-3thf-c8_tzpop-sp\\0,1\Li,0,0.5326,0.0838,0.2129\
 C,0,1.09,2.2952,1.9357\O,0,1.4437,1.8591,0.6122\C,0,1.2002,3.831,1.935
 5\H,0,1.7768,1.8366,2.6579\C,0,2.1323,2.9134,-0.0528\C,0,1.4695,4.1823
 ,0.4636\H,0,2.0346,4.1542,2.5658\H,0,0.2897,4.3027,2.3148\H,0,3.2017,2
 .884,0.2081\H,0,2.0263,2.7573,-1.1289\H,0,2.1047,5.0647,0.3456\H,0,0.5
 312,4.3546,-0.0745\C,0,0.5814,-1.8374,-2.2686\O,0,1.0419,-0.6857,-1.54
 81\C,0,1.0556,-1.6299,-3.7003\H,0,-0.5031,-1.8975,-2.1603\C,0,2.0483,0
 .0089,-2.2989\C,0,2.3809,-0.893,-3.4832\H,0,0.3487,-0.9963,-4.2486\H,0
 ,1.1685,-2.5742,-4.2394\H,0,1.6296,0.9678,-2.6306\H,0,2.8987,0.2025,-1
 .6373\H,0,2.7077,-0.3215,-4.356\H,0,3.1727,-1.6026,-3.2169\C,0,2.0795,
 -2.3525,0.987\O,0,1.9795,-0.9552,1.2544\C,0,3.3458,-2.5051,0.1457\H,0,
 1.1599,-2.6621,0.4869\C,0,3.3061,-0.5055,1.5271\C,0,4.2332,-1.3307,0.6
 169\H,0,3.1092,-2.4049,-0.9171\H,0,3.8167,-3.4802,0.2982\H,0,3.3333,0.
 5666,1.3308\H,0,3.5293,-0.6845,2.5883\H,0,4.5844,-0.7375,-0.2324\H,0,5
 .1126,-1.6746,1.1687\O,0,-1.2863,0.5657,0.5173\H,0,1.0284,-2.7378,-1.8
 269\H,0,0.0785,1.927,2.1236\H,0,2.166,-2.897,1.9384\C,0,-1.6138,-1.817
 ,1.4284\C,0,-1.8505,-2.748,0.4864\H,0,-2.5171,-2.4607,-0.3285\C,0,-1.3
 459,-4.165,0.3801\H,0,-0.6373,-4.4398,1.1679\H,0,-2.1771,-4.8834,0.420
 6\H,0,-0.8466,-4.3272,-0.5863\C,0,-0.7689,-2.12,2.6497\H,0,-0.2778,-3.
 0993,2.6321\H,0,0.0122,-1.3622,2.791\H,0,-1.3928,-2.0874,3.5533\B,0,-2
 .2542,-0.2988,1.3243\C,0,-2.5254,0.3085,2.8295\H,0,-3.0246,1.287,2.803
 7\H,0,-3.1835,-0.3588,3.4105\H,0,-1.6061,0.433,3.4237\O,0,-3.4963,-0.2
 1,0.5061\C,0,-3.3246,0.5972,-0.6356\C,0,-2.0251,1.4319,-0.3327\C,0,-4.
 5739,1.4584,-0.8389\H,0,-4.4453,2.1644,-1.6697\H,0,-5.4286,0.8131,-1.0
 751\H,0,-4.8224,2.0231,0.0643\C,0,-3.161,-0.2994,-1.8727\H,0,-3.1403,0
 .2769,-2.806\H,0,-2.244,-0.8895,-1.8096\H,0,-4.0071,-0.9947,-1.9183\C,
 0,-2.3161,2.7538,0.3941\H,0,-2.7835,3.4846,-0.2768\H,0,-2.97,2.6165,1.
 2574\H,0,-1.3712,3.1788,0.7484\C,0,-1.1923,1.7572,-1.5729\H,0,-0.8314,
 0.8515,-2.0658\H,0,-1.7785,2.3398,-2.2938\H,0,-0.3207,2.3558,-1.286\\V
 ersion=AS64L-G16RevC.01\HF=-1312.8004173\RMSD=3.260e-09\Dipole=5.95379
 95,1.0823756,-2.5645772\Quadrupole=-10.0070656,9.1169573,0.8901082,-4.
 0468246,9.5974454,4.6584184\PG=C01 [X(C23H46B1Li1O5)]\\@
 The archive entry for this job was punched.


 SUCCESS IS NEVER CERTAIN,
 FAILURE IS NEVER FINAL.
 Job cpu time:       0 days  4 hours 45 minutes  2.1 seconds.
 Elapsed time:       0 days  1 hours 11 minutes 54.5 seconds.
 File lengths (MBytes):  RWF=    830 Int=      0 D2E=      0 Chk=     59 Scr=      1
 Normal termination of Gaussian 16 at Wed Oct  8 17:08:57 2025.
