Job Start Time: Wed Oct  8 15:58:52 MDT 2025
SLURM Job ID: 768205
SLURM Job Name: r1-phosphine-2thf-full-c12_tzpop-sp
 Entering Gaussian System, Link 0=/opt/apps/Gaussian/G16C/g16/g16
 Initial command:
 /opt/apps/Gaussian/G16C/g16/l1.exe "/tmp/768205/Gau-1336834.inp" -scrdir="/tmp/768205/"
 Entering Link 1 = /opt/apps/Gaussian/G16C/g16/l1.exe PID=   1336839.
  
 Copyright (c) 1988-2019, Gaussian, Inc.  All Rights Reserved.
  
 This is part of the Gaussian(R) 16 program.  It is based on
 the Gaussian(R) 09 system (copyright 2009, Gaussian, Inc.),
 the Gaussian(R) 03 system (copyright 2003, Gaussian, Inc.),
 the Gaussian(R) 98 system (copyright 1998, Gaussian, Inc.),
 the Gaussian(R) 94 system (copyright 1995, Gaussian, Inc.),
 the Gaussian 92(TM) system (copyright 1992, Gaussian, Inc.),
 the Gaussian 90(TM) system (copyright 1990, Gaussian, Inc.),
 the Gaussian 88(TM) system (copyright 1988, Gaussian, Inc.),
 the Gaussian 86(TM) system (copyright 1986, Carnegie Mellon
 University), and the Gaussian 82(TM) system (copyright 1983,
 Carnegie Mellon University). Gaussian is a federally registered
 trademark of Gaussian, Inc.
  
 This software contains proprietary and confidential information,
 including trade secrets, belonging to Gaussian, Inc.
  
 This software is provided under written license and may be
 used, copied, transmitted, or stored only in accord with that
 written license.
  
 The following legend is applicable only to US Government
 contracts under FAR:
  
                    RESTRICTED RIGHTS LEGEND
  
 Use, reproduction and disclosure by the US Government is
 subject to restrictions as set forth in subparagraphs (a)
 and (c) of the Commercial Computer Software - Restricted
 Rights clause in FAR 52.227-19.
  
 Gaussian, Inc.
 340 Quinnipiac St., Bldg. 40, Wallingford CT 06492
  
  
 ---------------------------------------------------------------
 Warning -- This program may not be used in any manner that
 competes with the business of Gaussian, Inc. or will provide
 assistance to any competitor of Gaussian, Inc.  The licensee
 of this program is prohibited from giving any competitor of
 Gaussian, Inc. access to this program.  By using this program,
 the user acknowledges that Gaussian, Inc. is engaged in the
 business of creating and licensing software in the field of
 computational chemistry and represents and warrants to the
 licensee that it is not a competitor of Gaussian, Inc. and that
 it will not use this program in any manner prohibited above.
 ---------------------------------------------------------------
  

 Cite this work as:
 Gaussian 16, Revision C.01,
 M. J. Frisch, G. W. Trucks, H. B. Schlegel, G. E. Scuseria, 
 M. A. Robb, J. R. Cheeseman, G. Scalmani, V. Barone, 
 G. A. Petersson, H. Nakatsuji, X. Li, M. Caricato, A. V. Marenich, 
 J. Bloino, B. G. Janesko, R. Gomperts, B. Mennucci, H. P. Hratchian, 
 J. V. Ortiz, A. F. Izmaylov, J. L. Sonnenberg, D. Williams-Young, 
 F. Ding, F. Lipparini, F. Egidi, J. Goings, B. Peng, A. Petrone, 
 T. Henderson, D. Ranasinghe, V. G. Zakrzewski, J. Gao, N. Rega, 
 G. Zheng, W. Liang, M. Hada, M. Ehara, K. Toyota, R. Fukuda, 
 J. Hasegawa, M. Ishida, T. Nakajima, Y. Honda, O. Kitao, H. Nakai, 
 T. Vreven, K. Throssell, J. A. Montgomery, Jr., J. E. Peralta, 
 F. Ogliaro, M. J. Bearpark, J. J. Heyd, E. N. Brothers, K. N. Kudin, 
 V. N. Staroverov, T. A. Keith, R. Kobayashi, J. Normand, 
 K. Raghavachari, A. P. Rendell, J. C. Burant, S. S. Iyengar, 
 J. Tomasi, M. Cossi, J. M. Millam, M. Klene, C. Adamo, R. Cammi, 
 J. W. Ochterski, R. L. Martin, K. Morokuma, O. Farkas, 
 J. B. Foresman, and D. J. Fox, Gaussian, Inc., Wallingford CT, 2019.
 
 ******************************************
 Gaussian 16:  AS64L-G16RevC.01  3-Jul-2019
                 8-Oct-2025 
 ******************************************
 %chk=r1-phosphine-2thf-full-c12_tzpop-sp.chk
 %nprocshared=4
 Will use up to    4 processors via shared memory.
 %mem=8GB
 ----------------------------------------------------------------------
 # wb97xd/6-311++g** nosymm int=ultrafine scrf=(smd,solvent=tetrahydrof
 uran)
 ----------------------------------------------------------------------
 1/38=1,172=1/1;
 2/12=2,15=1,17=6,18=5,40=1/2;
 3/5=4,6=6,7=1111,11=2,25=1,30=1,70=32201,72=20,74=-58,75=-5/1,2,3;
 4//1;
 5/5=2,38=5,53=20/2;
 6/7=2,8=2,9=2,10=2,28=1/1;
 99/5=1,9=1/99;
 -----------------------------------
 r1-phosphine-2thf-full-c12_tzpop-sp
 -----------------------------------
 Symbolic Z-matrix:
 Charge =  0 Multiplicity = 1
 C                    -3.2881   -0.0212    2.7207 
 C                    -4.527    -0.2325    3.1975 
 H                    -5.2875   -0.5281    2.4699 
 C                    -5.0277   -0.1279    4.6161 
 H                    -4.254     0.1892    5.3234 
 H                    -5.8524    0.5953    4.6889 
 H                    -5.4285   -1.0894    4.9691 
 C                    -2.1394    0.3803    3.6238 
 H                    -1.2001   -0.0321    3.2366 
 H                    -2.0148    1.4732    3.6479 
 H                    -2.2461    0.0456    4.6635 
 B                    -2.9668   -0.0745    1.1084 
 C                    -2.8887    1.4696    0.5677 
 H                    -2.3664    1.6194   -0.3855 
 H                    -3.9181    1.8311    0.4199 
 H                    -2.4237    2.153     1.2912 
 O                    -1.6774   -0.8385    0.8005 
 O                    -3.9632   -0.873     0.3528 
 C                    -3.4871   -2.1771    0.0951 
 C                    -2.0269   -2.2186    0.7153 
 C                    -3.4825   -2.3758   -1.4276 
 H                    -2.7663   -1.7055   -1.9101 
 H                    -3.2397   -3.4063   -1.7146 
 H                    -4.4813   -2.1402   -1.813 
 C                    -4.437    -3.2086    0.7125 
 H                    -4.0732   -4.2341    0.5667 
 H                    -4.5726   -3.0345    1.7836 
 H                    -5.42     -3.1282    0.2328 
 C                    -1.0143   -2.9624   -0.1557 
 H                    -0.8859   -2.5029   -1.1376 
 H                    -0.0343   -2.9683    0.3341 
 H                    -1.3295   -4.0037   -0.2951 
 C                    -1.957    -2.8477    2.1167 
 H                    -0.9463   -2.7005    2.5161 
 H                    -2.6646   -2.3936    2.8121 
 H                    -2.1492   -3.9263    2.0796 
 P                     2.4139   -0.6367   -0.6857 
 O                     1.0026   -0.8553   -1.1448 
 O                     3.4141   -1.7784   -1.3143 
 N                     2.9819   -3.1325   -1.1151 
 H                     2.9975   -3.2905   -0.1047 
 H                     2.0021   -3.1652   -1.4059 
 Li                   -0.6599    0.0612   -0.5705 
 C                     0.4436    2.2706    1.345 
 O                     0.3384    1.7556    0.0101 
 C                     0.3191    2.8327   -0.941 
 C                     0.6603    4.0939   -0.1537 
 C                     0.1266    3.7566    1.2415 
 H                    -0.2471    1.7105    1.9789 
 H                     1.468     2.1054    1.7051 
 H                     1.0376    2.6032   -1.7337 
 H                    -0.6857    2.889    -1.3772 
 H                     1.7447    4.2448   -0.1222 
 H                     0.1992    4.9849   -0.5888 
 H                     0.6027    4.3355    2.0379 
 H                    -0.9551    3.9226    1.2881 
 C                    -0.6007    0.4675   -3.5514 
 O                    -1.4144    0.4574   -2.3805 
 C                    -2.7371    0.7945   -2.8106 
 C                    -2.8991    0.1482   -4.1979 
 C                    -1.4563   -0.2273   -4.6083 
 H                    -0.3825    1.5094   -3.8325 
 H                     0.329    -0.0453   -3.3053 
 H                    -3.4328    0.4239   -2.0562 
 H                    -2.8214    1.889    -2.8674 
 H                    -3.5384   -0.7377   -4.1477 
 H                    -3.3552    0.8512   -4.9008 
 H                    -1.3083   -1.3104   -4.5523 
 H                    -1.2026    0.0994   -5.6208 
 C                     2.6088   -0.7748    1.0991 
 C                     1.4815   -0.8686    1.9215 
 C                     3.8937   -0.8303    1.6565 
 C                     1.6444   -1.0117    3.2982 
 H                     0.4784   -0.8345    1.4999 
 C                     4.0481   -0.9669    3.0322 
 H                     4.7721   -0.7682    1.0187 
 C                     2.9222   -1.0579    3.8524 
 H                     0.7697   -1.0879    3.9379 
 H                     5.0442   -1.008     3.4632 
 H                     3.0431   -1.1688    4.9264 
 C                     3.2125    0.8465   -1.3169 
 C                     3.2982    1.0059   -2.7062 
 C                     3.6689    1.8584   -0.4689 
 C                     3.8401    2.1712   -3.2388 
 H                     2.9417    0.2249   -3.3724 
 C                     4.2143    3.0215   -1.0076 
 H                     3.5925    1.7528    0.6093 
 C                     4.2976    3.1796   -2.3894 
 H                     3.9055    2.2928   -4.3161 
 H                     4.5669    3.807    -0.3454 
 H                     4.7197    4.0895   -2.8068 
 
 Symmetry turned off by external request.
 Stoichiometry    C31H50BLiNO6P
 Framework group  C1[X(C31H50BLiNO6P)]
 Deg. of freedom   267
 Full point group                 C1      NOp   1
                          Input orientation:                          
 ---------------------------------------------------------------------
 Center     Atomic      Atomic             Coordinates (Angstroms)
 Number     Number       Type             X           Y           Z
 ---------------------------------------------------------------------
      1          6           0       -3.288100   -0.021200    2.720700
      2          6           0       -4.527000   -0.232500    3.197500
      3          1           0       -5.287500   -0.528100    2.469900
      4          6           0       -5.027700   -0.127900    4.616100
      5          1           0       -4.254000    0.189200    5.323400
      6          1           0       -5.852400    0.595300    4.688900
      7          1           0       -5.428500   -1.089400    4.969100
      8          6           0       -2.139400    0.380300    3.623800
      9          1           0       -1.200100   -0.032100    3.236600
     10          1           0       -2.014800    1.473200    3.647900
     11          1           0       -2.246100    0.045600    4.663500
     12          5           0       -2.966800   -0.074500    1.108400
     13          6           0       -2.888700    1.469600    0.567700
     14          1           0       -2.366400    1.619400   -0.385500
     15          1           0       -3.918100    1.831100    0.419900
     16          1           0       -2.423700    2.153000    1.291200
     17          8           0       -1.677400   -0.838500    0.800500
     18          8           0       -3.963200   -0.873000    0.352800
     19          6           0       -3.487100   -2.177100    0.095100
     20          6           0       -2.026900   -2.218600    0.715300
     21          6           0       -3.482500   -2.375800   -1.427600
     22          1           0       -2.766300   -1.705500   -1.910100
     23          1           0       -3.239700   -3.406300   -1.714600
     24          1           0       -4.481300   -2.140200   -1.813000
     25          6           0       -4.437000   -3.208600    0.712500
     26          1           0       -4.073200   -4.234100    0.566700
     27          1           0       -4.572600   -3.034500    1.783600
     28          1           0       -5.420000   -3.128200    0.232800
     29          6           0       -1.014300   -2.962400   -0.155700
     30          1           0       -0.885900   -2.502900   -1.137600
     31          1           0       -0.034300   -2.968300    0.334100
     32          1           0       -1.329500   -4.003700   -0.295100
     33          6           0       -1.957000   -2.847700    2.116700
     34          1           0       -0.946300   -2.700500    2.516100
     35          1           0       -2.664600   -2.393600    2.812100
     36          1           0       -2.149200   -3.926300    2.079600
     37         15           0        2.413900   -0.636700   -0.685700
     38          8           0        1.002600   -0.855300   -1.144800
     39          8           0        3.414100   -1.778400   -1.314300
     40          7           0        2.981900   -3.132500   -1.115100
     41          1           0        2.997500   -3.290500   -0.104700
     42          1           0        2.002100   -3.165200   -1.405900
     43          3           0       -0.659900    0.061200   -0.570500
     44          6           0        0.443600    2.270600    1.345000
     45          8           0        0.338400    1.755600    0.010100
     46          6           0        0.319100    2.832700   -0.941000
     47          6           0        0.660300    4.093900   -0.153700
     48          6           0        0.126600    3.756600    1.241500
     49          1           0       -0.247100    1.710500    1.978900
     50          1           0        1.468000    2.105400    1.705100
     51          1           0        1.037600    2.603200   -1.733700
     52          1           0       -0.685700    2.889000   -1.377200
     53          1           0        1.744700    4.244800   -0.122200
     54          1           0        0.199200    4.984900   -0.588800
     55          1           0        0.602700    4.335500    2.037900
     56          1           0       -0.955100    3.922600    1.288100
     57          6           0       -0.600700    0.467500   -3.551400
     58          8           0       -1.414400    0.457400   -2.380500
     59          6           0       -2.737100    0.794500   -2.810600
     60          6           0       -2.899100    0.148200   -4.197900
     61          6           0       -1.456300   -0.227300   -4.608300
     62          1           0       -0.382500    1.509400   -3.832500
     63          1           0        0.329000   -0.045300   -3.305300
     64          1           0       -3.432800    0.423900   -2.056200
     65          1           0       -2.821400    1.889000   -2.867400
     66          1           0       -3.538400   -0.737700   -4.147700
     67          1           0       -3.355200    0.851200   -4.900800
     68          1           0       -1.308300   -1.310400   -4.552300
     69          1           0       -1.202600    0.099400   -5.620800
     70          6           0        2.608800   -0.774800    1.099100
     71          6           0        1.481500   -0.868600    1.921500
     72          6           0        3.893700   -0.830300    1.656500
     73          6           0        1.644400   -1.011700    3.298200
     74          1           0        0.478400   -0.834500    1.499900
     75          6           0        4.048100   -0.966900    3.032200
     76          1           0        4.772100   -0.768200    1.018700
     77          6           0        2.922200   -1.057900    3.852400
     78          1           0        0.769700   -1.087900    3.937900
     79          1           0        5.044200   -1.008000    3.463200
     80          1           0        3.043100   -1.168800    4.926400
     81          6           0        3.212500    0.846500   -1.316900
     82          6           0        3.298200    1.005900   -2.706200
     83          6           0        3.668900    1.858400   -0.468900
     84          6           0        3.840100    2.171200   -3.238800
     85          1           0        2.941700    0.224900   -3.372400
     86          6           0        4.214300    3.021500   -1.007600
     87          1           0        3.592500    1.752800    0.609300
     88          6           0        4.297600    3.179600   -2.389400
     89          1           0        3.905500    2.292800   -4.316100
     90          1           0        4.566900    3.807000   -0.345400
     91          1           0        4.719700    4.089500   -2.806800
 ---------------------------------------------------------------------
 Rotational constants (GHZ):           0.1113703           0.0719913           0.0633616
 Standard basis: 6-311++G(d,p) (5D, 7F)
  1260 basis functions,  1940 primitive gaussians,  1301 cartesian basis functions
   157 alpha electrons      157 beta electrons
       nuclear repulsion energy      5728.2256394359 Hartrees.
 NAtoms=   91 NActive=   91 NUniq=   91 SFac= 1.00D+00 NAtFMM=   60 NAOKFM=T Big=T
 Integral buffers will be    131072 words long.
 Raffenetti 2 integral format.
 Two-electron integral symmetry is turned off.
 Nuclear repulsion after empirical dispersion term =     5728.1055047401 Hartrees.
 ------------------------------------------------------------------------------
 Polarizable Continuum Model (PCM)
 =================================
 Model                : PCM.
 Atomic radii         : SMD-Coulomb.
 Polarization charges : Total charges.
 Charge compensation  : None.
 Solution method      : On-the-fly selection.
 Cavity type          : VdW (van der Waals Surface) (Alpha=1.000).
 Cavity algorithm     : GePol (No added spheres)
                        Default sphere list used, NSphG=   91.
                        Lebedev-Laikov grids with approx.  5.0 points / Ang**2.
                        Smoothing algorithm: York/Karplus (Gamma=1.0000).
                        Polarization charges: spherical gaussians, with
                                              point-specific exponents (IZeta= 3).
                        Self-potential: point-specific (ISelfS= 7).
                        Self-field    : sphere-specific E.n sum rule (ISelfD= 2).
 Solvent              : TetraHydroFuran, Eps=   7.425700 Eps(inf)=   1.974025
 ------------------------------------------------------------------------------
 ------------------------------------------------------------------------------
 Atomic radii for non-electrostatic terms: SMD-CDS.
 ------------------------------------------------------------------------------
 Nuclear repulsion after PCM non-electrostatic terms =     5728.0981730422 Hartrees.
 One-electron integrals computed using PRISM.
 NBasis=  1260 RedAO= T EigKep=  1.14D-06  NBF=  1260
 NBsUse=  1249 1.00D-06 EigRej=  9.05D-07 NBFU=  1249
 ExpMin= 7.40D-03 ExpMax= 7.75D+04 ExpMxC= 2.65D+03 IAcc=3 IRadAn=         5 AccDes= 0.00D+00
 Harris functional with IExCor= 4639 and IRadAn=       5 diagonalized for initial guess.
 HarFok:  IExCor= 4639 AccDes= 0.00D+00 IRadAn=         5 IDoV= 1 UseB2=F ITyADJ=14
 ICtDFT=  3500011 ScaDFX=  1.000000  1.000000  1.000000  1.000000
 FoFCou: FMM=F IPFlag=           0 FMFlag=      100000 FMFlg1=        2001
         NFxFlg=           0 DoJE=T BraDBF=F KetDBF=T FulRan=T
         wScrn=  0.000000 ICntrl=       500 IOpCl=  0 I1Cent=   200000004 NGrid=           0
         NMat0=    1 NMatS0=      1 NMatT0=    0 NMatD0=    1 NMtDS0=    0 NMtDT0=    0
 Symmetry not used in FoFCou.
 Requested convergence on RMS density matrix=1.00D-08 within 128 cycles.
 Requested convergence on MAX density matrix=1.00D-06.
 Requested convergence on             energy=1.00D-06.
 No special actions if energy rises.
 Inv3:  Mode=1 IEnd=    90981147.
 Iteration    1 A*A^-1 deviation from unit magnitude is 7.22D-15 for   5502.
 Iteration    1 A*A^-1 deviation from orthogonality  is 4.74D-15 for   5500   4413.
 Iteration    1 A^-1*A deviation from unit magnitude is 7.22D-15 for   5502.
 Iteration    1 A^-1*A deviation from orthogonality  is 2.89D-13 for   4505   4462.
 Error on total polarization charges =  0.07569
 SCF Done:  E(RwB97XD) =  -2091.38297268     A.U. after   17 cycles
            NFock= 17  Conv=0.21D-08     -V/T= 2.0040
 SMD-CDS (non-electrostatic) energy       (kcal/mol) =      -4.60
 (included in total energy above)

 **********************************************************************

            Population analysis using the SCF Density.

 **********************************************************************

 Alpha  occ. eigenvalues --  -77.31964 -19.30308 -19.25971 -19.25507 -19.21919
 Alpha  occ. eigenvalues --  -19.19700 -19.17217 -14.48558 -10.32230 -10.32157
 Alpha  occ. eigenvalues --  -10.32080 -10.31912 -10.31680 -10.31431 -10.31203
 Alpha  occ. eigenvalues --  -10.30987 -10.30916 -10.30894 -10.30881 -10.30379
 Alpha  occ. eigenvalues --  -10.30355 -10.30319 -10.30087 -10.30067 -10.30024
 Alpha  occ. eigenvalues --  -10.29794 -10.27757 -10.27655 -10.27572 -10.27462
 Alpha  occ. eigenvalues --  -10.25364 -10.25159 -10.24832 -10.24682 -10.24667
 Alpha  occ. eigenvalues --  -10.24589 -10.23897 -10.22408 -10.20997  -6.80178
 Alpha  occ. eigenvalues --   -6.76454  -4.91315  -4.91049  -4.91008  -1.99335
 Alpha  occ. eigenvalues --   -1.19644  -1.15077  -1.14327  -1.09930  -1.08931
 Alpha  occ. eigenvalues --   -1.03305  -0.97881  -0.97386  -0.92792  -0.88244
 Alpha  occ. eigenvalues --   -0.87524  -0.87431  -0.87210  -0.86367  -0.86174
 Alpha  occ. eigenvalues --   -0.86016  -0.85958  -0.83636  -0.83313  -0.81650
 Alpha  occ. eigenvalues --   -0.79211  -0.77855  -0.75201  -0.74966  -0.74776
 Alpha  occ. eigenvalues --   -0.71788  -0.71728  -0.71321  -0.70798  -0.69042
 Alpha  occ. eigenvalues --   -0.68783  -0.68253  -0.68106  -0.67799  -0.67499
 Alpha  occ. eigenvalues --   -0.63142  -0.62712  -0.60857  -0.60166  -0.60011
 Alpha  occ. eigenvalues --   -0.59443  -0.59217  -0.58839  -0.58339  -0.57848
 Alpha  occ. eigenvalues --   -0.57011  -0.56306  -0.55844  -0.55100  -0.54332
 Alpha  occ. eigenvalues --   -0.54036  -0.53774  -0.53616  -0.53150  -0.52278
 Alpha  occ. eigenvalues --   -0.52163  -0.52017  -0.51682  -0.51395  -0.51048
 Alpha  occ. eigenvalues --   -0.50245  -0.50066  -0.49248  -0.48895  -0.48789
 Alpha  occ. eigenvalues --   -0.48196  -0.48029  -0.47532  -0.47412  -0.47068
 Alpha  occ. eigenvalues --   -0.46534  -0.46340  -0.46076  -0.45789  -0.45438
 Alpha  occ. eigenvalues --   -0.45291  -0.44759  -0.44473  -0.44295  -0.43955
 Alpha  occ. eigenvalues --   -0.43934  -0.43805  -0.43639  -0.43318  -0.42890
 Alpha  occ. eigenvalues --   -0.42695  -0.42531  -0.42206  -0.41886  -0.41546
 Alpha  occ. eigenvalues --   -0.41376  -0.41265  -0.40647  -0.40504  -0.40050
 Alpha  occ. eigenvalues --   -0.39817  -0.39659  -0.38291  -0.37355  -0.37151
 Alpha  occ. eigenvalues --   -0.36347  -0.35975  -0.35206  -0.35109  -0.34862
 Alpha  occ. eigenvalues --   -0.34569  -0.34490  -0.34013  -0.33504  -0.30947
 Alpha  occ. eigenvalues --   -0.27857  -0.27321
 Alpha virt. eigenvalues --    0.01513   0.02147   0.02374   0.02544   0.02587
 Alpha virt. eigenvalues --    0.02773   0.03765   0.04626   0.05348   0.05519
 Alpha virt. eigenvalues --    0.05754   0.06017   0.06154   0.06827   0.06924
 Alpha virt. eigenvalues --    0.06997   0.07241   0.07437   0.07584   0.07667
 Alpha virt. eigenvalues --    0.07757   0.07819   0.08044   0.08191   0.08725
 Alpha virt. eigenvalues --    0.08865   0.09096   0.09287   0.09504   0.09798
 Alpha virt. eigenvalues --    0.10080   0.10254   0.10526   0.10667   0.11049
 Alpha virt. eigenvalues --    0.11247   0.11394   0.11783   0.12116   0.12163
 Alpha virt. eigenvalues --    0.12418   0.12459   0.12985   0.13151   0.13323
 Alpha virt. eigenvalues --    0.13423   0.13548   0.13774   0.13978   0.14182
 Alpha virt. eigenvalues --    0.14356   0.14461   0.14979   0.15052   0.15141
 Alpha virt. eigenvalues --    0.15357   0.15451   0.15715   0.15791   0.16100
 Alpha virt. eigenvalues --    0.16177   0.16384   0.16420   0.16515   0.16813
 Alpha virt. eigenvalues --    0.16993   0.17145   0.17279   0.17458   0.17556
 Alpha virt. eigenvalues --    0.17672   0.17784   0.17891   0.18036   0.18231
 Alpha virt. eigenvalues --    0.18329   0.18444   0.18616   0.18710   0.18916
 Alpha virt. eigenvalues --    0.19076   0.19224   0.19427   0.19457   0.19725
 Alpha virt. eigenvalues --    0.19804   0.19881   0.19905   0.20211   0.20311
 Alpha virt. eigenvalues --    0.20445   0.20540   0.20792   0.20844   0.20930
 Alpha virt. eigenvalues --    0.21042   0.21305   0.21335   0.21390   0.21556
 Alpha virt. eigenvalues --    0.21748   0.21900   0.21956   0.22015   0.22144
 Alpha virt. eigenvalues --    0.22294   0.22429   0.22610   0.22785   0.22799
 Alpha virt. eigenvalues --    0.22931   0.23067   0.23220   0.23363   0.23569
 Alpha virt. eigenvalues --    0.23773   0.23970   0.24011   0.24156   0.24228
 Alpha virt. eigenvalues --    0.24325   0.24469   0.24509   0.24668   0.24858
 Alpha virt. eigenvalues --    0.25001   0.25135   0.25343   0.25408   0.25529
 Alpha virt. eigenvalues --    0.25646   0.25870   0.26012   0.26075   0.26212
 Alpha virt. eigenvalues --    0.26408   0.26567   0.26663   0.26866   0.27022
 Alpha virt. eigenvalues --    0.27081   0.27165   0.27450   0.27551   0.27737
 Alpha virt. eigenvalues --    0.27848   0.27995   0.28012   0.28265   0.28365
 Alpha virt. eigenvalues --    0.28515   0.28582   0.28839   0.29058   0.29275
 Alpha virt. eigenvalues --    0.29346   0.29504   0.29667   0.29892   0.30059
 Alpha virt. eigenvalues --    0.30136   0.30339   0.30542   0.30637   0.30830
 Alpha virt. eigenvalues --    0.30904   0.31127   0.31398   0.31513   0.31673
 Alpha virt. eigenvalues --    0.31853   0.31989   0.32156   0.32251   0.32360
 Alpha virt. eigenvalues --    0.32540   0.32797   0.32942   0.33037   0.33329
 Alpha virt. eigenvalues --    0.33420   0.33564   0.33831   0.33977   0.34134
 Alpha virt. eigenvalues --    0.34163   0.34412   0.34522   0.34621   0.34694
 Alpha virt. eigenvalues --    0.34945   0.35064   0.35266   0.35302   0.35463
 Alpha virt. eigenvalues --    0.35676   0.36001   0.36204   0.36260   0.36556
 Alpha virt. eigenvalues --    0.36646   0.36978   0.37061   0.37201   0.37373
 Alpha virt. eigenvalues --    0.37528   0.37643   0.37750   0.37848   0.37968
 Alpha virt. eigenvalues --    0.38212   0.38298   0.38501   0.38801   0.38948
 Alpha virt. eigenvalues --    0.38989   0.39102   0.39307   0.39604   0.39669
 Alpha virt. eigenvalues --    0.39825   0.40064   0.40151   0.40310   0.40690
 Alpha virt. eigenvalues --    0.40969   0.41106   0.41159   0.41345   0.41375
 Alpha virt. eigenvalues --    0.41944   0.41985   0.42121   0.42351   0.42632
 Alpha virt. eigenvalues --    0.42673   0.42799   0.43057   0.43123   0.43402
 Alpha virt. eigenvalues --    0.43594   0.43769   0.43789   0.43995   0.44311
 Alpha virt. eigenvalues --    0.44541   0.44680   0.44888   0.44982   0.45231
 Alpha virt. eigenvalues --    0.45432   0.45713   0.45878   0.45986   0.46363
 Alpha virt. eigenvalues --    0.46494   0.47027   0.47165   0.47228   0.47341
 Alpha virt. eigenvalues --    0.47420   0.47529   0.47691   0.48300   0.48536
 Alpha virt. eigenvalues --    0.48801   0.49030   0.49246   0.49536   0.49721
 Alpha virt. eigenvalues --    0.50038   0.50279   0.50376   0.50633   0.51162
 Alpha virt. eigenvalues --    0.51382   0.51459   0.52084   0.52302   0.52467
 Alpha virt. eigenvalues --    0.52910   0.53244   0.53892   0.54342   0.54989
 Alpha virt. eigenvalues --    0.55303   0.55556   0.55799   0.56165   0.56536
 Alpha virt. eigenvalues --    0.56687   0.57128   0.57581   0.57861   0.58329
 Alpha virt. eigenvalues --    0.58595   0.58829   0.59423   0.59455   0.59924
 Alpha virt. eigenvalues --    0.60186   0.60337   0.60891   0.61348   0.62042
 Alpha virt. eigenvalues --    0.62414   0.62590   0.62842   0.63195   0.63405
 Alpha virt. eigenvalues --    0.63633   0.63792   0.64029   0.64350   0.64782
 Alpha virt. eigenvalues --    0.65219   0.65603   0.65639   0.65845   0.66071
 Alpha virt. eigenvalues --    0.66247   0.66276   0.66988   0.67437   0.67567
 Alpha virt. eigenvalues --    0.67747   0.68233   0.68503   0.68872   0.69233
 Alpha virt. eigenvalues --    0.69460   0.69866   0.69898   0.70073   0.70218
 Alpha virt. eigenvalues --    0.70631   0.71139   0.71237   0.71820   0.71848
 Alpha virt. eigenvalues --    0.72318   0.72552   0.72791   0.73159   0.73345
 Alpha virt. eigenvalues --    0.73705   0.73929   0.74261   0.74567   0.74707
 Alpha virt. eigenvalues --    0.74848   0.75203   0.75362   0.75818   0.76093
 Alpha virt. eigenvalues --    0.76325   0.76718   0.76871   0.77049   0.77260
 Alpha virt. eigenvalues --    0.77322   0.77668   0.77975   0.78477   0.78735
 Alpha virt. eigenvalues --    0.79265   0.79373   0.79539   0.79811   0.80033
 Alpha virt. eigenvalues --    0.80399   0.80686   0.80828   0.81147   0.81322
 Alpha virt. eigenvalues --    0.81790   0.81860   0.82141   0.82371   0.82915
 Alpha virt. eigenvalues --    0.83082   0.83303   0.83377   0.83579   0.83752
 Alpha virt. eigenvalues --    0.83976   0.84187   0.84484   0.84606   0.84908
 Alpha virt. eigenvalues --    0.85358   0.85431   0.85640   0.85676   0.86118
 Alpha virt. eigenvalues --    0.86280   0.86470   0.86684   0.86877   0.87192
 Alpha virt. eigenvalues --    0.87406   0.87684   0.87886   0.88118   0.88283
 Alpha virt. eigenvalues --    0.88292   0.88508   0.88643   0.88913   0.89289
 Alpha virt. eigenvalues --    0.89666   0.89802   0.89982   0.90138   0.90487
 Alpha virt. eigenvalues --    0.90657   0.91075   0.91295   0.91612   0.91917
 Alpha virt. eigenvalues --    0.91985   0.92204   0.92542   0.92642   0.93043
 Alpha virt. eigenvalues --    0.93351   0.93742   0.93837   0.94219   0.94550
 Alpha virt. eigenvalues --    0.94747   0.95091   0.95354   0.96075   0.96436
 Alpha virt. eigenvalues --    0.96617   0.96782   0.97196   0.97332   0.97653
 Alpha virt. eigenvalues --    0.98357   0.98472   0.98772   0.98935   0.99308
 Alpha virt. eigenvalues --    0.99848   1.00134   1.00249   1.00649   1.00860
 Alpha virt. eigenvalues --    1.01246   1.01509   1.01791   1.02056   1.02324
 Alpha virt. eigenvalues --    1.02415   1.03626   1.04176   1.04726   1.05071
 Alpha virt. eigenvalues --    1.05252   1.05860   1.06001   1.06482   1.07059
 Alpha virt. eigenvalues --    1.07286   1.07914   1.08687   1.09106   1.09754
 Alpha virt. eigenvalues --    1.10110   1.10253   1.11013   1.11358   1.11734
 Alpha virt. eigenvalues --    1.12316   1.12555   1.12915   1.13761   1.14020
 Alpha virt. eigenvalues --    1.14562   1.15206   1.15630   1.15951   1.16695
 Alpha virt. eigenvalues --    1.17175   1.17578   1.17731   1.18271   1.18427
 Alpha virt. eigenvalues --    1.19180   1.19488   1.20004   1.20536   1.21206
 Alpha virt. eigenvalues --    1.21748   1.22224   1.22893   1.23545   1.23821
 Alpha virt. eigenvalues --    1.24429   1.24511   1.25203   1.25542   1.25860
 Alpha virt. eigenvalues --    1.26145   1.26958   1.27439   1.28155   1.28524
 Alpha virt. eigenvalues --    1.28755   1.29596   1.30098   1.30818   1.31148
 Alpha virt. eigenvalues --    1.31361   1.31741   1.33198   1.33749   1.34342
 Alpha virt. eigenvalues --    1.34939   1.35506   1.35843   1.36136   1.36994
 Alpha virt. eigenvalues --    1.37582   1.38801   1.39089   1.39535   1.40228
 Alpha virt. eigenvalues --    1.40393   1.41025   1.41320   1.42225   1.43030
 Alpha virt. eigenvalues --    1.43363   1.44045   1.44382   1.44690   1.45362
 Alpha virt. eigenvalues --    1.46420   1.47522   1.48001   1.48437   1.49263
 Alpha virt. eigenvalues --    1.49381   1.50170   1.50794   1.51677   1.51976
 Alpha virt. eigenvalues --    1.52512   1.53162   1.53529   1.54007   1.54401
 Alpha virt. eigenvalues --    1.55760   1.56242   1.56959   1.57400   1.57663
 Alpha virt. eigenvalues --    1.57911   1.58241   1.58549   1.58599   1.59494
 Alpha virt. eigenvalues --    1.60084   1.60648   1.61417   1.61906   1.62323
 Alpha virt. eigenvalues --    1.62475   1.62771   1.63125   1.63716   1.64086
 Alpha virt. eigenvalues --    1.64349   1.64557   1.64843   1.65190   1.65470
 Alpha virt. eigenvalues --    1.65781   1.66191   1.66477   1.66560   1.67069
 Alpha virt. eigenvalues --    1.67348   1.67742   1.67860   1.68368   1.68694
 Alpha virt. eigenvalues --    1.68890   1.69749   1.69808   1.70313   1.70554
 Alpha virt. eigenvalues --    1.70716   1.70985   1.71268   1.71506   1.71886
 Alpha virt. eigenvalues --    1.72422   1.72671   1.72853   1.72948   1.73248
 Alpha virt. eigenvalues --    1.73462   1.74075   1.74434   1.74769   1.74826
 Alpha virt. eigenvalues --    1.75175   1.75372   1.75760   1.76250   1.76940
 Alpha virt. eigenvalues --    1.77036   1.77491   1.77507   1.77912   1.78040
 Alpha virt. eigenvalues --    1.78168   1.78297   1.78784   1.79325   1.79650
 Alpha virt. eigenvalues --    1.79750   1.80318   1.81346   1.81610   1.81805
 Alpha virt. eigenvalues --    1.82107   1.82314   1.82796   1.83098   1.83677
 Alpha virt. eigenvalues --    1.83874   1.84168   1.84503   1.84705   1.85197
 Alpha virt. eigenvalues --    1.85525   1.85621   1.85875   1.86796   1.86953
 Alpha virt. eigenvalues --    1.87658   1.88183   1.88714   1.88800   1.89264
 Alpha virt. eigenvalues --    1.89365   1.89637   1.89989   1.90175   1.90914
 Alpha virt. eigenvalues --    1.90968   1.91885   1.92005   1.92069   1.92665
 Alpha virt. eigenvalues --    1.92892   1.93566   1.93870   1.94205   1.94350
 Alpha virt. eigenvalues --    1.94795   1.95430   1.96262   1.96325   1.96682
 Alpha virt. eigenvalues --    1.96848   1.97147   1.98009   1.98323   1.98517
 Alpha virt. eigenvalues --    1.98897   1.99444   1.99866   2.00188   2.00239
 Alpha virt. eigenvalues --    2.00712   2.00756   2.00978   2.01792   2.02107
 Alpha virt. eigenvalues --    2.02739   2.03325   2.03505   2.03803   2.04084
 Alpha virt. eigenvalues --    2.04427   2.05246   2.05440   2.05931   2.06355
 Alpha virt. eigenvalues --    2.06797   2.07353   2.07687   2.08077   2.08561
 Alpha virt. eigenvalues --    2.08770   2.09373   2.09720   2.10291   2.10605
 Alpha virt. eigenvalues --    2.11038   2.11625   2.11942   2.12620   2.12872
 Alpha virt. eigenvalues --    2.13059   2.13571   2.13951   2.14312   2.14908
 Alpha virt. eigenvalues --    2.15534   2.15954   2.16356   2.16761   2.17065
 Alpha virt. eigenvalues --    2.17480   2.17601   2.18224   2.18902   2.19168
 Alpha virt. eigenvalues --    2.20079   2.20790   2.21486   2.21924   2.22589
 Alpha virt. eigenvalues --    2.23235   2.23699   2.24047   2.24446   2.24772
 Alpha virt. eigenvalues --    2.25605   2.25924   2.26418   2.26604   2.27023
 Alpha virt. eigenvalues --    2.27770   2.28911   2.29467   2.29770   2.30075
 Alpha virt. eigenvalues --    2.30897   2.32479   2.32903   2.33218   2.33994
 Alpha virt. eigenvalues --    2.34571   2.34919   2.35350   2.36366   2.37372
 Alpha virt. eigenvalues --    2.38082   2.38661   2.38994   2.40324   2.40351
 Alpha virt. eigenvalues --    2.40988   2.41512   2.41713   2.41775   2.42268
 Alpha virt. eigenvalues --    2.42795   2.43467   2.43962   2.44756   2.44883
 Alpha virt. eigenvalues --    2.45319   2.45914   2.46745   2.48231   2.48781
 Alpha virt. eigenvalues --    2.49038   2.49081   2.49446   2.50817   2.51460
 Alpha virt. eigenvalues --    2.52569   2.53769   2.54258   2.54530   2.54910
 Alpha virt. eigenvalues --    2.56725   2.57615   2.58478   2.59258   2.59480
 Alpha virt. eigenvalues --    2.59889   2.60727   2.61311   2.61856   2.62395
 Alpha virt. eigenvalues --    2.62878   2.63071   2.63212   2.64113   2.64699
 Alpha virt. eigenvalues --    2.65034   2.65376   2.66441   2.67458   2.67577
 Alpha virt. eigenvalues --    2.67976   2.68234   2.69006   2.69167   2.69322
 Alpha virt. eigenvalues --    2.70319   2.70684   2.70797   2.71229   2.71550
 Alpha virt. eigenvalues --    2.72289   2.72669   2.72734   2.73242   2.73516
 Alpha virt. eigenvalues --    2.74108   2.74602   2.75064   2.75088   2.75917
 Alpha virt. eigenvalues --    2.76248   2.76776   2.77184   2.77903   2.78562
 Alpha virt. eigenvalues --    2.79038   2.79713   2.79967   2.80487   2.81489
 Alpha virt. eigenvalues --    2.81831   2.82652   2.83450   2.83714   2.84129
 Alpha virt. eigenvalues --    2.84382   2.84913   2.85578   2.86035   2.86649
 Alpha virt. eigenvalues --    2.87056   2.87597   2.87656   2.88254   2.88413
 Alpha virt. eigenvalues --    2.88780   2.89285   2.89412   2.89498   2.90231
 Alpha virt. eigenvalues --    2.90386   2.90996   2.91548   2.92005   2.92433
 Alpha virt. eigenvalues --    2.93151   2.93291   2.93697   2.94090   2.94560
 Alpha virt. eigenvalues --    2.94895   2.95489   2.96309   2.96773   2.97186
 Alpha virt. eigenvalues --    2.97701   2.97800   2.98528   2.98880   2.99268
 Alpha virt. eigenvalues --    2.99325   3.00091   3.00667   3.01024   3.01228
 Alpha virt. eigenvalues --    3.01656   3.01730   3.02102   3.02935   3.03754
 Alpha virt. eigenvalues --    3.03983   3.04245   3.04513   3.04843   3.05804
 Alpha virt. eigenvalues --    3.06246   3.06725   3.06941   3.07287   3.07701
 Alpha virt. eigenvalues --    3.08329   3.09229   3.09417   3.10289   3.10653
 Alpha virt. eigenvalues --    3.11300   3.12129   3.12588   3.13082   3.13772
 Alpha virt. eigenvalues --    3.14915   3.15153   3.15554   3.16514   3.17491
 Alpha virt. eigenvalues --    3.18084   3.18849   3.19580   3.20071   3.20261
 Alpha virt. eigenvalues --    3.21572   3.22574   3.22765   3.23299   3.24464
 Alpha virt. eigenvalues --    3.24518   3.25403   3.26259   3.26898   3.27334
 Alpha virt. eigenvalues --    3.28009   3.28830   3.29782   3.30718   3.31184
 Alpha virt. eigenvalues --    3.31657   3.32462   3.33075   3.33775   3.34323
 Alpha virt. eigenvalues --    3.35305   3.35917   3.36417   3.36891   3.37764
 Alpha virt. eigenvalues --    3.39809   3.40910   3.41321   3.41583   3.42667
 Alpha virt. eigenvalues --    3.44004   3.44494   3.45142   3.46750   3.48019
 Alpha virt. eigenvalues --    3.48654   3.48962   3.50187   3.50693   3.51230
 Alpha virt. eigenvalues --    3.52070   3.53143   3.53679   3.54878   3.57220
 Alpha virt. eigenvalues --    3.58263   3.64481   3.64983   3.67317   3.68042
 Alpha virt. eigenvalues --    3.70045   3.71268   3.72836   3.74187   3.74951
 Alpha virt. eigenvalues --    3.75578   3.78599   3.80815   3.82605   3.88289
 Alpha virt. eigenvalues --    3.89876   3.90849   3.91158   3.91690   3.92434
 Alpha virt. eigenvalues --    3.93392   3.93776   3.94334   3.94726   3.96318
 Alpha virt. eigenvalues --    3.96729   3.97265   3.97829   3.98597   4.00193
 Alpha virt. eigenvalues --    4.00399   4.01157   4.02389   4.04175   4.06158
 Alpha virt. eigenvalues --    4.07369   4.10125   4.11017   4.13270   4.14591
 Alpha virt. eigenvalues --    4.14903   4.15297   4.17853   4.20177   4.21734
 Alpha virt. eigenvalues --    4.21979   4.24209   4.24939   4.27123   4.27213
 Alpha virt. eigenvalues --    4.28206   4.28913   4.29310   4.32223   4.32441
 Alpha virt. eigenvalues --    4.36090   4.36698   4.41002   4.42528   4.44281
 Alpha virt. eigenvalues --    4.45324   4.49438   4.49859   4.54351   4.55576
 Alpha virt. eigenvalues --    4.59866   4.76856   4.78711   4.94484   4.95834
 Alpha virt. eigenvalues --    5.23899   5.26753   5.37476   5.41556   5.43608
 Alpha virt. eigenvalues --    5.47396   5.53891   5.56300   5.60011   5.62280
 Alpha virt. eigenvalues --    5.70230   5.70688   5.71578   5.74623   5.78576
 Alpha virt. eigenvalues --    5.79325   5.81049   5.92813   7.60356  14.32222
 Alpha virt. eigenvalues --   14.37071  14.41375  14.94576  23.79026  23.84464
 Alpha virt. eigenvalues --   23.93434  23.97068  24.02311  24.02954  24.03609
 Alpha virt. eigenvalues --   24.04735  24.06651  24.10446  24.11062  24.11996
 Alpha virt. eigenvalues --   24.12415  24.12865  24.13264  24.14038  24.15302
 Alpha virt. eigenvalues --   24.16213  24.16994  24.18152  24.19586  24.19898
 Alpha virt. eigenvalues --   24.20108  24.21488  24.22137  24.22563  24.23920
 Alpha virt. eigenvalues --   24.24308  24.31535  24.31962  24.43408  35.66548
 Alpha virt. eigenvalues --   50.08472  50.15571  50.17294  50.20262  50.26072
 Alpha virt. eigenvalues --   50.29686 163.85874
          Condensed to atoms (all electrons):
 Mulliken charges:
               1
     1  C    0.565417
     2  C    0.109723
     3  H    0.217767
     4  C   -0.751140
     5  H    0.150172
     6  H    0.167815
     7  H    0.169499
     8  C   -0.842836
     9  H    0.135297
    10  H    0.237459
    11  H    0.149738
    12  B    0.056440
    13  C   -0.762402
    14  H    0.054597
    15  H    0.119403
    16  H    0.223570
    17  O    0.183066
    18  O   -0.084865
    19  C   -0.305462
    20  C   -0.181546
    21  C   -0.497021
    22  H   -0.015033
    23  H    0.179579
    24  H    0.225180
    25  C   -0.776956
    26  H    0.192291
    27  H    0.150759
    28  H    0.185798
    29  C   -0.930056
    30  H    0.243893
    31  H    0.292671
    32  H    0.235718
    33  C   -0.258361
    34  H    0.189491
    35  H    0.181052
    36  H    0.202987
    37  P    0.513083
    38  O   -0.131342
    39  O    0.213725
    40  N   -0.581572
    41  H    0.368039
    42  H    0.355210
    43  Li  -0.189758
    44  C   -0.145230
    45  O    0.257860
    46  C   -0.076759
    47  C   -0.783263
    48  C   -0.673190
    49  H    0.078439
    50  H    0.188505
    51  H    0.084866
    52  H    0.129860
    53  H    0.168045
    54  H    0.262657
    55  H    0.254727
    56  H    0.163797
    57  C   -0.014007
    58  O    0.072775
    59  C    0.065685
    60  C   -0.648876
    61  C   -0.679868
    62  H    0.198735
    63  H    0.134758
    64  H    0.245430
    65  H    0.260648
    66  H    0.181039
    67  H    0.213049
    68  H    0.208126
    69  H    0.232240
    70  C   -0.453816
    71  C    0.500971
    72  C   -0.079263
    73  C    0.053858
    74  H   -0.141319
    75  C   -0.540044
    76  H    0.324299
    77  C   -0.710473
    78  H    0.325083
    79  H    0.284092
    80  H    0.288417
    81  C   -0.326602
    82  C    0.059569
    83  C    0.182863
    84  C   -0.506563
    85  H    0.340432
    86  C   -0.554445
    87  H    0.245750
    88  C   -0.494565
    89  H    0.290093
    90  H    0.297765
    91  H    0.272761
 Sum of Mulliken charges =  -0.00000
 Mulliken charges with hydrogens summed into heavy atoms:
               1
     1  C    0.565417
     2  C    0.327490
     4  C   -0.263654
     8  C   -0.320341
    12  B    0.056440
    13  C   -0.364832
    17  O    0.183066
    18  O   -0.084865
    19  C   -0.305462
    20  C   -0.181546
    21  C   -0.107295
    25  C   -0.248108
    29  C   -0.157773
    33  C    0.315170
    37  P    0.513083
    38  O   -0.131342
    39  O    0.213725
    40  N    0.141677
    43  Li  -0.189758
    44  C    0.121714
    45  O    0.257860
    46  C    0.137967
    47  C   -0.352561
    48  C   -0.254666
    57  C    0.319486
    58  O    0.072775
    59  C    0.571763
    60  C   -0.254788
    61  C   -0.239502
    70  C   -0.453816
    71  C    0.359652
    72  C    0.245036
    73  C    0.378940
    75  C   -0.255952
    77  C   -0.422056
    81  C   -0.326602
    82  C    0.400001
    83  C    0.428613
    84  C   -0.216470
    86  C   -0.256681
    88  C   -0.221804
 Electronic spatial extent (au):  <R**2>=          20070.6914
 Charge=              0.0000 electrons
 Dipole moment (field-independent basis, Debye):
    X=             12.4200    Y=              5.3942    Z=             -4.0369  Tot=             14.1297
 Quadrupole moment (field-independent basis, Debye-Ang):
   XX=           -282.8258   YY=           -239.3184   ZZ=           -232.7122
   XY=             15.2386   XZ=             30.2044   YZ=            -13.4482
 Traceless Quadrupole moment (field-independent basis, Debye-Ang):
   XX=            -31.2070   YY=             12.3004   ZZ=             18.9066
   XY=             15.2386   XZ=             30.2044   YZ=            -13.4482
 Octapole moment (field-independent basis, Debye-Ang**2):
  XXX=            292.7470  YYY=             99.6182  ZZZ=           -124.1199  XYY=             61.4095
  XXY=             90.6393  XXZ=            -41.8133  XZZ=            101.6915  YZZ=             41.9232
  YYZ=            -28.5750  XYZ=            -47.1521
 Hexadecapole moment (field-independent basis, Debye-Ang**3):
 XXXX=         -13857.1666 YYYY=          -5835.4092 ZZZZ=          -7901.6010 XXXY=           -928.3355
 XXXZ=           1499.6807 YYYX=           -858.1153 YYYZ=            542.5570 ZZZX=           1183.7804
 ZZZY=            410.5573 XXYY=          -3168.6326 XXZZ=          -3521.0094 YYZZ=          -2399.4491
 XXYZ=            -37.2284 YYXZ=            321.6570 ZZXY=           -327.5264
 N-N= 5.728098173042D+03 E-N=-1.634813134051D+04  KE= 2.083051681958D+03
 Unable to Open any file for archive entry.
 1\1\GINC-NODE06\SP\RwB97XD\6-311++G(d,p)\C31H50B1Li1N1O6P1\WHUGHES2\08
 -Oct-2025\0\\# wb97xd/6-311++g** nosymm int=ultrafine scrf=(smd,solven
 t=tetrahydrofuran)\\r1-phosphine-2thf-full-c12_tzpop-sp\\0,1\C,0,-3.28
 81,-0.0212,2.7207\C,0,-4.527,-0.2325,3.1975\H,0,-5.2875,-0.5281,2.4699
 \C,0,-5.0277,-0.1279,4.6161\H,0,-4.254,0.1892,5.3234\H,0,-5.8524,0.595
 3,4.6889\H,0,-5.4285,-1.0894,4.9691\C,0,-2.1394,0.3803,3.6238\H,0,-1.2
 001,-0.0321,3.2366\H,0,-2.0148,1.4732,3.6479\H,0,-2.2461,0.0456,4.6635
 \B,0,-2.9668,-0.0745,1.1084\C,0,-2.8887,1.4696,0.5677\H,0,-2.3664,1.61
 94,-0.3855\H,0,-3.9181,1.8311,0.4199\H,0,-2.4237,2.153,1.2912\O,0,-1.6
 774,-0.8385,0.8005\O,0,-3.9632,-0.873,0.3528\C,0,-3.4871,-2.1771,0.095
 1\C,0,-2.0269,-2.2186,0.7153\C,0,-3.4825,-2.3758,-1.4276\H,0,-2.7663,-
 1.7055,-1.9101\H,0,-3.2397,-3.4063,-1.7146\H,0,-4.4813,-2.1402,-1.813\
 C,0,-4.437,-3.2086,0.7125\H,0,-4.0732,-4.2341,0.5667\H,0,-4.5726,-3.03
 45,1.7836\H,0,-5.42,-3.1282,0.2328\C,0,-1.0143,-2.9624,-0.1557\H,0,-0.
 8859,-2.5029,-1.1376\H,0,-0.0343,-2.9683,0.3341\H,0,-1.3295,-4.0037,-0
 .2951\C,0,-1.957,-2.8477,2.1167\H,0,-0.9463,-2.7005,2.5161\H,0,-2.6646
 ,-2.3936,2.8121\H,0,-2.1492,-3.9263,2.0796\P,0,2.4139,-0.6367,-0.6857\
 O,0,1.0026,-0.8553,-1.1448\O,0,3.4141,-1.7784,-1.3143\N,0,2.9819,-3.13
 25,-1.1151\H,0,2.9975,-3.2905,-0.1047\H,0,2.0021,-3.1652,-1.4059\Li,0,
 -0.6599,0.0612,-0.5705\C,0,0.4436,2.2706,1.345\O,0,0.3384,1.7556,0.010
 1\C,0,0.3191,2.8327,-0.941\C,0,0.6603,4.0939,-0.1537\C,0,0.1266,3.7566
 ,1.2415\H,0,-0.2471,1.7105,1.9789\H,0,1.468,2.1054,1.7051\H,0,1.0376,2
 .6032,-1.7337\H,0,-0.6857,2.889,-1.3772\H,0,1.7447,4.2448,-0.1222\H,0,
 0.1992,4.9849,-0.5888\H,0,0.6027,4.3355,2.0379\H,0,-0.9551,3.9226,1.28
 81\C,0,-0.6007,0.4675,-3.5514\O,0,-1.4144,0.4574,-2.3805\C,0,-2.7371,0
 .7945,-2.8106\C,0,-2.8991,0.1482,-4.1979\C,0,-1.4563,-0.2273,-4.6083\H
 ,0,-0.3825,1.5094,-3.8325\H,0,0.329,-0.0453,-3.3053\H,0,-3.4328,0.4239
 ,-2.0562\H,0,-2.8214,1.889,-2.8674\H,0,-3.5384,-0.7377,-4.1477\H,0,-3.
 3552,0.8512,-4.9008\H,0,-1.3083,-1.3104,-4.5523\H,0,-1.2026,0.0994,-5.
 6208\C,0,2.6088,-0.7748,1.0991\C,0,1.4815,-0.8686,1.9215\C,0,3.8937,-0
 .8303,1.6565\C,0,1.6444,-1.0117,3.2982\H,0,0.4784,-0.8345,1.4999\C,0,4
 .0481,-0.9669,3.0322\H,0,4.7721,-0.7682,1.0187\C,0,2.9222,-1.0579,3.85
 24\H,0,0.7697,-1.0879,3.9379\H,0,5.0442,-1.008,3.4632\H,0,3.0431,-1.16
 88,4.9264\C,0,3.2125,0.8465,-1.3169\C,0,3.2982,1.0059,-2.7062\C,0,3.66
 89,1.8584,-0.4689\C,0,3.8401,2.1712,-3.2388\H,0,2.9417,0.2249,-3.3724\
 C,0,4.2143,3.0215,-1.0076\H,0,3.5925,1.7528,0.6093\C,0,4.2976,3.1796,-
 2.3894\H,0,3.9055,2.2928,-4.3161\H,0,4.5669,3.807,-0.3454\H,0,4.7197,4
 .0895,-2.8068\\Version=AS64L-G16RevC.01\HF=-2091.3829727\RMSD=2.149e-0
 9\Dipole=4.8863936,2.122229,-1.5882359\Quadrupole=-23.2016621,9.145047
 1,14.056615,11.3295537,22.4561983,-9.9984439\PG=C01 [X(C31H50B1Li1N1O6
 P1)]\\@
 The archive entry for this job was punched.


 THE SOLUTION TO A PROBLEM CHANGES THE PROBLEM.

                                 -- JOHN PEERS
           PAUL DICKSON'S "THE OFFICIAL RULES"
 Job cpu time:       0 days  9 hours 54 minutes  0.3 seconds.
 Elapsed time:       0 days  2 hours 29 minutes 50.0 seconds.
 File lengths (MBytes):  RWF=   1331 Int=      0 D2E=      0 Chk=     95 Scr=      1
 Normal termination of Gaussian 16 at Wed Oct  8 18:28:42 2025.
