Job Start Time: Wed Oct  8 16:40:10 MDT 2025
SLURM Job ID: 768209
SLURM Job Name: r1-phosphine-2thf-full-c7_tzpop-sp
 Entering Gaussian System, Link 0=/opt/apps/Gaussian/G16C/g16/g16
 Initial command:
 /opt/apps/Gaussian/G16C/g16/l1.exe "/tmp/768209/Gau-384367.inp" -scrdir="/tmp/768209/"
 Entering Link 1 = /opt/apps/Gaussian/G16C/g16/l1.exe PID=    384368.
  
 Copyright (c) 1988-2019, Gaussian, Inc.  All Rights Reserved.
  
 This is part of the Gaussian(R) 16 program.  It is based on
 the Gaussian(R) 09 system (copyright 2009, Gaussian, Inc.),
 the Gaussian(R) 03 system (copyright 2003, Gaussian, Inc.),
 the Gaussian(R) 98 system (copyright 1998, Gaussian, Inc.),
 the Gaussian(R) 94 system (copyright 1995, Gaussian, Inc.),
 the Gaussian 92(TM) system (copyright 1992, Gaussian, Inc.),
 the Gaussian 90(TM) system (copyright 1990, Gaussian, Inc.),
 the Gaussian 88(TM) system (copyright 1988, Gaussian, Inc.),
 the Gaussian 86(TM) system (copyright 1986, Carnegie Mellon
 University), and the Gaussian 82(TM) system (copyright 1983,
 Carnegie Mellon University). Gaussian is a federally registered
 trademark of Gaussian, Inc.
  
 This software contains proprietary and confidential information,
 including trade secrets, belonging to Gaussian, Inc.
  
 This software is provided under written license and may be
 used, copied, transmitted, or stored only in accord with that
 written license.
  
 The following legend is applicable only to US Government
 contracts under FAR:
  
                    RESTRICTED RIGHTS LEGEND
  
 Use, reproduction and disclosure by the US Government is
 subject to restrictions as set forth in subparagraphs (a)
 and (c) of the Commercial Computer Software - Restricted
 Rights clause in FAR 52.227-19.
  
 Gaussian, Inc.
 340 Quinnipiac St., Bldg. 40, Wallingford CT 06492
  
  
 ---------------------------------------------------------------
 Warning -- This program may not be used in any manner that
 competes with the business of Gaussian, Inc. or will provide
 assistance to any competitor of Gaussian, Inc.  The licensee
 of this program is prohibited from giving any competitor of
 Gaussian, Inc. access to this program.  By using this program,
 the user acknowledges that Gaussian, Inc. is engaged in the
 business of creating and licensing software in the field of
 computational chemistry and represents and warrants to the
 licensee that it is not a competitor of Gaussian, Inc. and that
 it will not use this program in any manner prohibited above.
 ---------------------------------------------------------------
  

 Cite this work as:
 Gaussian 16, Revision C.01,
 M. J. Frisch, G. W. Trucks, H. B. Schlegel, G. E. Scuseria, 
 M. A. Robb, J. R. Cheeseman, G. Scalmani, V. Barone, 
 G. A. Petersson, H. Nakatsuji, X. Li, M. Caricato, A. V. Marenich, 
 J. Bloino, B. G. Janesko, R. Gomperts, B. Mennucci, H. P. Hratchian, 
 J. V. Ortiz, A. F. Izmaylov, J. L. Sonnenberg, D. Williams-Young, 
 F. Ding, F. Lipparini, F. Egidi, J. Goings, B. Peng, A. Petrone, 
 T. Henderson, D. Ranasinghe, V. G. Zakrzewski, J. Gao, N. Rega, 
 G. Zheng, W. Liang, M. Hada, M. Ehara, K. Toyota, R. Fukuda, 
 J. Hasegawa, M. Ishida, T. Nakajima, Y. Honda, O. Kitao, H. Nakai, 
 T. Vreven, K. Throssell, J. A. Montgomery, Jr., J. E. Peralta, 
 F. Ogliaro, M. J. Bearpark, J. J. Heyd, E. N. Brothers, K. N. Kudin, 
 V. N. Staroverov, T. A. Keith, R. Kobayashi, J. Normand, 
 K. Raghavachari, A. P. Rendell, J. C. Burant, S. S. Iyengar, 
 J. Tomasi, M. Cossi, J. M. Millam, M. Klene, C. Adamo, R. Cammi, 
 J. W. Ochterski, R. L. Martin, K. Morokuma, O. Farkas, 
 J. B. Foresman, and D. J. Fox, Gaussian, Inc., Wallingford CT, 2019.
 
 ******************************************
 Gaussian 16:  AS64L-G16RevC.01  3-Jul-2019
                 8-Oct-2025 
 ******************************************
 %chk=r1-phosphine-2thf-full-c7_tzpop-sp.chk
 %nprocshared=4
 Will use up to    4 processors via shared memory.
 %mem=8GB
 ----------------------------------------------------------------------
 # wb97xd/6-311++g** nosymm int=ultrafine scrf=(smd,solvent=tetrahydrof
 uran)
 ----------------------------------------------------------------------
 1/38=1,172=1/1;
 2/12=2,15=1,17=6,18=5,40=1/2;
 3/5=4,6=6,7=1111,11=2,25=1,30=1,70=32201,72=20,74=-58,75=-5/1,2,3;
 4//1;
 5/5=2,38=5,53=20/2;
 6/7=2,8=2,9=2,10=2,28=1/1;
 99/5=1,9=1/99;
 ----------------------------------
 r1-phosphine-2thf-full-c7_tzpop-sp
 ----------------------------------
 Symbolic Z-matrix:
 Charge =  0 Multiplicity = 1
 C                    -4.023    -0.8801   -0.7662 
 C                    -5.3109   -0.9721   -0.3896 
 H                    -5.5465   -1.7274    0.3624 
 C                    -6.5052   -0.1766   -0.8525 
 H                    -7.0028    0.3123   -0.0023 
 H                    -6.2587    0.6009   -1.5827 
 H                    -7.2578   -0.8318   -1.3143 
 C                    -3.5842    0.0993   -1.8326 
 H                    -4.2917    0.9171   -2.0162 
 H                    -2.6195    0.5566   -1.5881 
 H                    -3.4373   -0.4224   -2.7892 
 B                    -2.8885   -1.9178   -0.1849 
 C                    -2.312    -2.8494   -1.4054 
 H                    -1.5859   -3.5969   -1.047 
 H                    -3.1264   -3.4087   -1.8924 
 H                    -1.8203   -2.2635   -2.1994 
 O                    -1.7298   -1.1437    0.4932 
 O                    -3.3861   -2.7657    0.9224 
 C                    -2.9636   -2.2548    2.1647 
 C                    -1.5699   -1.615     1.8362 
 C                    -2.8971   -3.4066    3.1693 
 H                    -2.4541   -3.0856    4.1206 
 H                    -3.9114   -3.7687    3.3756 
 H                    -2.3164   -4.2463    2.7774 
 C                    -3.9644   -1.2183    2.7058 
 H                    -4.96     -1.6741    2.7454 
 H                    -3.6991   -0.8936    3.7195 
 H                    -4.0261   -0.3392    2.0607 
 C                    -0.4439   -2.6552    1.8761 
 H                    -0.2786   -3.0313    2.892 
 H                    -0.6673   -3.5071    1.2251 
 H                     0.4943   -2.2017    1.5443 
 C                    -1.1892   -0.4475    2.7428 
 H                    -0.22     -0.0387    2.4382 
 H                    -1.9243    0.3568    2.685 
 H                    -1.113    -0.7764    3.7868 
 P                     2.2797   -0.2107    0.0125 
 O                     1.1177    0.5935    0.5206 
 O                     1.9169   -1.7649   -0.3114 
 N                     0.7918   -1.8319   -1.2209 
 H                    -0.0273   -1.9116   -0.6066 
 H                     0.9166   -2.7477   -1.6505 
 Li                   -0.7548    0.4353   -0.123 
 C                    -0.3111    2.5022   -2.1907 
 O                    -0.4225    1.0821   -2.0392 
 C                    -0.4169    0.4698   -3.3277 
 C                     0.485     1.3609   -4.1672 
 C                     0.129     2.7588   -3.6427 
 H                    -1.279     2.9646   -1.9646 
 H                     0.4194    2.8472   -1.4534 
 H                    -0.0526   -0.55     -3.1969 
 H                    -1.439     0.4471   -3.7326 
 H                     1.5338    1.124    -3.967 
 H                     0.3009    1.249    -5.2396 
 H                     0.972     3.4536   -3.697 
 H                    -0.6979    3.1848   -4.2206 
 C                    -2.9826    2.2639    0.8108 
 O                    -1.5876    2.0716    0.581 
 C                    -0.9024    3.1243    1.2492 
 C                    -1.6524    3.2945    2.5705 
 C                    -3.0988    2.875     2.2192 
 H                    -3.3791    2.9451    0.0447 
 H                    -3.4661    1.2914    0.7021 
 H                     0.1405    2.8201    1.3553 
 H                    -0.9553    4.0387    0.6381 
 H                    -1.2297    2.6278    3.3283 
 H                    -1.5882    4.3198    2.9454 
 H                    -3.4842    2.1445    2.9365 
 H                    -3.782     3.729     2.2149 
 C                     3.5485   -0.4409    1.2713 
 C                     3.2029   -0.2136    2.6077 
 C                     4.8457   -0.8498    0.9432 
 C                     4.1503   -0.4013    3.6111 
 H                     2.1977    0.1125    2.8592 
 C                     5.7885   -1.0374    1.9501 
 H                     5.1265   -1.0177   -0.0934 
 C                     5.4409   -0.814     3.2826 
 H                     3.8805   -0.2241    4.6483 
 H                     6.7955   -1.3541    1.6942 
 H                     6.1797   -0.9583    4.0661 
 C                     3.0342    0.474    -1.4737 
 C                     3.5584   -0.3474   -2.4762 
 C                     3.1569    1.864    -1.5733 
 C                     4.2001    0.2215   -3.574 
 H                     3.464    -1.4271   -2.4047 
 C                     3.8027    2.4283   -2.6697 
 H                     2.7484    2.504    -0.796 
 C                     4.3245    1.6072   -3.6694 
 H                     4.6006   -0.4178   -4.3555 
 H                     3.8958    3.5078   -2.7454 
 H                     4.8257    2.0487   -4.5263 
 
 Symmetry turned off by external request.
 Stoichiometry    C31H50BLiNO6P
 Framework group  C1[X(C31H50BLiNO6P)]
 Deg. of freedom   267
 Full point group                 C1      NOp   1
                          Input orientation:                          
 ---------------------------------------------------------------------
 Center     Atomic      Atomic             Coordinates (Angstroms)
 Number     Number       Type             X           Y           Z
 ---------------------------------------------------------------------
      1          6           0       -4.023000   -0.880100   -0.766200
      2          6           0       -5.310900   -0.972100   -0.389600
      3          1           0       -5.546500   -1.727400    0.362400
      4          6           0       -6.505200   -0.176600   -0.852500
      5          1           0       -7.002800    0.312300   -0.002300
      6          1           0       -6.258700    0.600900   -1.582700
      7          1           0       -7.257800   -0.831800   -1.314300
      8          6           0       -3.584200    0.099300   -1.832600
      9          1           0       -4.291700    0.917100   -2.016200
     10          1           0       -2.619500    0.556600   -1.588100
     11          1           0       -3.437300   -0.422400   -2.789200
     12          5           0       -2.888500   -1.917800   -0.184900
     13          6           0       -2.312000   -2.849400   -1.405400
     14          1           0       -1.585900   -3.596900   -1.047000
     15          1           0       -3.126400   -3.408700   -1.892400
     16          1           0       -1.820300   -2.263500   -2.199400
     17          8           0       -1.729800   -1.143700    0.493200
     18          8           0       -3.386100   -2.765700    0.922400
     19          6           0       -2.963600   -2.254800    2.164700
     20          6           0       -1.569900   -1.615000    1.836200
     21          6           0       -2.897100   -3.406600    3.169300
     22          1           0       -2.454100   -3.085600    4.120600
     23          1           0       -3.911400   -3.768700    3.375600
     24          1           0       -2.316400   -4.246300    2.777400
     25          6           0       -3.964400   -1.218300    2.705800
     26          1           0       -4.960000   -1.674100    2.745400
     27          1           0       -3.699100   -0.893600    3.719500
     28          1           0       -4.026100   -0.339200    2.060700
     29          6           0       -0.443900   -2.655200    1.876100
     30          1           0       -0.278600   -3.031300    2.892000
     31          1           0       -0.667300   -3.507100    1.225100
     32          1           0        0.494300   -2.201700    1.544300
     33          6           0       -1.189200   -0.447500    2.742800
     34          1           0       -0.220000   -0.038700    2.438200
     35          1           0       -1.924300    0.356800    2.685000
     36          1           0       -1.113000   -0.776400    3.786800
     37         15           0        2.279700   -0.210700    0.012500
     38          8           0        1.117700    0.593500    0.520600
     39          8           0        1.916900   -1.764900   -0.311400
     40          7           0        0.791800   -1.831900   -1.220900
     41          1           0       -0.027300   -1.911600   -0.606600
     42          1           0        0.916600   -2.747700   -1.650500
     43          3           0       -0.754800    0.435300   -0.123000
     44          6           0       -0.311100    2.502200   -2.190700
     45          8           0       -0.422500    1.082100   -2.039200
     46          6           0       -0.416900    0.469800   -3.327700
     47          6           0        0.485000    1.360900   -4.167200
     48          6           0        0.129000    2.758800   -3.642700
     49          1           0       -1.279000    2.964600   -1.964600
     50          1           0        0.419400    2.847200   -1.453400
     51          1           0       -0.052600   -0.550000   -3.196900
     52          1           0       -1.439000    0.447100   -3.732600
     53          1           0        1.533800    1.124000   -3.967000
     54          1           0        0.300900    1.249000   -5.239600
     55          1           0        0.972000    3.453600   -3.697000
     56          1           0       -0.697900    3.184800   -4.220600
     57          6           0       -2.982600    2.263900    0.810800
     58          8           0       -1.587600    2.071600    0.581000
     59          6           0       -0.902400    3.124300    1.249200
     60          6           0       -1.652400    3.294500    2.570500
     61          6           0       -3.098800    2.875000    2.219200
     62          1           0       -3.379100    2.945100    0.044700
     63          1           0       -3.466100    1.291400    0.702100
     64          1           0        0.140500    2.820100    1.355300
     65          1           0       -0.955300    4.038700    0.638100
     66          1           0       -1.229700    2.627800    3.328300
     67          1           0       -1.588200    4.319800    2.945400
     68          1           0       -3.484200    2.144500    2.936500
     69          1           0       -3.782000    3.729000    2.214900
     70          6           0        3.548500   -0.440900    1.271300
     71          6           0        3.202900   -0.213600    2.607700
     72          6           0        4.845700   -0.849800    0.943200
     73          6           0        4.150300   -0.401300    3.611100
     74          1           0        2.197700    0.112500    2.859200
     75          6           0        5.788500   -1.037400    1.950100
     76          1           0        5.126500   -1.017700   -0.093400
     77          6           0        5.440900   -0.814000    3.282600
     78          1           0        3.880500   -0.224100    4.648300
     79          1           0        6.795500   -1.354100    1.694200
     80          1           0        6.179700   -0.958300    4.066100
     81          6           0        3.034200    0.474000   -1.473700
     82          6           0        3.558400   -0.347400   -2.476200
     83          6           0        3.156900    1.864000   -1.573300
     84          6           0        4.200100    0.221500   -3.574000
     85          1           0        3.464000   -1.427100   -2.404700
     86          6           0        3.802700    2.428300   -2.669700
     87          1           0        2.748400    2.504000   -0.796000
     88          6           0        4.324500    1.607200   -3.669400
     89          1           0        4.600600   -0.417800   -4.355500
     90          1           0        3.895800    3.507800   -2.745400
     91          1           0        4.825700    2.048700   -4.526300
 ---------------------------------------------------------------------
 Rotational constants (GHZ):           0.1131094           0.0690943           0.0574873
 Standard basis: 6-311++G(d,p) (5D, 7F)
  1260 basis functions,  1940 primitive gaussians,  1301 cartesian basis functions
   157 alpha electrons      157 beta electrons
       nuclear repulsion energy      5678.9131369429 Hartrees.
 NAtoms=   91 NActive=   91 NUniq=   91 SFac= 1.00D+00 NAtFMM=   60 NAOKFM=T Big=T
 Integral buffers will be    131072 words long.
 Raffenetti 2 integral format.
 Two-electron integral symmetry is turned off.
 Nuclear repulsion after empirical dispersion term =     5678.7956766953 Hartrees.
 ------------------------------------------------------------------------------
 Polarizable Continuum Model (PCM)
 =================================
 Model                : PCM.
 Atomic radii         : SMD-Coulomb.
 Polarization charges : Total charges.
 Charge compensation  : None.
 Solution method      : On-the-fly selection.
 Cavity type          : VdW (van der Waals Surface) (Alpha=1.000).
 Cavity algorithm     : GePol (No added spheres)
                        Default sphere list used, NSphG=   91.
                        Lebedev-Laikov grids with approx.  5.0 points / Ang**2.
                        Smoothing algorithm: York/Karplus (Gamma=1.0000).
                        Polarization charges: spherical gaussians, with
                                              point-specific exponents (IZeta= 3).
                        Self-potential: point-specific (ISelfS= 7).
                        Self-field    : sphere-specific E.n sum rule (ISelfD= 2).
 Solvent              : TetraHydroFuran, Eps=   7.425700 Eps(inf)=   1.974025
 ------------------------------------------------------------------------------
 ------------------------------------------------------------------------------
 Atomic radii for non-electrostatic terms: SMD-CDS.
 ------------------------------------------------------------------------------
 Nuclear repulsion after PCM non-electrostatic terms =     5678.7865950801 Hartrees.
 One-electron integrals computed using PRISM.
 NBasis=  1260 RedAO= T EigKep=  1.09D-06  NBF=  1260
 NBsUse=  1251 1.00D-06 EigRej=  8.98D-07 NBFU=  1251
 ExpMin= 7.40D-03 ExpMax= 7.75D+04 ExpMxC= 2.65D+03 IAcc=3 IRadAn=         5 AccDes= 0.00D+00
 Harris functional with IExCor= 4639 and IRadAn=       5 diagonalized for initial guess.
 HarFok:  IExCor= 4639 AccDes= 0.00D+00 IRadAn=         5 IDoV= 1 UseB2=F ITyADJ=14
 ICtDFT=  3500011 ScaDFX=  1.000000  1.000000  1.000000  1.000000
 FoFCou: FMM=F IPFlag=           0 FMFlag=      100000 FMFlg1=        2001
         NFxFlg=           0 DoJE=T BraDBF=F KetDBF=T FulRan=T
         wScrn=  0.000000 ICntrl=       500 IOpCl=  0 I1Cent=   200000004 NGrid=           0
         NMat0=    1 NMatS0=      1 NMatT0=    0 NMatD0=    1 NMtDS0=    0 NMtDT0=    0
 Symmetry not used in FoFCou.
 Requested convergence on RMS density matrix=1.00D-08 within 128 cycles.
 Requested convergence on MAX density matrix=1.00D-06.
 Requested convergence on             energy=1.00D-06.
 No special actions if energy rises.
 Inv3:  Mode=1 IEnd=    89140203.
 Iteration    1 A*A^-1 deviation from unit magnitude is 1.07D-14 for   5449.
 Iteration    1 A*A^-1 deviation from orthogonality  is 3.46D-15 for   5425   5359.
 Iteration    1 A^-1*A deviation from unit magnitude is 1.07D-14 for   5449.
 Iteration    1 A^-1*A deviation from orthogonality  is 2.69D-15 for   5425   5359.
 Error on total polarization charges =  0.07728
 SCF Done:  E(RwB97XD) =  -2091.38928027     A.U. after   16 cycles
            NFock= 16  Conv=0.43D-08     -V/T= 2.0040
 SMD-CDS (non-electrostatic) energy       (kcal/mol) =      -5.70
 (included in total energy above)

 **********************************************************************

            Population analysis using the SCF Density.

 **********************************************************************

 Alpha  occ. eigenvalues --  -77.31940 -19.30413 -19.25697 -19.25178 -19.21945
 Alpha  occ. eigenvalues --  -19.19747 -19.17426 -14.47798 -10.32247 -10.32032
 Alpha  occ. eigenvalues --  -10.31979 -10.31564 -10.31550 -10.31111 -10.31037
 Alpha  occ. eigenvalues --  -10.30921 -10.30680 -10.30665 -10.30663 -10.30518
 Alpha  occ. eigenvalues --  -10.30205 -10.30130 -10.29948 -10.29937 -10.29850
 Alpha  occ. eigenvalues --  -10.29805 -10.27619 -10.27598 -10.27563 -10.27249
 Alpha  occ. eigenvalues --  -10.25421 -10.24992 -10.24866 -10.24842 -10.24668
 Alpha  occ. eigenvalues --  -10.24394 -10.23977 -10.22474 -10.20986  -6.80344
 Alpha  occ. eigenvalues --   -6.76400  -4.91273  -4.91005  -4.90940  -1.99433
 Alpha  occ. eigenvalues --   -1.19603  -1.15104  -1.14249  -1.09830  -1.08883
 Alpha  occ. eigenvalues --   -1.03385  -0.97670  -0.97240  -0.92897  -0.87724
 Alpha  occ. eigenvalues --   -0.87562  -0.87335  -0.87143  -0.86120  -0.86074
 Alpha  occ. eigenvalues --   -0.85973  -0.85861  -0.83483  -0.83189  -0.81756
 Alpha  occ. eigenvalues --   -0.79231  -0.77950  -0.75099  -0.74754  -0.74368
 Alpha  occ. eigenvalues --   -0.71848  -0.71486  -0.71203  -0.70666  -0.68989
 Alpha  occ. eigenvalues --   -0.68429  -0.68340  -0.68003  -0.67946  -0.66736
 Alpha  occ. eigenvalues --   -0.63156  -0.62412  -0.60372  -0.60075  -0.59656
 Alpha  occ. eigenvalues --   -0.59427  -0.59017  -0.58759  -0.58214  -0.57538
 Alpha  occ. eigenvalues --   -0.56687  -0.56649  -0.55606  -0.54871  -0.54578
 Alpha  occ. eigenvalues --   -0.53957  -0.53833  -0.53344  -0.52834  -0.52552
 Alpha  occ. eigenvalues --   -0.51936  -0.51856  -0.51798  -0.51267  -0.50669
 Alpha  occ. eigenvalues --   -0.50510  -0.49979  -0.49821  -0.49658  -0.48715
 Alpha  occ. eigenvalues --   -0.48593  -0.47765  -0.47615  -0.47222  -0.46969
 Alpha  occ. eigenvalues --   -0.46596  -0.46501  -0.46028  -0.45627  -0.45416
 Alpha  occ. eigenvalues --   -0.44784  -0.44713  -0.44250  -0.44091  -0.43896
 Alpha  occ. eigenvalues --   -0.43745  -0.43548  -0.43444  -0.43257  -0.42885
 Alpha  occ. eigenvalues --   -0.42711  -0.42595  -0.42427  -0.42214  -0.41529
 Alpha  occ. eigenvalues --   -0.41418  -0.41046  -0.40300  -0.40226  -0.40087
 Alpha  occ. eigenvalues --   -0.39806  -0.39682  -0.38338  -0.38107  -0.36920
 Alpha  occ. eigenvalues --   -0.36172  -0.35546  -0.35249  -0.34837  -0.34525
 Alpha  occ. eigenvalues --   -0.34390  -0.34148  -0.33913  -0.33864  -0.30525
 Alpha  occ. eigenvalues --   -0.28207  -0.27145
 Alpha virt. eigenvalues --    0.01528   0.02281   0.02535   0.02596   0.02729
 Alpha virt. eigenvalues --    0.02993   0.04115   0.04571   0.05215   0.05402
 Alpha virt. eigenvalues --    0.05695   0.05845   0.06423   0.06732   0.06821
 Alpha virt. eigenvalues --    0.07117   0.07147   0.07269   0.07434   0.07652
 Alpha virt. eigenvalues --    0.07864   0.07894   0.08010   0.08224   0.08535
 Alpha virt. eigenvalues --    0.08728   0.08935   0.09005   0.09611   0.09850
 Alpha virt. eigenvalues --    0.10030   0.10091   0.10424   0.10683   0.10822
 Alpha virt. eigenvalues --    0.11275   0.11305   0.11552   0.11891   0.12146
 Alpha virt. eigenvalues --    0.12361   0.12495   0.12754   0.12979   0.13102
 Alpha virt. eigenvalues --    0.13271   0.13390   0.13510   0.13770   0.13962
 Alpha virt. eigenvalues --    0.14258   0.14362   0.14722   0.14792   0.15139
 Alpha virt. eigenvalues --    0.15387   0.15520   0.15640   0.15692   0.15871
 Alpha virt. eigenvalues --    0.15964   0.16070   0.16422   0.16632   0.16732
 Alpha virt. eigenvalues --    0.16997   0.17064   0.17123   0.17156   0.17233
 Alpha virt. eigenvalues --    0.17549   0.17657   0.17751   0.18050   0.18290
 Alpha virt. eigenvalues --    0.18342   0.18522   0.18630   0.18705   0.18758
 Alpha virt. eigenvalues --    0.19123   0.19265   0.19300   0.19572   0.19593
 Alpha virt. eigenvalues --    0.19714   0.19815   0.20033   0.20204   0.20235
 Alpha virt. eigenvalues --    0.20431   0.20541   0.20611   0.20709   0.20773
 Alpha virt. eigenvalues --    0.20945   0.21126   0.21191   0.21297   0.21365
 Alpha virt. eigenvalues --    0.21554   0.21723   0.21801   0.21917   0.22082
 Alpha virt. eigenvalues --    0.22246   0.22274   0.22414   0.22668   0.22821
 Alpha virt. eigenvalues --    0.22859   0.22895   0.23079   0.23306   0.23416
 Alpha virt. eigenvalues --    0.23483   0.23673   0.23740   0.23848   0.24147
 Alpha virt. eigenvalues --    0.24176   0.24359   0.24457   0.24600   0.24750
 Alpha virt. eigenvalues --    0.24844   0.24967   0.25132   0.25346   0.25438
 Alpha virt. eigenvalues --    0.25456   0.25611   0.25713   0.25836   0.26184
 Alpha virt. eigenvalues --    0.26243   0.26369   0.26438   0.26495   0.26607
 Alpha virt. eigenvalues --    0.26705   0.26772   0.27092   0.27324   0.27352
 Alpha virt. eigenvalues --    0.27482   0.27896   0.27992   0.28137   0.28398
 Alpha virt. eigenvalues --    0.28464   0.28663   0.28801   0.28820   0.28968
 Alpha virt. eigenvalues --    0.29103   0.29265   0.29367   0.29637   0.29740
 Alpha virt. eigenvalues --    0.30100   0.30183   0.30398   0.30473   0.30741
 Alpha virt. eigenvalues --    0.30821   0.30863   0.31164   0.31224   0.31247
 Alpha virt. eigenvalues --    0.31335   0.31647   0.31790   0.31921   0.32133
 Alpha virt. eigenvalues --    0.32312   0.32357   0.32549   0.32764   0.32926
 Alpha virt. eigenvalues --    0.33025   0.33193   0.33383   0.33530   0.33784
 Alpha virt. eigenvalues --    0.33883   0.34159   0.34258   0.34371   0.34629
 Alpha virt. eigenvalues --    0.34726   0.34954   0.35128   0.35336   0.35446
 Alpha virt. eigenvalues --    0.35504   0.35607   0.35784   0.36111   0.36241
 Alpha virt. eigenvalues --    0.36480   0.36670   0.36703   0.36801   0.37064
 Alpha virt. eigenvalues --    0.37169   0.37218   0.37329   0.37671   0.37777
 Alpha virt. eigenvalues --    0.38020   0.38183   0.38288   0.38424   0.38723
 Alpha virt. eigenvalues --    0.38849   0.39074   0.39164   0.39500   0.39568
 Alpha virt. eigenvalues --    0.39708   0.39827   0.39952   0.40095   0.40227
 Alpha virt. eigenvalues --    0.40288   0.40487   0.40654   0.40839   0.41035
 Alpha virt. eigenvalues --    0.41238   0.41268   0.41633   0.41727   0.41845
 Alpha virt. eigenvalues --    0.42266   0.42391   0.42487   0.42656   0.42821
 Alpha virt. eigenvalues --    0.43042   0.43289   0.43539   0.43768   0.43871
 Alpha virt. eigenvalues --    0.44041   0.44326   0.44540   0.44868   0.44977
 Alpha virt. eigenvalues --    0.45197   0.45344   0.45604   0.45665   0.45809
 Alpha virt. eigenvalues --    0.46063   0.46582   0.46602   0.46812   0.46959
 Alpha virt. eigenvalues --    0.47178   0.47474   0.47568   0.47935   0.48181
 Alpha virt. eigenvalues --    0.48501   0.48648   0.49196   0.49626   0.49732
 Alpha virt. eigenvalues --    0.49843   0.50145   0.50402   0.50694   0.51215
 Alpha virt. eigenvalues --    0.51498   0.51853   0.52151   0.52282   0.52870
 Alpha virt. eigenvalues --    0.53407   0.53503   0.53786   0.54012   0.54504
 Alpha virt. eigenvalues --    0.54976   0.55218   0.55509   0.55997   0.56259
 Alpha virt. eigenvalues --    0.56362   0.56716   0.57044   0.57474   0.57793
 Alpha virt. eigenvalues --    0.58032   0.58370   0.58964   0.59149   0.59945
 Alpha virt. eigenvalues --    0.60087   0.60441   0.60722   0.61033   0.61477
 Alpha virt. eigenvalues --    0.61842   0.62355   0.62596   0.62805   0.62899
 Alpha virt. eigenvalues --    0.63120   0.63446   0.63674   0.63959   0.64556
 Alpha virt. eigenvalues --    0.64626   0.64803   0.65335   0.65544   0.65860
 Alpha virt. eigenvalues --    0.66146   0.66249   0.66403   0.66733   0.67023
 Alpha virt. eigenvalues --    0.67212   0.67465   0.67600   0.68022   0.68122
 Alpha virt. eigenvalues --    0.68195   0.69020   0.69305   0.69570   0.69724
 Alpha virt. eigenvalues --    0.70107   0.70702   0.70904   0.71106   0.71358
 Alpha virt. eigenvalues --    0.71599   0.71695   0.72149   0.72380   0.72580
 Alpha virt. eigenvalues --    0.72947   0.73385   0.73477   0.73896   0.73927
 Alpha virt. eigenvalues --    0.74207   0.74468   0.74725   0.75036   0.75311
 Alpha virt. eigenvalues --    0.75474   0.75842   0.76264   0.76397   0.76775
 Alpha virt. eigenvalues --    0.76945   0.77124   0.77539   0.77903   0.78071
 Alpha virt. eigenvalues --    0.78556   0.78607   0.78956   0.79152   0.79391
 Alpha virt. eigenvalues --    0.79688   0.79986   0.80007   0.80590   0.80742
 Alpha virt. eigenvalues --    0.80934   0.81218   0.81259   0.81471   0.81758
 Alpha virt. eigenvalues --    0.81893   0.82117   0.82462   0.82618   0.82803
 Alpha virt. eigenvalues --    0.83026   0.83172   0.83903   0.83980   0.84138
 Alpha virt. eigenvalues --    0.84336   0.84406   0.84669   0.84769   0.85115
 Alpha virt. eigenvalues --    0.85296   0.85451   0.85693   0.85837   0.86317
 Alpha virt. eigenvalues --    0.86454   0.86493   0.86822   0.87347   0.87497
 Alpha virt. eigenvalues --    0.87763   0.87974   0.88221   0.88422   0.88569
 Alpha virt. eigenvalues --    0.88665   0.89064   0.89087   0.89271   0.89700
 Alpha virt. eigenvalues --    0.89919   0.90187   0.90294   0.90696   0.90893
 Alpha virt. eigenvalues --    0.91134   0.91397   0.91641   0.92125   0.92387
 Alpha virt. eigenvalues --    0.92798   0.93078   0.93439   0.93541   0.94249
 Alpha virt. eigenvalues --    0.94312   0.94718   0.94741   0.95062   0.95149
 Alpha virt. eigenvalues --    0.95290   0.95891   0.96109   0.96505   0.96847
 Alpha virt. eigenvalues --    0.97072   0.97112   0.97697   0.97857   0.98194
 Alpha virt. eigenvalues --    0.98737   0.98917   0.99274   0.99713   1.00228
 Alpha virt. eigenvalues --    1.00751   1.00990   1.01268   1.01732   1.02215
 Alpha virt. eigenvalues --    1.02544   1.03038   1.03394   1.03611   1.04105
 Alpha virt. eigenvalues --    1.04384   1.04585   1.04851   1.05687   1.06225
 Alpha virt. eigenvalues --    1.06346   1.07447   1.07544   1.08292   1.08942
 Alpha virt. eigenvalues --    1.09049   1.09495   1.10334   1.10736   1.11217
 Alpha virt. eigenvalues --    1.11807   1.12195   1.12641   1.12754   1.13309
 Alpha virt. eigenvalues --    1.13432   1.13797   1.14718   1.15097   1.15487
 Alpha virt. eigenvalues --    1.16268   1.16463   1.17348   1.17600   1.17921
 Alpha virt. eigenvalues --    1.18234   1.18643   1.18970   1.19555   1.19749
 Alpha virt. eigenvalues --    1.20745   1.21204   1.21881   1.22297   1.22958
 Alpha virt. eigenvalues --    1.23468   1.23621   1.24015   1.24695   1.24737
 Alpha virt. eigenvalues --    1.24880   1.25589   1.26693   1.26860   1.27411
 Alpha virt. eigenvalues --    1.27923   1.28462   1.28888   1.29487   1.30081
 Alpha virt. eigenvalues --    1.30435   1.31652   1.31810   1.32090   1.32800
 Alpha virt. eigenvalues --    1.33581   1.34081   1.34769   1.34910   1.35822
 Alpha virt. eigenvalues --    1.36157   1.36526   1.37877   1.38139   1.39061
 Alpha virt. eigenvalues --    1.39825   1.40697   1.40731   1.41101   1.41583
 Alpha virt. eigenvalues --    1.42868   1.43122   1.43912   1.44469   1.45022
 Alpha virt. eigenvalues --    1.45226   1.45883   1.46370   1.46867   1.47565
 Alpha virt. eigenvalues --    1.48388   1.48786   1.49588   1.50476   1.50899
 Alpha virt. eigenvalues --    1.51536   1.51976   1.52910   1.53076   1.53597
 Alpha virt. eigenvalues --    1.54219   1.54555   1.54708   1.55244   1.55987
 Alpha virt. eigenvalues --    1.56653   1.57058   1.57556   1.58430   1.58710
 Alpha virt. eigenvalues --    1.58825   1.59491   1.60339   1.60807   1.61056
 Alpha virt. eigenvalues --    1.61848   1.61921   1.62135   1.62647   1.63064
 Alpha virt. eigenvalues --    1.63152   1.63546   1.63876   1.64192   1.64632
 Alpha virt. eigenvalues --    1.64764   1.65349   1.65496   1.65595   1.65911
 Alpha virt. eigenvalues --    1.66198   1.66406   1.67010   1.67364   1.67546
 Alpha virt. eigenvalues --    1.67698   1.67936   1.68425   1.68751   1.69533
 Alpha virt. eigenvalues --    1.69972   1.70197   1.70457   1.71070   1.71218
 Alpha virt. eigenvalues --    1.71477   1.72025   1.72273   1.72400   1.72918
 Alpha virt. eigenvalues --    1.73362   1.73730   1.74089   1.74286   1.74574
 Alpha virt. eigenvalues --    1.74904   1.74999   1.75342   1.75589   1.75933
 Alpha virt. eigenvalues --    1.76345   1.76554   1.77100   1.77240   1.77488
 Alpha virt. eigenvalues --    1.77654   1.78208   1.78588   1.78745   1.79021
 Alpha virt. eigenvalues --    1.79049   1.79649   1.80371   1.80759   1.81093
 Alpha virt. eigenvalues --    1.81385   1.81718   1.82273   1.82439   1.82971
 Alpha virt. eigenvalues --    1.83270   1.83457   1.84041   1.84263   1.84598
 Alpha virt. eigenvalues --    1.84956   1.85110   1.85938   1.86178   1.86687
 Alpha virt. eigenvalues --    1.86846   1.87515   1.87859   1.88580   1.88796
 Alpha virt. eigenvalues --    1.88854   1.89321   1.89507   1.89919   1.90225
 Alpha virt. eigenvalues --    1.90483   1.90666   1.91023   1.91465   1.91742
 Alpha virt. eigenvalues --    1.92085   1.92138   1.92837   1.93397   1.93481
 Alpha virt. eigenvalues --    1.93896   1.94039   1.94436   1.94924   1.95276
 Alpha virt. eigenvalues --    1.95882   1.96513   1.96972   1.97573   1.97914
 Alpha virt. eigenvalues --    1.98264   1.98647   1.98972   1.99503   1.99683
 Alpha virt. eigenvalues --    2.00430   2.00799   2.01162   2.01636   2.02135
 Alpha virt. eigenvalues --    2.02390   2.02741   2.02832   2.03394   2.03720
 Alpha virt. eigenvalues --    2.03939   2.04522   2.04924   2.05018   2.06119
 Alpha virt. eigenvalues --    2.06391   2.06881   2.07081   2.07407   2.07930
 Alpha virt. eigenvalues --    2.08092   2.08640   2.08815   2.09055   2.09901
 Alpha virt. eigenvalues --    2.10060   2.10445   2.11316   2.11824   2.12049
 Alpha virt. eigenvalues --    2.12442   2.12937   2.13518   2.14093   2.14149
 Alpha virt. eigenvalues --    2.14648   2.15276   2.15450   2.15618   2.16030
 Alpha virt. eigenvalues --    2.16558   2.16611   2.16915   2.17285   2.18166
 Alpha virt. eigenvalues --    2.18551   2.19160   2.20032   2.20359   2.20650
 Alpha virt. eigenvalues --    2.21133   2.21994   2.22538   2.22970   2.23585
 Alpha virt. eigenvalues --    2.23686   2.24333   2.25559   2.26366   2.26823
 Alpha virt. eigenvalues --    2.27044   2.28013   2.28447   2.28499   2.29207
 Alpha virt. eigenvalues --    2.29618   2.30740   2.31355   2.32182   2.32611
 Alpha virt. eigenvalues --    2.33052   2.34270   2.34526   2.35542   2.35759
 Alpha virt. eigenvalues --    2.36617   2.36961   2.37174   2.38157   2.39170
 Alpha virt. eigenvalues --    2.39413   2.39829   2.40694   2.41505   2.41607
 Alpha virt. eigenvalues --    2.41819   2.42108   2.42897   2.43021   2.43212
 Alpha virt. eigenvalues --    2.44544   2.45455   2.45935   2.46633   2.47056
 Alpha virt. eigenvalues --    2.47401   2.47879   2.48496   2.49134   2.49916
 Alpha virt. eigenvalues --    2.51179   2.51958   2.52543   2.52904   2.54622
 Alpha virt. eigenvalues --    2.55277   2.55602   2.56156   2.57341   2.58001
 Alpha virt. eigenvalues --    2.59233   2.59327   2.59781   2.60082   2.60528
 Alpha virt. eigenvalues --    2.60895   2.61872   2.62299   2.63072   2.63408
 Alpha virt. eigenvalues --    2.63643   2.64349   2.64857   2.65521   2.65636
 Alpha virt. eigenvalues --    2.65913   2.66712   2.67419   2.67702   2.67942
 Alpha virt. eigenvalues --    2.68408   2.69051   2.69980   2.70375   2.70525
 Alpha virt. eigenvalues --    2.70717   2.71330   2.72402   2.72616   2.72831
 Alpha virt. eigenvalues --    2.73184   2.73722   2.74148   2.74476   2.74747
 Alpha virt. eigenvalues --    2.75322   2.75822   2.76285   2.76549   2.77113
 Alpha virt. eigenvalues --    2.77830   2.78215   2.79141   2.79739   2.80150
 Alpha virt. eigenvalues --    2.80475   2.80857   2.81253   2.81457   2.82237
 Alpha virt. eigenvalues --    2.82812   2.83142   2.84482   2.85104   2.85650
 Alpha virt. eigenvalues --    2.85953   2.86452   2.86765   2.86942   2.87208
 Alpha virt. eigenvalues --    2.87486   2.88211   2.88279   2.88932   2.88940
 Alpha virt. eigenvalues --    2.89578   2.90375   2.91063   2.91508   2.91717
 Alpha virt. eigenvalues --    2.92359   2.92486   2.93185   2.93370   2.93947
 Alpha virt. eigenvalues --    2.94104   2.94604   2.94873   2.95275   2.95600
 Alpha virt. eigenvalues --    2.96340   2.96684   2.97016   2.97428   2.97776
 Alpha virt. eigenvalues --    2.98273   2.98864   2.99116   2.99402   2.99753
 Alpha virt. eigenvalues --    3.00225   3.00598   3.01101   3.01655   3.02244
 Alpha virt. eigenvalues --    3.02643   3.02850   3.03572   3.04466   3.04581
 Alpha virt. eigenvalues --    3.05204   3.05543   3.05828   3.06004   3.06807
 Alpha virt. eigenvalues --    3.07090   3.07570   3.07732   3.08055   3.08815
 Alpha virt. eigenvalues --    3.09669   3.10184   3.10535   3.10544   3.11676
 Alpha virt. eigenvalues --    3.12195   3.13107   3.13865   3.14384   3.15683
 Alpha virt. eigenvalues --    3.16269   3.17094   3.17698   3.18151   3.18942
 Alpha virt. eigenvalues --    3.19550   3.20414   3.20934   3.21195   3.21942
 Alpha virt. eigenvalues --    3.22920   3.23942   3.24936   3.25167   3.25301
 Alpha virt. eigenvalues --    3.25961   3.28089   3.28258   3.28854   3.29012
 Alpha virt. eigenvalues --    3.30094   3.30391   3.31721   3.32502   3.32892
 Alpha virt. eigenvalues --    3.34212   3.34608   3.35112   3.35337   3.36994
 Alpha virt. eigenvalues --    3.37426   3.38241   3.39507   3.40372   3.41352
 Alpha virt. eigenvalues --    3.42629   3.43883   3.44739   3.45654   3.46022
 Alpha virt. eigenvalues --    3.47122   3.47536   3.48088   3.49305   3.49721
 Alpha virt. eigenvalues --    3.51273   3.51503   3.52239   3.53347   3.54554
 Alpha virt. eigenvalues --    3.54990   3.56206   3.60011   3.62919   3.64650
 Alpha virt. eigenvalues --    3.64784   3.66938   3.68824   3.69874   3.73036
 Alpha virt. eigenvalues --    3.73758   3.74669   3.75062   3.76949   3.82571
 Alpha virt. eigenvalues --    3.83915   3.88142   3.89313   3.90736   3.91152
 Alpha virt. eigenvalues --    3.92028   3.92620   3.93186   3.93497   3.93841
 Alpha virt. eigenvalues --    3.94159   3.95223   3.95907   3.96639   3.97694
 Alpha virt. eigenvalues --    3.98458   3.99101   4.00281   4.02737   4.02785
 Alpha virt. eigenvalues --    4.04686   4.05326   4.06499   4.10442   4.10869
 Alpha virt. eigenvalues --    4.13099   4.14442   4.14767   4.15571   4.17599
 Alpha virt. eigenvalues --    4.20071   4.21818   4.22811   4.25662   4.26483
 Alpha virt. eigenvalues --    4.26842   4.27397   4.27997   4.28858   4.29596
 Alpha virt. eigenvalues --    4.30638   4.33669   4.37524   4.41173   4.42793
 Alpha virt. eigenvalues --    4.43223   4.44430   4.47409   4.48136   4.49808
 Alpha virt. eigenvalues --    4.53554   4.56561   4.63526   4.75289   4.85761
 Alpha virt. eigenvalues --    4.94438   4.94816   5.28206   5.31791   5.39697
 Alpha virt. eigenvalues --    5.42102   5.43306   5.48576   5.49577   5.56694
 Alpha virt. eigenvalues --    5.58810   5.60378   5.67789   5.69291   5.72089
 Alpha virt. eigenvalues --    5.77166   5.80082   5.81207   5.83073   5.90179
 Alpha virt. eigenvalues --    7.64088  14.28879  14.34637  14.45723  14.99074
 Alpha virt. eigenvalues --   23.76730  23.82623  23.94290  24.00413  24.01788
 Alpha virt. eigenvalues --   24.02969  24.03423  24.05263  24.06390  24.10161
 Alpha virt. eigenvalues --   24.10554  24.10610  24.11570  24.12230  24.12927
 Alpha virt. eigenvalues --   24.13576  24.13852  24.15150  24.16350  24.18686
 Alpha virt. eigenvalues --   24.19284  24.19789  24.20040  24.20230  24.20940
 Alpha virt. eigenvalues --   24.22312  24.22611  24.23360  24.31653  24.31768
 Alpha virt. eigenvalues --   24.43036  35.74066  50.11078  50.15109  50.17488
 Alpha virt. eigenvalues --   50.19088  50.26043  50.27264 163.90459
          Condensed to atoms (all electrons):
 Mulliken charges:
               1
     1  C    0.414193
     2  C    0.195099
     3  H    0.156001
     4  C   -0.804958
     5  H    0.174062
     6  H    0.149404
     7  H    0.173654
     8  C   -1.034952
     9  H    0.118443
    10  H   -0.068834
    11  H    0.248520
    12  B    1.231677
    13  C   -0.938761
    14  H    0.089451
    15  H    0.165209
    16  H    0.171956
    17  O   -0.031297
    18  O   -0.100716
    19  C    0.077075
    20  C   -0.449891
    21  C   -0.917594
    22  H    0.176422
    23  H    0.187707
    24  H    0.180526
    25  C   -0.256884
    26  H    0.232622
    27  H    0.198797
    28  H   -0.016629
    29  C   -0.417582
    30  H    0.229663
    31  H    0.212107
    32  H    0.157616
    33  C   -0.986485
    34  H   -0.044094
    35  H    0.136405
    36  H    0.272621
    37  P   -0.404323
    38  O   -0.182289
    39  O    0.216128
    40  N   -0.761508
    41  H    0.228888
    42  H    0.470144
    43  Li  -0.330326
    44  C    0.089983
    45  O    0.314805
    46  C   -0.204537
    47  C   -0.316624
    48  C   -0.892230
    49  H    0.210831
    50  H    0.060902
    51  H    0.229482
    52  H    0.144372
    53  H    0.059690
    54  H    0.274703
    55  H    0.219577
    56  H    0.213132
    57  C   -0.044672
    58  O    0.048127
    59  C    0.047559
    60  C   -0.750992
    61  C   -0.413562
    62  H    0.264324
    63  H    0.207450
    64  H    0.231882
    65  H    0.228534
    66  H    0.230565
    67  H    0.237616
    68  H    0.210993
    69  H    0.241167
    70  C   -0.605688
    71  C    0.399912
    72  C    0.093298
    73  C   -0.073524
    74  H    0.346850
    75  C   -0.273549
    76  H    0.292211
    77  C   -0.443192
    78  H    0.296567
    79  H    0.285252
    80  H    0.264450
    81  C   -0.108652
    82  C   -0.059675
    83  C   -0.120814
    84  C   -0.453366
    85  H    0.277526
    86  C   -0.439311
    87  H    0.307292
    88  C   -0.503652
    89  H    0.294503
    90  H    0.293959
    91  H    0.269260
 Sum of Mulliken charges =  -0.00000
 Mulliken charges with hydrogens summed into heavy atoms:
               1
     1  C    0.414193
     2  C    0.351100
     4  C   -0.307838
     8  C   -0.736823
    12  B    1.231677
    13  C   -0.512146
    17  O   -0.031297
    18  O   -0.100716
    19  C    0.077075
    20  C   -0.449891
    21  C   -0.372939
    25  C    0.157906
    29  C    0.181805
    33  C   -0.621554
    37  P   -0.404323
    38  O   -0.182289
    39  O    0.216128
    40  N   -0.062477
    43  Li  -0.330326
    44  C    0.361716
    45  O    0.314805
    46  C    0.169318
    47  C    0.017769
    48  C   -0.459521
    57  C    0.427102
    58  O    0.048127
    59  C    0.507974
    60  C   -0.282812
    61  C    0.038598
    70  C   -0.605688
    71  C    0.746763
    72  C    0.385509
    73  C    0.223043
    75  C    0.011704
    77  C   -0.178742
    81  C   -0.108652
    82  C    0.217851
    83  C    0.186478
    84  C   -0.158863
    86  C   -0.145352
    88  C   -0.234392
 Electronic spatial extent (au):  <R**2>=          21062.8081
 Charge=             -0.0000 electrons
 Dipole moment (field-independent basis, Debye):
    X=             13.6838    Y=              9.9566    Z=             -1.6575  Tot=             17.0038
 Quadrupole moment (field-independent basis, Debye-Ang):
   XX=           -259.2277   YY=           -253.8599   ZZ=           -224.1571
   XY=            -30.5804   XZ=             -9.5717   YZ=             -2.2605
 Traceless Quadrupole moment (field-independent basis, Debye-Ang):
   XX=            -13.4795   YY=             -8.1117   ZZ=             21.5912
   XY=            -30.5804   XZ=             -9.5717   YZ=             -2.2605
 Octapole moment (field-independent basis, Debye-Ang**2):
  XXX=            374.1652  YYY=            165.8679  ZZZ=            -23.6846  XYY=             82.5366
  XXY=             89.4456  XXZ=              8.0908  XZZ=            122.7581  YZZ=             40.4678
  YYZ=            -31.8077  XYZ=            -21.7049
 Hexadecapole moment (field-independent basis, Debye-Ang**3):
 XXXX=         -15645.9759 YYYY=          -5445.2556 ZZZZ=          -7262.6238 XXXY=          -1151.3714
 XXXZ=            635.5956 YYYX=           -771.7358 YYYZ=            968.3055 ZZZX=            566.0084
 ZZZY=            826.4676 XXYY=          -3698.8708 XXZZ=          -3473.3426 YYZZ=          -2159.6288
 XXYZ=            193.5228 YYXZ=             49.4083 ZZXY=           -216.6184
 N-N= 5.678786595080D+03 E-N=-1.625069958705D+04  KE= 2.083061434119D+03
 Unable to Open any file for archive entry.
 1\1\GINC-NODE08\SP\RwB97XD\6-311++G(d,p)\C31H50B1Li1N1O6P1\WHUGHES2\08
 -Oct-2025\0\\# wb97xd/6-311++g** nosymm int=ultrafine scrf=(smd,solven
 t=tetrahydrofuran)\\r1-phosphine-2thf-full-c7_tzpop-sp\\0,1\C,0,-4.023
 ,-0.8801,-0.7662\C,0,-5.3109,-0.9721,-0.3896\H,0,-5.5465,-1.7274,0.362
 4\C,0,-6.5052,-0.1766,-0.8525\H,0,-7.0028,0.3123,-0.0023\H,0,-6.2587,0
 .6009,-1.5827\H,0,-7.2578,-0.8318,-1.3143\C,0,-3.5842,0.0993,-1.8326\H
 ,0,-4.2917,0.9171,-2.0162\H,0,-2.6195,0.5566,-1.5881\H,0,-3.4373,-0.42
 24,-2.7892\B,0,-2.8885,-1.9178,-0.1849\C,0,-2.312,-2.8494,-1.4054\H,0,
 -1.5859,-3.5969,-1.047\H,0,-3.1264,-3.4087,-1.8924\H,0,-1.8203,-2.2635
 ,-2.1994\O,0,-1.7298,-1.1437,0.4932\O,0,-3.3861,-2.7657,0.9224\C,0,-2.
 9636,-2.2548,2.1647\C,0,-1.5699,-1.615,1.8362\C,0,-2.8971,-3.4066,3.16
 93\H,0,-2.4541,-3.0856,4.1206\H,0,-3.9114,-3.7687,3.3756\H,0,-2.3164,-
 4.2463,2.7774\C,0,-3.9644,-1.2183,2.7058\H,0,-4.96,-1.6741,2.7454\H,0,
 -3.6991,-0.8936,3.7195\H,0,-4.0261,-0.3392,2.0607\C,0,-0.4439,-2.6552,
 1.8761\H,0,-0.2786,-3.0313,2.892\H,0,-0.6673,-3.5071,1.2251\H,0,0.4943
 ,-2.2017,1.5443\C,0,-1.1892,-0.4475,2.7428\H,0,-0.22,-0.0387,2.4382\H,
 0,-1.9243,0.3568,2.685\H,0,-1.113,-0.7764,3.7868\P,0,2.2797,-0.2107,0.
 0125\O,0,1.1177,0.5935,0.5206\O,0,1.9169,-1.7649,-0.3114\N,0,0.7918,-1
 .8319,-1.2209\H,0,-0.0273,-1.9116,-0.6066\H,0,0.9166,-2.7477,-1.6505\L
 i,0,-0.7548,0.4353,-0.123\C,0,-0.3111,2.5022,-2.1907\O,0,-0.4225,1.082
 1,-2.0392\C,0,-0.4169,0.4698,-3.3277\C,0,0.485,1.3609,-4.1672\C,0,0.12
 9,2.7588,-3.6427\H,0,-1.279,2.9646,-1.9646\H,0,0.4194,2.8472,-1.4534\H
 ,0,-0.0526,-0.55,-3.1969\H,0,-1.439,0.4471,-3.7326\H,0,1.5338,1.124,-3
 .967\H,0,0.3009,1.249,-5.2396\H,0,0.972,3.4536,-3.697\H,0,-0.6979,3.18
 48,-4.2206\C,0,-2.9826,2.2639,0.8108\O,0,-1.5876,2.0716,0.581\C,0,-0.9
 024,3.1243,1.2492\C,0,-1.6524,3.2945,2.5705\C,0,-3.0988,2.875,2.2192\H
 ,0,-3.3791,2.9451,0.0447\H,0,-3.4661,1.2914,0.7021\H,0,0.1405,2.8201,1
 .3553\H,0,-0.9553,4.0387,0.6381\H,0,-1.2297,2.6278,3.3283\H,0,-1.5882,
 4.3198,2.9454\H,0,-3.4842,2.1445,2.9365\H,0,-3.782,3.729,2.2149\C,0,3.
 5485,-0.4409,1.2713\C,0,3.2029,-0.2136,2.6077\C,0,4.8457,-0.8498,0.943
 2\C,0,4.1503,-0.4013,3.6111\H,0,2.1977,0.1125,2.8592\C,0,5.7885,-1.037
 4,1.9501\H,0,5.1265,-1.0177,-0.0934\C,0,5.4409,-0.814,3.2826\H,0,3.880
 5,-0.2241,4.6483\H,0,6.7955,-1.3541,1.6942\H,0,6.1797,-0.9583,4.0661\C
 ,0,3.0342,0.474,-1.4737\C,0,3.5584,-0.3474,-2.4762\C,0,3.1569,1.864,-1
 .5733\C,0,4.2001,0.2215,-3.574\H,0,3.464,-1.4271,-2.4047\C,0,3.8027,2.
 4283,-2.6697\H,0,2.7484,2.504,-0.796\C,0,4.3245,1.6072,-3.6694\H,0,4.6
 006,-0.4178,-4.3555\H,0,3.8958,3.5078,-2.7454\H,0,4.8257,2.0487,-4.526
 3\\Version=AS64L-G16RevC.01\HF=-2091.3892803\RMSD=4.265e-09\Dipole=5.3
 83618,3.9172336,-0.6521141\Quadrupole=-10.0216576,-6.0308404,16.052498
 ,-22.7358025,-7.1162931,-1.6806388\PG=C01 [X(C31H50B1Li1N1O6P1)]\\@
 The archive entry for this job was punched.


 CHRISTMAS IS ON TOP OF A STEEP HILL.
 THE CLOSER YOU GET, THE STEEPER THE HILL IS.
          -- LINUS, OF PEANUTS
 Job cpu time:       0 days  9 hours  5 minutes  1.1 seconds.
 Elapsed time:       0 days  2 hours 17 minutes 32.1 seconds.
 File lengths (MBytes):  RWF=   1320 Int=      0 D2E=      0 Chk=     95 Scr=      1
 Normal termination of Gaussian 16 at Wed Oct  8 18:57:43 2025.
