Job Start Time: Wed Oct  8 16:33:57 MDT 2025
SLURM Job ID: 768207
SLURM Job Name: r1-phosphine-2thf-full-c2_tzpop-sp
 Entering Gaussian System, Link 0=/opt/apps/Gaussian/G16C/g16/g16
 Initial command:
 /opt/apps/Gaussian/G16C/g16/l1.exe "/tmp/768207/Gau-246729.inp" -scrdir="/tmp/768207/"
 Entering Link 1 = /opt/apps/Gaussian/G16C/g16/l1.exe PID=    246730.
  
 Copyright (c) 1988-2019, Gaussian, Inc.  All Rights Reserved.
  
 This is part of the Gaussian(R) 16 program.  It is based on
 the Gaussian(R) 09 system (copyright 2009, Gaussian, Inc.),
 the Gaussian(R) 03 system (copyright 2003, Gaussian, Inc.),
 the Gaussian(R) 98 system (copyright 1998, Gaussian, Inc.),
 the Gaussian(R) 94 system (copyright 1995, Gaussian, Inc.),
 the Gaussian 92(TM) system (copyright 1992, Gaussian, Inc.),
 the Gaussian 90(TM) system (copyright 1990, Gaussian, Inc.),
 the Gaussian 88(TM) system (copyright 1988, Gaussian, Inc.),
 the Gaussian 86(TM) system (copyright 1986, Carnegie Mellon
 University), and the Gaussian 82(TM) system (copyright 1983,
 Carnegie Mellon University). Gaussian is a federally registered
 trademark of Gaussian, Inc.
  
 This software contains proprietary and confidential information,
 including trade secrets, belonging to Gaussian, Inc.
  
 This software is provided under written license and may be
 used, copied, transmitted, or stored only in accord with that
 written license.
  
 The following legend is applicable only to US Government
 contracts under FAR:
  
                    RESTRICTED RIGHTS LEGEND
  
 Use, reproduction and disclosure by the US Government is
 subject to restrictions as set forth in subparagraphs (a)
 and (c) of the Commercial Computer Software - Restricted
 Rights clause in FAR 52.227-19.
  
 Gaussian, Inc.
 340 Quinnipiac St., Bldg. 40, Wallingford CT 06492
  
  
 ---------------------------------------------------------------
 Warning -- This program may not be used in any manner that
 competes with the business of Gaussian, Inc. or will provide
 assistance to any competitor of Gaussian, Inc.  The licensee
 of this program is prohibited from giving any competitor of
 Gaussian, Inc. access to this program.  By using this program,
 the user acknowledges that Gaussian, Inc. is engaged in the
 business of creating and licensing software in the field of
 computational chemistry and represents and warrants to the
 licensee that it is not a competitor of Gaussian, Inc. and that
 it will not use this program in any manner prohibited above.
 ---------------------------------------------------------------
  

 Cite this work as:
 Gaussian 16, Revision C.01,
 M. J. Frisch, G. W. Trucks, H. B. Schlegel, G. E. Scuseria, 
 M. A. Robb, J. R. Cheeseman, G. Scalmani, V. Barone, 
 G. A. Petersson, H. Nakatsuji, X. Li, M. Caricato, A. V. Marenich, 
 J. Bloino, B. G. Janesko, R. Gomperts, B. Mennucci, H. P. Hratchian, 
 J. V. Ortiz, A. F. Izmaylov, J. L. Sonnenberg, D. Williams-Young, 
 F. Ding, F. Lipparini, F. Egidi, J. Goings, B. Peng, A. Petrone, 
 T. Henderson, D. Ranasinghe, V. G. Zakrzewski, J. Gao, N. Rega, 
 G. Zheng, W. Liang, M. Hada, M. Ehara, K. Toyota, R. Fukuda, 
 J. Hasegawa, M. Ishida, T. Nakajima, Y. Honda, O. Kitao, H. Nakai, 
 T. Vreven, K. Throssell, J. A. Montgomery, Jr., J. E. Peralta, 
 F. Ogliaro, M. J. Bearpark, J. J. Heyd, E. N. Brothers, K. N. Kudin, 
 V. N. Staroverov, T. A. Keith, R. Kobayashi, J. Normand, 
 K. Raghavachari, A. P. Rendell, J. C. Burant, S. S. Iyengar, 
 J. Tomasi, M. Cossi, J. M. Millam, M. Klene, C. Adamo, R. Cammi, 
 J. W. Ochterski, R. L. Martin, K. Morokuma, O. Farkas, 
 J. B. Foresman, and D. J. Fox, Gaussian, Inc., Wallingford CT, 2019.
 
 ******************************************
 Gaussian 16:  AS64L-G16RevC.01  3-Jul-2019
                 8-Oct-2025 
 ******************************************
 %chk=r1-phosphine-2thf-full-c2_tzpop-sp.chk
 %nprocshared=4
 Will use up to    4 processors via shared memory.
 %mem=8GB
 ----------------------------------------------------------------------
 # wb97xd/6-311++g** nosymm int=ultrafine scrf=(smd,solvent=tetrahydrof
 uran)
 ----------------------------------------------------------------------
 1/38=1,172=1/1;
 2/12=2,15=1,17=6,18=5,40=1/2;
 3/5=4,6=6,7=1111,11=2,25=1,30=1,70=32201,72=20,74=-58,75=-5/1,2,3;
 4//1;
 5/5=2,38=5,53=20/2;
 6/7=2,8=2,9=2,10=2,28=1/1;
 99/5=1,9=1/99;
 ----------------------------------
 r1-phosphine-2thf-full-c2_tzpop-sp
 ----------------------------------
 Symbolic Z-matrix:
 Charge =  0 Multiplicity = 1
 C                    -1.0268   -1.8305    2.1482 
 C                    -0.0932   -0.9579    2.5592 
 H                    -0.0798    0.0441    2.1301 
 C                     0.9742   -1.2344    3.5946 
 H                     0.5806   -1.7973    4.4506 
 H                     1.8151   -1.8169    3.1872 
 H                     1.4007   -0.3037    3.9842 
 C                    -1.0233   -3.2315    2.7436 
 H                    -1.5602   -3.2581    3.7038 
 H                    -1.527    -3.9413    2.0783 
 H                    -0.0114   -3.6128    2.9365 
 B                    -2.2805   -1.5545    1.143 
 C                    -3.642    -1.5796    2.0886 
 H                    -3.8093   -2.5842    2.5088 
 H                    -3.5535   -0.8954    2.9481 
 H                    -4.569    -1.302     1.5691 
 O                    -2.2142   -0.2977    0.2923 
 O                    -2.2952   -2.6168    0.0884 
 C                    -2.955    -2.1413   -1.0617 
 C                    -2.8803   -0.5472   -0.9466 
 C                    -4.391    -2.6923   -1.1028 
 H                    -4.9394   -2.3423   -1.9861 
 H                    -4.345    -3.7868   -1.1466 
 H                    -4.9611   -2.4228   -0.2114 
 C                    -2.2225   -2.7113   -2.2834 
 H                    -1.1828   -2.3788   -2.3253 
 H                    -2.223    -3.8055   -2.2135 
 H                    -2.7117   -2.4336   -3.2246 
 C                    -4.2483    0.1526   -0.9255 
 H                    -4.9022   -0.2221   -0.1364 
 H                    -4.0893    1.2219   -0.7422 
 H                    -4.7697    0.0495   -1.8851 
 C                    -2.0769    0.1001   -2.0802 
 H                    -1.0482   -0.2612   -2.1094 
 H                    -2.5419   -0.088    -3.0544 
 H                    -2.054     1.1831   -1.9345 
 P                     1.6283   -0.2224   -0.6572 
 O                     0.9571    1.1133   -0.4829 
 O                     0.4554   -1.3172   -0.5552 
 N                     0.7433   -2.7066   -0.3068 
 H                     0.9468   -2.7188    0.6977 
 H                    -0.2225   -3.0607   -0.3381 
 Li                   -0.9534    1.2073    0.2112 
 C                    -2.425     3.8119   -0.5504 
 O                    -1.2618    3.0186   -0.7557 
 C                    -0.6745    3.4568   -1.9788 
 C                    -1.8475    3.8479   -2.8965 
 C                    -3.0569    3.9499   -1.9375 
 H                    -3.0507    3.3006    0.1841 
 H                    -2.1302    4.7922   -0.1462 
 H                    -0.025     4.319    -1.7711 
 H                    -0.0601    2.6372   -2.3548 
 H                    -1.6449    4.7947   -3.4052 
 H                    -2.0182    3.0867   -3.6632 
 H                    -3.6031    4.8915   -2.0422 
 H                    -3.7593    3.1298   -2.1153 
 C                    -0.1169    3.1449    2.2703 
 O                    -1.1327    2.2117    1.9211 
 C                    -1.8644    1.9213    3.1107 
 C                    -0.8528    2.0181    4.2687 
 C                     0.3981    2.6545    3.6222 
 H                     0.6241    3.1405    1.4685 
 H                    -0.5555    4.1514    2.3482 
 H                    -2.6696    2.6613    3.2186 
 H                    -2.3028    0.9309    2.9845 
 H                    -1.2496    2.6371    5.0786 
 H                    -0.6277    1.0298    4.6786 
 H                     0.8213    3.4662    4.2207 
 H                     1.1771    1.9004    3.4707 
 C                     2.8832   -0.5148    0.6049 
 C                     3.0896    0.4772    1.5676 
 C                     3.668    -1.674     0.6145 
 C                     4.0702    0.3088    2.5416 
 H                     2.4804    1.3763    1.5505 
 C                     4.6371   -1.845     1.5991 
 H                     3.5259   -2.4389   -0.1446 
 C                     4.8386   -0.8538    2.5611 
 H                     4.2279    1.0812    3.289 
 H                     5.2401   -2.7483    1.6115 
 H                     5.5998   -0.9882    3.3247 
 C                     2.4097   -0.4563   -2.2677 
 C                     1.8008   -1.2483   -3.2454 
 C                     3.6143    0.199    -2.5513 
 C                     2.3913   -1.38     -4.5007 
 H                     0.8732   -1.7682   -3.0275 
 C                     4.1995    0.0673   -3.807 
 H                     4.0985    0.8091   -1.7921 
 C                     3.5874   -0.7221   -4.7818 
 H                     1.9173   -1.9995   -5.2567 
 H                     5.1335    0.5775   -4.0244 
 H                     4.047    -0.8276   -5.7607 
 
 Symmetry turned off by external request.
 Stoichiometry    C31H50BLiNO6P
 Framework group  C1[X(C31H50BLiNO6P)]
 Deg. of freedom   267
 Full point group                 C1      NOp   1
                          Input orientation:                          
 ---------------------------------------------------------------------
 Center     Atomic      Atomic             Coordinates (Angstroms)
 Number     Number       Type             X           Y           Z
 ---------------------------------------------------------------------
      1          6           0       -1.026800   -1.830500    2.148200
      2          6           0       -0.093200   -0.957900    2.559200
      3          1           0       -0.079800    0.044100    2.130100
      4          6           0        0.974200   -1.234400    3.594600
      5          1           0        0.580600   -1.797300    4.450600
      6          1           0        1.815100   -1.816900    3.187200
      7          1           0        1.400700   -0.303700    3.984200
      8          6           0       -1.023300   -3.231500    2.743600
      9          1           0       -1.560200   -3.258100    3.703800
     10          1           0       -1.527000   -3.941300    2.078300
     11          1           0       -0.011400   -3.612800    2.936500
     12          5           0       -2.280500   -1.554500    1.143000
     13          6           0       -3.642000   -1.579600    2.088600
     14          1           0       -3.809300   -2.584200    2.508800
     15          1           0       -3.553500   -0.895400    2.948100
     16          1           0       -4.569000   -1.302000    1.569100
     17          8           0       -2.214200   -0.297700    0.292300
     18          8           0       -2.295200   -2.616800    0.088400
     19          6           0       -2.955000   -2.141300   -1.061700
     20          6           0       -2.880300   -0.547200   -0.946600
     21          6           0       -4.391000   -2.692300   -1.102800
     22          1           0       -4.939400   -2.342300   -1.986100
     23          1           0       -4.345000   -3.786800   -1.146600
     24          1           0       -4.961100   -2.422800   -0.211400
     25          6           0       -2.222500   -2.711300   -2.283400
     26          1           0       -1.182800   -2.378800   -2.325300
     27          1           0       -2.223000   -3.805500   -2.213500
     28          1           0       -2.711700   -2.433600   -3.224600
     29          6           0       -4.248300    0.152600   -0.925500
     30          1           0       -4.902200   -0.222100   -0.136400
     31          1           0       -4.089300    1.221900   -0.742200
     32          1           0       -4.769700    0.049500   -1.885100
     33          6           0       -2.076900    0.100100   -2.080200
     34          1           0       -1.048200   -0.261200   -2.109400
     35          1           0       -2.541900   -0.088000   -3.054400
     36          1           0       -2.054000    1.183100   -1.934500
     37         15           0        1.628300   -0.222400   -0.657200
     38          8           0        0.957100    1.113300   -0.482900
     39          8           0        0.455400   -1.317200   -0.555200
     40          7           0        0.743300   -2.706600   -0.306800
     41          1           0        0.946800   -2.718800    0.697700
     42          1           0       -0.222500   -3.060700   -0.338100
     43          3           0       -0.953400    1.207300    0.211200
     44          6           0       -2.425000    3.811900   -0.550400
     45          8           0       -1.261800    3.018600   -0.755700
     46          6           0       -0.674500    3.456800   -1.978800
     47          6           0       -1.847500    3.847900   -2.896500
     48          6           0       -3.056900    3.949900   -1.937500
     49          1           0       -3.050700    3.300600    0.184100
     50          1           0       -2.130200    4.792200   -0.146200
     51          1           0       -0.025000    4.319000   -1.771100
     52          1           0       -0.060100    2.637200   -2.354800
     53          1           0       -1.644900    4.794700   -3.405200
     54          1           0       -2.018200    3.086700   -3.663200
     55          1           0       -3.603100    4.891500   -2.042200
     56          1           0       -3.759300    3.129800   -2.115300
     57          6           0       -0.116900    3.144900    2.270300
     58          8           0       -1.132700    2.211700    1.921100
     59          6           0       -1.864400    1.921300    3.110700
     60          6           0       -0.852800    2.018100    4.268700
     61          6           0        0.398100    2.654500    3.622200
     62          1           0        0.624100    3.140500    1.468500
     63          1           0       -0.555500    4.151400    2.348200
     64          1           0       -2.669600    2.661300    3.218600
     65          1           0       -2.302800    0.930900    2.984500
     66          1           0       -1.249600    2.637100    5.078600
     67          1           0       -0.627700    1.029800    4.678600
     68          1           0        0.821300    3.466200    4.220700
     69          1           0        1.177100    1.900400    3.470700
     70          6           0        2.883200   -0.514800    0.604900
     71          6           0        3.089600    0.477200    1.567600
     72          6           0        3.668000   -1.674000    0.614500
     73          6           0        4.070200    0.308800    2.541600
     74          1           0        2.480400    1.376300    1.550500
     75          6           0        4.637100   -1.845000    1.599100
     76          1           0        3.525900   -2.438900   -0.144600
     77          6           0        4.838600   -0.853800    2.561100
     78          1           0        4.227900    1.081200    3.289000
     79          1           0        5.240100   -2.748300    1.611500
     80          1           0        5.599800   -0.988200    3.324700
     81          6           0        2.409700   -0.456300   -2.267700
     82          6           0        1.800800   -1.248300   -3.245400
     83          6           0        3.614300    0.199000   -2.551300
     84          6           0        2.391300   -1.380000   -4.500700
     85          1           0        0.873200   -1.768200   -3.027500
     86          6           0        4.199500    0.067300   -3.807000
     87          1           0        4.098500    0.809100   -1.792100
     88          6           0        3.587400   -0.722100   -4.781800
     89          1           0        1.917300   -1.999500   -5.256700
     90          1           0        5.133500    0.577500   -4.024400
     91          1           0        4.047000   -0.827600   -5.760700
 ---------------------------------------------------------------------
 Rotational constants (GHZ):           0.0937535           0.0796613           0.0722245
 Standard basis: 6-311++G(d,p) (5D, 7F)
  1260 basis functions,  1940 primitive gaussians,  1301 cartesian basis functions
   157 alpha electrons      157 beta electrons
       nuclear repulsion energy      5770.6996898486 Hartrees.
 NAtoms=   91 NActive=   91 NUniq=   91 SFac= 1.00D+00 NAtFMM=   60 NAOKFM=T Big=T
 Integral buffers will be    131072 words long.
 Raffenetti 2 integral format.
 Two-electron integral symmetry is turned off.
 Nuclear repulsion after empirical dispersion term =     5770.5798343683 Hartrees.
 ------------------------------------------------------------------------------
 Polarizable Continuum Model (PCM)
 =================================
 Model                : PCM.
 Atomic radii         : SMD-Coulomb.
 Polarization charges : Total charges.
 Charge compensation  : None.
 Solution method      : On-the-fly selection.
 Cavity type          : VdW (van der Waals Surface) (Alpha=1.000).
 Cavity algorithm     : GePol (No added spheres)
                        Default sphere list used, NSphG=   91.
                        Lebedev-Laikov grids with approx.  5.0 points / Ang**2.
                        Smoothing algorithm: York/Karplus (Gamma=1.0000).
                        Polarization charges: spherical gaussians, with
                                              point-specific exponents (IZeta= 3).
                        Self-potential: point-specific (ISelfS= 7).
                        Self-field    : sphere-specific E.n sum rule (ISelfD= 2).
 Solvent              : TetraHydroFuran, Eps=   7.425700 Eps(inf)=   1.974025
 ------------------------------------------------------------------------------
 ------------------------------------------------------------------------------
 Atomic radii for non-electrostatic terms: SMD-CDS.
 ------------------------------------------------------------------------------
 Nuclear repulsion after PCM non-electrostatic terms =     5770.5718352389 Hartrees.
 One-electron integrals computed using PRISM.
 NBasis=  1260 RedAO= T EigKep=  1.03D-06  NBF=  1260
 NBsUse=  1251 1.00D-06 EigRej=  7.73D-07 NBFU=  1251
 ExpMin= 7.40D-03 ExpMax= 7.75D+04 ExpMxC= 2.65D+03 IAcc=3 IRadAn=         5 AccDes= 0.00D+00
 Harris functional with IExCor= 4639 and IRadAn=       5 diagonalized for initial guess.
 HarFok:  IExCor= 4639 AccDes= 0.00D+00 IRadAn=         5 IDoV= 1 UseB2=F ITyADJ=14
 ICtDFT=  3500011 ScaDFX=  1.000000  1.000000  1.000000  1.000000
 FoFCou: FMM=F IPFlag=           0 FMFlag=      100000 FMFlg1=        2001
         NFxFlg=           0 DoJE=T BraDBF=F KetDBF=T FulRan=T
         wScrn=  0.000000 ICntrl=       500 IOpCl=  0 I1Cent=   200000004 NGrid=           0
         NMat0=    1 NMatS0=      1 NMatT0=    0 NMatD0=    1 NMtDS0=    0 NMtDT0=    0
 Symmetry not used in FoFCou.
 Requested convergence on RMS density matrix=1.00D-08 within 128 cycles.
 Requested convergence on MAX density matrix=1.00D-06.
 Requested convergence on             energy=1.00D-06.
 No special actions if energy rises.
 Inv3:  Mode=1 IEnd=    89140203.
 Iteration    1 A*A^-1 deviation from unit magnitude is 6.44D-15 for   5428.
 Iteration    1 A*A^-1 deviation from orthogonality  is 4.06D-15 for   5428   4062.
 Iteration    1 A^-1*A deviation from unit magnitude is 6.44D-15 for   5428.
 Iteration    1 A^-1*A deviation from orthogonality  is 4.58D-15 for   4113   4070.
 Error on total polarization charges =  0.07933
 SCF Done:  E(RwB97XD) =  -2091.37116940     A.U. after   17 cycles
            NFock= 17  Conv=0.26D-08     -V/T= 2.0040
 SMD-CDS (non-electrostatic) energy       (kcal/mol) =      -5.02
 (included in total energy above)

 **********************************************************************

            Population analysis using the SCF Density.

 **********************************************************************

 Alpha  occ. eigenvalues --  -77.31518 -19.28927 -19.25490 -19.25398 -19.21374
 Alpha  occ. eigenvalues --  -19.19036 -19.17865 -14.47179 -10.32164 -10.32153
 Alpha  occ. eigenvalues --  -10.31914 -10.31796 -10.31754 -10.31355 -10.30756
 Alpha  occ. eigenvalues --  -10.30710 -10.30477 -10.30439 -10.30338 -10.30318
 Alpha  occ. eigenvalues --  -10.30047 -10.29946 -10.29754 -10.29702 -10.29678
 Alpha  occ. eigenvalues --  -10.29628 -10.27562 -10.27551 -10.27525 -10.27338
 Alpha  occ. eigenvalues --  -10.25558 -10.24990 -10.24986 -10.24903 -10.24760
 Alpha  occ. eigenvalues --  -10.24630 -10.24162 -10.22818 -10.20584  -6.80370
 Alpha  occ. eigenvalues --   -6.75949  -4.90823  -4.90562  -4.90494  -1.99570
 Alpha  occ. eigenvalues --   -1.18722  -1.15048  -1.14667  -1.09655  -1.08284
 Alpha  occ. eigenvalues --   -1.03459  -0.97385  -0.97013  -0.92146  -0.87525
 Alpha  occ. eigenvalues --   -0.87478  -0.87336  -0.87156  -0.86274  -0.85898
 Alpha  occ. eigenvalues --   -0.85795  -0.85645  -0.83300  -0.83222  -0.81829
 Alpha  occ. eigenvalues --   -0.79030  -0.78158  -0.74949  -0.74398  -0.73959
 Alpha  occ. eigenvalues --   -0.71889  -0.71234  -0.70983  -0.70414  -0.68928
 Alpha  occ. eigenvalues --   -0.68760  -0.68222  -0.68044  -0.67922  -0.66545
 Alpha  occ. eigenvalues --   -0.62851  -0.62267  -0.60873  -0.59858  -0.59557
 Alpha  occ. eigenvalues --   -0.59389  -0.58664  -0.58222  -0.58138  -0.57358
 Alpha  occ. eigenvalues --   -0.56866  -0.56145  -0.55151  -0.54927  -0.54644
 Alpha  occ. eigenvalues --   -0.53906  -0.53675  -0.53483  -0.52499  -0.52064
 Alpha  occ. eigenvalues --   -0.51751  -0.51607  -0.51432  -0.50841  -0.50418
 Alpha  occ. eigenvalues --   -0.50024  -0.49915  -0.49137  -0.48936  -0.48457
 Alpha  occ. eigenvalues --   -0.48148  -0.47894  -0.47299  -0.47180  -0.46906
 Alpha  occ. eigenvalues --   -0.46740  -0.46616  -0.46161  -0.45768  -0.45513
 Alpha  occ. eigenvalues --   -0.45309  -0.44479  -0.44251  -0.44187  -0.44091
 Alpha  occ. eigenvalues --   -0.43568  -0.43376  -0.43210  -0.43118  -0.42612
 Alpha  occ. eigenvalues --   -0.42568  -0.42407  -0.42125  -0.41633  -0.41450
 Alpha  occ. eigenvalues --   -0.41189  -0.40899  -0.40519  -0.40234  -0.40099
 Alpha  occ. eigenvalues --   -0.40006  -0.39829  -0.39250  -0.37509  -0.36269
 Alpha  occ. eigenvalues --   -0.35329  -0.35228  -0.34586  -0.34558  -0.34399
 Alpha  occ. eigenvalues --   -0.34265  -0.34092  -0.33732  -0.33641  -0.30272
 Alpha  occ. eigenvalues --   -0.28418  -0.27342
 Alpha virt. eigenvalues --    0.02131   0.02280   0.02560   0.02640   0.02703
 Alpha virt. eigenvalues --    0.02756   0.03983   0.04944   0.05275   0.05506
 Alpha virt. eigenvalues --    0.05743   0.05885   0.06185   0.06805   0.06966
 Alpha virt. eigenvalues --    0.07097   0.07224   0.07313   0.07501   0.07598
 Alpha virt. eigenvalues --    0.07781   0.07878   0.08015   0.08178   0.08686
 Alpha virt. eigenvalues --    0.08871   0.09104   0.09193   0.09263   0.09718
 Alpha virt. eigenvalues --    0.09901   0.10268   0.10510   0.10822   0.10952
 Alpha virt. eigenvalues --    0.11199   0.11304   0.11504   0.12010   0.12222
 Alpha virt. eigenvalues --    0.12468   0.12541   0.12884   0.12977   0.13170
 Alpha virt. eigenvalues --    0.13386   0.13650   0.13758   0.13897   0.14012
 Alpha virt. eigenvalues --    0.14157   0.14526   0.14586   0.14881   0.15021
 Alpha virt. eigenvalues --    0.15114   0.15554   0.15728   0.15862   0.16009
 Alpha virt. eigenvalues --    0.16133   0.16393   0.16432   0.16575   0.16814
 Alpha virt. eigenvalues --    0.16892   0.17044   0.17149   0.17475   0.17660
 Alpha virt. eigenvalues --    0.17694   0.17718   0.17852   0.17901   0.18200
 Alpha virt. eigenvalues --    0.18377   0.18507   0.18589   0.18844   0.18996
 Alpha virt. eigenvalues --    0.19121   0.19307   0.19320   0.19409   0.19577
 Alpha virt. eigenvalues --    0.19774   0.19970   0.20024   0.20158   0.20170
 Alpha virt. eigenvalues --    0.20280   0.20448   0.20577   0.20759   0.20850
 Alpha virt. eigenvalues --    0.20886   0.21019   0.21258   0.21419   0.21485
 Alpha virt. eigenvalues --    0.21664   0.21753   0.21965   0.22204   0.22223
 Alpha virt. eigenvalues --    0.22325   0.22604   0.22653   0.22796   0.22857
 Alpha virt. eigenvalues --    0.23096   0.23286   0.23388   0.23475   0.23595
 Alpha virt. eigenvalues --    0.23661   0.23793   0.23945   0.24006   0.24168
 Alpha virt. eigenvalues --    0.24194   0.24324   0.24571   0.24693   0.24845
 Alpha virt. eigenvalues --    0.24997   0.25049   0.25273   0.25431   0.25541
 Alpha virt. eigenvalues --    0.25839   0.25946   0.26052   0.26135   0.26312
 Alpha virt. eigenvalues --    0.26465   0.26584   0.26753   0.26885   0.26980
 Alpha virt. eigenvalues --    0.27073   0.27254   0.27396   0.27620   0.27723
 Alpha virt. eigenvalues --    0.27810   0.28056   0.28148   0.28264   0.28389
 Alpha virt. eigenvalues --    0.28504   0.28580   0.28766   0.29068   0.29190
 Alpha virt. eigenvalues --    0.29234   0.29410   0.29530   0.29738   0.29859
 Alpha virt. eigenvalues --    0.30052   0.30139   0.30372   0.30621   0.30689
 Alpha virt. eigenvalues --    0.30895   0.31022   0.31214   0.31327   0.31430
 Alpha virt. eigenvalues --    0.31655   0.31823   0.31920   0.32245   0.32326
 Alpha virt. eigenvalues --    0.32396   0.32619   0.32724   0.32928   0.33111
 Alpha virt. eigenvalues --    0.33315   0.33438   0.33684   0.33754   0.33862
 Alpha virt. eigenvalues --    0.34055   0.34403   0.34505   0.34571   0.34616
 Alpha virt. eigenvalues --    0.34972   0.35204   0.35407   0.35416   0.35575
 Alpha virt. eigenvalues --    0.35614   0.35806   0.36054   0.36151   0.36456
 Alpha virt. eigenvalues --    0.36615   0.36678   0.36890   0.36981   0.37273
 Alpha virt. eigenvalues --    0.37353   0.37752   0.37816   0.38013   0.38220
 Alpha virt. eigenvalues --    0.38294   0.38445   0.38575   0.38642   0.39043
 Alpha virt. eigenvalues --    0.39231   0.39378   0.39470   0.39772   0.39892
 Alpha virt. eigenvalues --    0.39962   0.40232   0.40359   0.40590   0.40627
 Alpha virt. eigenvalues --    0.40724   0.40887   0.41114   0.41219   0.41441
 Alpha virt. eigenvalues --    0.41523   0.41843   0.42025   0.42380   0.42477
 Alpha virt. eigenvalues --    0.42636   0.42859   0.43108   0.43420   0.43460
 Alpha virt. eigenvalues --    0.43615   0.43854   0.44036   0.44146   0.44452
 Alpha virt. eigenvalues --    0.44553   0.44827   0.44909   0.45021   0.45252
 Alpha virt. eigenvalues --    0.45312   0.45514   0.45789   0.45972   0.46006
 Alpha virt. eigenvalues --    0.46246   0.46366   0.46532   0.46946   0.47249
 Alpha virt. eigenvalues --    0.47435   0.47636   0.47967   0.48005   0.48179
 Alpha virt. eigenvalues --    0.48468   0.48706   0.48834   0.49044   0.49278
 Alpha virt. eigenvalues --    0.49633   0.49772   0.50010   0.50408   0.50556
 Alpha virt. eigenvalues --    0.51437   0.51480   0.51932   0.52176   0.52456
 Alpha virt. eigenvalues --    0.52810   0.53513   0.53591   0.54034   0.54182
 Alpha virt. eigenvalues --    0.54963   0.55284   0.55708   0.55869   0.56360
 Alpha virt. eigenvalues --    0.56790   0.57094   0.57617   0.57774   0.58108
 Alpha virt. eigenvalues --    0.58267   0.58547   0.59220   0.59312   0.59820
 Alpha virt. eigenvalues --    0.60124   0.60609   0.60688   0.60998   0.61674
 Alpha virt. eigenvalues --    0.61845   0.62209   0.62714   0.62866   0.63257
 Alpha virt. eigenvalues --    0.63668   0.63906   0.64041   0.64660   0.64804
 Alpha virt. eigenvalues --    0.64966   0.65226   0.65288   0.65659   0.66043
 Alpha virt. eigenvalues --    0.66228   0.66459   0.66799   0.66985   0.67428
 Alpha virt. eigenvalues --    0.67760   0.67976   0.68261   0.68504   0.68779
 Alpha virt. eigenvalues --    0.68895   0.69104   0.69264   0.70026   0.70211
 Alpha virt. eigenvalues --    0.70594   0.70784   0.71069   0.71387   0.71597
 Alpha virt. eigenvalues --    0.71686   0.72151   0.72603   0.72758   0.73099
 Alpha virt. eigenvalues --    0.73308   0.73796   0.74251   0.74422   0.74545
 Alpha virt. eigenvalues --    0.74796   0.75004   0.75352   0.75570   0.75748
 Alpha virt. eigenvalues --    0.75772   0.76072   0.76288   0.76551   0.76622
 Alpha virt. eigenvalues --    0.76962   0.77283   0.77693   0.77950   0.78269
 Alpha virt. eigenvalues --    0.78394   0.78781   0.79238   0.79757   0.79838
 Alpha virt. eigenvalues --    0.80189   0.80308   0.80549   0.80887   0.80919
 Alpha virt. eigenvalues --    0.81428   0.81597   0.81885   0.82178   0.82509
 Alpha virt. eigenvalues --    0.82729   0.82941   0.83143   0.83423   0.83593
 Alpha virt. eigenvalues --    0.83697   0.84111   0.84261   0.84450   0.84592
 Alpha virt. eigenvalues --    0.84652   0.85074   0.85256   0.85373   0.85585
 Alpha virt. eigenvalues --    0.85782   0.86042   0.86243   0.86293   0.86778
 Alpha virt. eigenvalues --    0.87275   0.87615   0.87968   0.88034   0.88059
 Alpha virt. eigenvalues --    0.88406   0.88494   0.88612   0.89072   0.89186
 Alpha virt. eigenvalues --    0.89206   0.89611   0.90089   0.90132   0.90426
 Alpha virt. eigenvalues --    0.90531   0.90665   0.90937   0.91575   0.91917
 Alpha virt. eigenvalues --    0.92109   0.92293   0.92470   0.92857   0.93105
 Alpha virt. eigenvalues --    0.93138   0.93512   0.93863   0.94168   0.94590
 Alpha virt. eigenvalues --    0.94982   0.95456   0.95687   0.95901   0.96008
 Alpha virt. eigenvalues --    0.96241   0.96656   0.97197   0.97318   0.97343
 Alpha virt. eigenvalues --    0.97621   0.97992   0.98439   0.98595   0.98858
 Alpha virt. eigenvalues --    0.99510   0.99565   0.99799   1.00157   1.00764
 Alpha virt. eigenvalues --    1.01025   1.01346   1.01653   1.01835   1.02512
 Alpha virt. eigenvalues --    1.02919   1.03171   1.03910   1.04317   1.04822
 Alpha virt. eigenvalues --    1.05176   1.05613   1.06372   1.06633   1.06989
 Alpha virt. eigenvalues --    1.07153   1.07491   1.07850   1.08292   1.09139
 Alpha virt. eigenvalues --    1.09359   1.09593   1.10055   1.10406   1.10641
 Alpha virt. eigenvalues --    1.11537   1.11954   1.12751   1.13884   1.14027
 Alpha virt. eigenvalues --    1.14751   1.15006   1.15365   1.15647   1.16308
 Alpha virt. eigenvalues --    1.16616   1.16806   1.17822   1.18053   1.18533
 Alpha virt. eigenvalues --    1.18820   1.19344   1.19407   1.19871   1.20504
 Alpha virt. eigenvalues --    1.20913   1.21674   1.22099   1.23113   1.23484
 Alpha virt. eigenvalues --    1.23999   1.24072   1.24616   1.25254   1.25404
 Alpha virt. eigenvalues --    1.25671   1.26407   1.27042   1.27120   1.27973
 Alpha virt. eigenvalues --    1.28563   1.29188   1.29704   1.29990   1.30506
 Alpha virt. eigenvalues --    1.31132   1.31654   1.32504   1.32842   1.33817
 Alpha virt. eigenvalues --    1.34224   1.35291   1.35535   1.36255   1.37668
 Alpha virt. eigenvalues --    1.37822   1.38410   1.38653   1.39558   1.39679
 Alpha virt. eigenvalues --    1.40453   1.40927   1.41413   1.41850   1.42552
 Alpha virt. eigenvalues --    1.42958   1.43159   1.43616   1.44680   1.45411
 Alpha virt. eigenvalues --    1.46433   1.46847   1.47293   1.47674   1.48687
 Alpha virt. eigenvalues --    1.49273   1.50044   1.50403   1.51203   1.51647
 Alpha virt. eigenvalues --    1.52277   1.52641   1.53433   1.53946   1.54618
 Alpha virt. eigenvalues --    1.55481   1.55805   1.56173   1.56624   1.57425
 Alpha virt. eigenvalues --    1.58307   1.58765   1.59019   1.59653   1.60501
 Alpha virt. eigenvalues --    1.60652   1.61026   1.61310   1.61483   1.62178
 Alpha virt. eigenvalues --    1.62429   1.62812   1.63107   1.63380   1.63469
 Alpha virt. eigenvalues --    1.63886   1.64382   1.64565   1.64942   1.65280
 Alpha virt. eigenvalues --    1.65364   1.65695   1.65864   1.65986   1.66377
 Alpha virt. eigenvalues --    1.66758   1.67031   1.67176   1.67411   1.68228
 Alpha virt. eigenvalues --    1.68376   1.68603   1.69126   1.69335   1.69511
 Alpha virt. eigenvalues --    1.69952   1.70130   1.70518   1.70810   1.71002
 Alpha virt. eigenvalues --    1.71394   1.71818   1.72263   1.72505   1.73082
 Alpha virt. eigenvalues --    1.73529   1.73985   1.74092   1.74492   1.74826
 Alpha virt. eigenvalues --    1.75000   1.75082   1.75573   1.75948   1.76416
 Alpha virt. eigenvalues --    1.76689   1.76970   1.77164   1.77393   1.77515
 Alpha virt. eigenvalues --    1.77925   1.78048   1.78631   1.78863   1.79073
 Alpha virt. eigenvalues --    1.79845   1.80222   1.80699   1.80920   1.81280
 Alpha virt. eigenvalues --    1.81544   1.81836   1.82398   1.82872   1.83018
 Alpha virt. eigenvalues --    1.83259   1.83399   1.83924   1.84425   1.84835
 Alpha virt. eigenvalues --    1.85279   1.85434   1.85718   1.86276   1.86341
 Alpha virt. eigenvalues --    1.86765   1.87170   1.87480   1.88205   1.88828
 Alpha virt. eigenvalues --    1.88970   1.89364   1.89718   1.89948   1.90272
 Alpha virt. eigenvalues --    1.90708   1.91013   1.91508   1.91754   1.92225
 Alpha virt. eigenvalues --    1.92618   1.92950   1.93367   1.94023   1.94490
 Alpha virt. eigenvalues --    1.94905   1.95081   1.95674   1.96076   1.96233
 Alpha virt. eigenvalues --    1.96557   1.96967   1.97477   1.97797   1.98542
 Alpha virt. eigenvalues --    1.99176   1.99432   1.99862   2.00120   2.00223
 Alpha virt. eigenvalues --    2.00501   2.01381   2.01523   2.01609   2.02282
 Alpha virt. eigenvalues --    2.02417   2.02990   2.03626   2.03773   2.03986
 Alpha virt. eigenvalues --    2.04641   2.05021   2.05413   2.05485   2.05847
 Alpha virt. eigenvalues --    2.05998   2.06653   2.06958   2.07491   2.07918
 Alpha virt. eigenvalues --    2.08267   2.08495   2.09153   2.09626   2.09990
 Alpha virt. eigenvalues --    2.10249   2.10493   2.10780   2.11482   2.11684
 Alpha virt. eigenvalues --    2.12136   2.12794   2.12947   2.13321   2.13832
 Alpha virt. eigenvalues --    2.14177   2.14357   2.15410   2.16011   2.16369
 Alpha virt. eigenvalues --    2.16676   2.17223   2.17783   2.18108   2.18231
 Alpha virt. eigenvalues --    2.18890   2.19280   2.20159   2.20529   2.21559
 Alpha virt. eigenvalues --    2.22247   2.22431   2.22959   2.23573   2.24274
 Alpha virt. eigenvalues --    2.24539   2.25466   2.25539   2.26302   2.26777
 Alpha virt. eigenvalues --    2.27402   2.28082   2.28339   2.29146   2.29395
 Alpha virt. eigenvalues --    2.29591   2.30611   2.31067   2.32114   2.32467
 Alpha virt. eigenvalues --    2.33046   2.34177   2.35028   2.35265   2.35894
 Alpha virt. eigenvalues --    2.36873   2.37943   2.38295   2.38897   2.39181
 Alpha virt. eigenvalues --    2.39486   2.40388   2.40460   2.41357   2.41681
 Alpha virt. eigenvalues --    2.41894   2.42180   2.42534   2.43381   2.43819
 Alpha virt. eigenvalues --    2.44430   2.45403   2.45431   2.46595   2.47303
 Alpha virt. eigenvalues --    2.47830   2.48471   2.49194   2.49821   2.50267
 Alpha virt. eigenvalues --    2.52171   2.52606   2.53579   2.54477   2.55848
 Alpha virt. eigenvalues --    2.56520   2.57186   2.58389   2.58936   2.59192
 Alpha virt. eigenvalues --    2.59930   2.60310   2.60424   2.60745   2.61236
 Alpha virt. eigenvalues --    2.61877   2.62310   2.62756   2.63293   2.64098
 Alpha virt. eigenvalues --    2.64534   2.64845   2.65248   2.66193   2.66728
 Alpha virt. eigenvalues --    2.67289   2.67479   2.67544   2.68294   2.68744
 Alpha virt. eigenvalues --    2.68925   2.70419   2.70637   2.70842   2.71088
 Alpha virt. eigenvalues --    2.71512   2.72243   2.72726   2.72872   2.73310
 Alpha virt. eigenvalues --    2.73915   2.74483   2.74722   2.74965   2.75533
 Alpha virt. eigenvalues --    2.75988   2.76693   2.77101   2.77369   2.77746
 Alpha virt. eigenvalues --    2.78195   2.78945   2.79361   2.79885   2.80081
 Alpha virt. eigenvalues --    2.81417   2.81585   2.82035   2.82611   2.83297
 Alpha virt. eigenvalues --    2.83851   2.84405   2.84793   2.84981   2.85556
 Alpha virt. eigenvalues --    2.85895   2.86169   2.86646   2.87130   2.87243
 Alpha virt. eigenvalues --    2.87341   2.88352   2.88807   2.89025   2.89594
 Alpha virt. eigenvalues --    2.89657   2.90115   2.90411   2.90834   2.91126
 Alpha virt. eigenvalues --    2.91560   2.92100   2.92274   2.92844   2.93761
 Alpha virt. eigenvalues --    2.94070   2.94524   2.94771   2.95127   2.95853
 Alpha virt. eigenvalues --    2.96358   2.96614   2.97367   2.97500   2.97732
 Alpha virt. eigenvalues --    2.98044   2.98878   2.98950   2.99479   2.99863
 Alpha virt. eigenvalues --    3.00482   3.00938   3.01188   3.01457   3.02049
 Alpha virt. eigenvalues --    3.02446   3.03119   3.03810   3.03963   3.04354
 Alpha virt. eigenvalues --    3.04794   3.05383   3.05947   3.06307   3.06551
 Alpha virt. eigenvalues --    3.07045   3.07319   3.08262   3.08368   3.09510
 Alpha virt. eigenvalues --    3.09850   3.11014   3.11350   3.11743   3.12442
 Alpha virt. eigenvalues --    3.13025   3.13469   3.14182   3.14558   3.15828
 Alpha virt. eigenvalues --    3.16194   3.17846   3.18261   3.19017   3.19692
 Alpha virt. eigenvalues --    3.20701   3.21815   3.21971   3.22437   3.22954
 Alpha virt. eigenvalues --    3.24122   3.25154   3.25709   3.26961   3.27748
 Alpha virt. eigenvalues --    3.27909   3.28597   3.28731   3.29393   3.30668
 Alpha virt. eigenvalues --    3.31069   3.31831   3.32950   3.33681   3.34090
 Alpha virt. eigenvalues --    3.35348   3.36008   3.36252   3.36362   3.36718
 Alpha virt. eigenvalues --    3.37911   3.39217   3.40298   3.41268   3.41836
 Alpha virt. eigenvalues --    3.42476   3.44468   3.44928   3.45428   3.46048
 Alpha virt. eigenvalues --    3.47523   3.47895   3.48560   3.49897   3.50900
 Alpha virt. eigenvalues --    3.51089   3.52562   3.53027   3.53591   3.55833
 Alpha virt. eigenvalues --    3.58544   3.59984   3.61312   3.64088   3.65853
 Alpha virt. eigenvalues --    3.66374   3.68057   3.68913   3.72070   3.72790
 Alpha virt. eigenvalues --    3.73999   3.74638   3.76359   3.76871   3.80749
 Alpha virt. eigenvalues --    3.83742   3.87206   3.87981   3.89910   3.91617
 Alpha virt. eigenvalues --    3.92328   3.93552   3.93737   3.94438   3.94936
 Alpha virt. eigenvalues --    3.95543   3.95985   3.96641   3.97622   3.97769
 Alpha virt. eigenvalues --    3.98304   3.99272   4.00078   4.02830   4.03678
 Alpha virt. eigenvalues --    4.04064   4.04489   4.05900   4.11235   4.11469
 Alpha virt. eigenvalues --    4.14073   4.14680   4.14735   4.15800   4.17967
 Alpha virt. eigenvalues --    4.19394   4.20683   4.22229   4.22949   4.26131
 Alpha virt. eigenvalues --    4.26897   4.27034   4.28082   4.29049   4.29386
 Alpha virt. eigenvalues --    4.29930   4.30682   4.36941   4.39870   4.43207
 Alpha virt. eigenvalues --    4.44965   4.45992   4.49782   4.49953   4.50126
 Alpha virt. eigenvalues --    4.54241   4.54763   4.67602   4.78899   4.82234
 Alpha virt. eigenvalues --    4.94755   4.95113   5.35587   5.38158   5.40329
 Alpha virt. eigenvalues --    5.44473   5.46359   5.47647   5.53569   5.56579
 Alpha virt. eigenvalues --    5.59089   5.64030   5.70222   5.70515   5.73389
 Alpha virt. eigenvalues --    5.76227   5.78844   5.80600   5.81828   5.96301
 Alpha virt. eigenvalues --    7.64305  14.32157  14.37939  14.42513  14.96035
 Alpha virt. eigenvalues --   23.78513  23.81355  23.97482  23.99541  24.01145
 Alpha virt. eigenvalues --   24.02705  24.03473  24.04989  24.06161  24.10468
 Alpha virt. eigenvalues --   24.10878  24.11171  24.11475  24.12109  24.12936
 Alpha virt. eigenvalues --   24.14280  24.14485  24.16137  24.16403  24.17598
 Alpha virt. eigenvalues --   24.18366  24.19245  24.20455  24.20966  24.22246
 Alpha virt. eigenvalues --   24.22498  24.22860  24.23805  24.31905  24.32046
 Alpha virt. eigenvalues --   24.45724  35.72466  50.14669  50.15136  50.17138
 Alpha virt. eigenvalues --   50.19441  50.24592  50.29398 163.90046
          Condensed to atoms (all electrons):
 Mulliken charges:
               1
     1  C   -0.095169
     2  C    0.195120
     3  H   -0.584231
     4  C   -0.630265
     5  H    0.217403
     6  H    0.171262
     7  H    0.164247
     8  C   -0.653681
     9  H    0.229002
    10  H    0.172293
    11  H    0.178845
    12  B    0.450698
    13  C   -0.713249
    14  H    0.156659
    15  H    0.190640
    16  H    0.119600
    17  O    0.116526
    18  O   -0.157836
    19  C   -0.329641
    20  C    0.068764
    21  C   -0.432915
    22  H    0.170192
    23  H    0.183435
    24  H    0.143557
    25  C   -0.462781
    26  H   -0.315009
    27  H    0.216611
    28  H    0.210610
    29  C   -0.591421
    30  H    0.126009
    31  H    0.075268
    32  H    0.204660
    33  C   -0.400319
    34  H    0.053105
    35  H    0.259422
    36  H   -0.165570
    37  P   -0.540258
    38  O   -0.060175
    39  O    0.280371
    40  N   -0.615466
    41  H    0.311094
    42  H    0.426055
    43  Li  -0.245727
    44  C   -0.153076
    45  O    0.099365
    46  C   -0.106014
    47  C   -0.490511
    48  C   -0.569457
    49  H    0.116286
    50  H    0.218149
    51  H    0.226618
    52  H    0.156493
    53  H    0.237063
    54  H    0.205825
    55  H    0.243888
    56  H    0.182643
    57  C   -0.028203
    58  O    0.087533
    59  C    0.003636
    60  C   -0.374354
    61  C   -0.542740
    62  H    0.084580
    63  H    0.215333
    64  H    0.266540
    65  H    0.039267
    66  H    0.234902
    67  H    0.232029
    68  H    0.267530
    69  H    0.017308
    70  C   -0.391827
    71  C    0.305376
    72  C    0.012139
    73  C   -0.404573
    74  H    0.357286
    75  C   -0.334672
    76  H    0.328199
    77  C   -0.554182
    78  H    0.293929
    79  H    0.292052
    80  H    0.274661
    81  C   -0.405828
    82  C    0.515302
    83  C   -0.030169
    84  C   -0.207566
    85  H    0.414618
    86  C    0.002059
    87  H    0.318549
    88  C   -0.604362
    89  H    0.294334
    90  H    0.293136
    91  H    0.263169
 Sum of Mulliken charges =  -0.00000
 Mulliken charges with hydrogens summed into heavy atoms:
               1
     1  C   -0.095169
     2  C   -0.389111
     4  C   -0.077353
     8  C   -0.073541
    12  B    0.450698
    13  C   -0.246349
    17  O    0.116526
    18  O   -0.157836
    19  C   -0.329641
    20  C    0.068764
    21  C    0.064269
    25  C   -0.350570
    29  C   -0.185484
    33  C   -0.253362
    37  P   -0.540258
    38  O   -0.060175
    39  O    0.280371
    40  N    0.121684
    43  Li  -0.245727
    44  C    0.181359
    45  O    0.099365
    46  C    0.277097
    47  C   -0.047623
    48  C   -0.142926
    57  C    0.271710
    58  O    0.087533
    59  C    0.309444
    60  C    0.092577
    61  C   -0.257901
    70  C   -0.391827
    71  C    0.662661
    72  C    0.340338
    73  C   -0.110644
    75  C   -0.042620
    77  C   -0.279521
    81  C   -0.405828
    82  C    0.929920
    83  C    0.288380
    84  C    0.086768
    86  C    0.295195
    88  C   -0.341194
 Electronic spatial extent (au):  <R**2>=          19329.3909
 Charge=             -0.0000 electrons
 Dipole moment (field-independent basis, Debye):
    X=              7.8213    Y=              8.3201    Z=             -2.7438  Tot=             11.7442
 Quadrupole moment (field-independent basis, Debye-Ang):
   XX=           -244.4540   YY=           -243.5796   ZZ=           -230.9381
   XY=            -22.6880   XZ=             12.3110   YZ=             11.0119
 Traceless Quadrupole moment (field-independent basis, Debye-Ang):
   XX=             -4.7967   YY=             -3.9224   ZZ=              8.7191
   XY=            -22.6880   XZ=             12.3110   YZ=             11.0119
 Octapole moment (field-independent basis, Debye-Ang**2):
  XXX=            208.1317  YYY=            163.4461  ZZZ=            -80.6920  XYY=             19.1564
  XXY=             59.9678  XXZ=            -37.1122  XZZ=             98.1231  YZZ=             48.7915
  YYZ=             -2.5477  XYZ=            -20.1131
 Hexadecapole moment (field-independent basis, Debye-Ang**3):
 XXXX=         -10762.6216 YYYY=          -6632.0865 ZZZZ=          -8238.8214 XXXY=            111.7865
 XXXZ=            355.1991 YYYX=            131.7648 YYYZ=            -30.0978 ZZZX=            -35.7195
 ZZZY=            287.7779 XXYY=          -2941.6149 XXZZ=          -2932.1897 YYZZ=          -2497.9916
 XXYZ=            -30.6194 YYXZ=            159.2585 ZZXY=             38.2246
 N-N= 5.770571835239D+03 E-N=-1.643509669149D+04  KE= 2.083038012340D+03
 Unable to Open any file for archive entry.
 1\1\GINC-NODE10\SP\RwB97XD\6-311++G(d,p)\C31H50B1Li1N1O6P1\WHUGHES2\08
 -Oct-2025\0\\# wb97xd/6-311++g** nosymm int=ultrafine scrf=(smd,solven
 t=tetrahydrofuran)\\r1-phosphine-2thf-full-c2_tzpop-sp\\0,1\C,0,-1.026
 8,-1.8305,2.1482\C,0,-0.0932,-0.9579,2.5592\H,0,-0.0798,0.0441,2.1301\
 C,0,0.9742,-1.2344,3.5946\H,0,0.5806,-1.7973,4.4506\H,0,1.8151,-1.8169
 ,3.1872\H,0,1.4007,-0.3037,3.9842\C,0,-1.0233,-3.2315,2.7436\H,0,-1.56
 02,-3.2581,3.7038\H,0,-1.527,-3.9413,2.0783\H,0,-0.0114,-3.6128,2.9365
 \B,0,-2.2805,-1.5545,1.143\C,0,-3.642,-1.5796,2.0886\H,0,-3.8093,-2.58
 42,2.5088\H,0,-3.5535,-0.8954,2.9481\H,0,-4.569,-1.302,1.5691\O,0,-2.2
 142,-0.2977,0.2923\O,0,-2.2952,-2.6168,0.0884\C,0,-2.955,-2.1413,-1.06
 17\C,0,-2.8803,-0.5472,-0.9466\C,0,-4.391,-2.6923,-1.1028\H,0,-4.9394,
 -2.3423,-1.9861\H,0,-4.345,-3.7868,-1.1466\H,0,-4.9611,-2.4228,-0.2114
 \C,0,-2.2225,-2.7113,-2.2834\H,0,-1.1828,-2.3788,-2.3253\H,0,-2.223,-3
 .8055,-2.2135\H,0,-2.7117,-2.4336,-3.2246\C,0,-4.2483,0.1526,-0.9255\H
 ,0,-4.9022,-0.2221,-0.1364\H,0,-4.0893,1.2219,-0.7422\H,0,-4.7697,0.04
 95,-1.8851\C,0,-2.0769,0.1001,-2.0802\H,0,-1.0482,-0.2612,-2.1094\H,0,
 -2.5419,-0.088,-3.0544\H,0,-2.054,1.1831,-1.9345\P,0,1.6283,-0.2224,-0
 .6572\O,0,0.9571,1.1133,-0.4829\O,0,0.4554,-1.3172,-0.5552\N,0,0.7433,
 -2.7066,-0.3068\H,0,0.9468,-2.7188,0.6977\H,0,-0.2225,-3.0607,-0.3381\
 Li,0,-0.9534,1.2073,0.2112\C,0,-2.425,3.8119,-0.5504\O,0,-1.2618,3.018
 6,-0.7557\C,0,-0.6745,3.4568,-1.9788\C,0,-1.8475,3.8479,-2.8965\C,0,-3
 .0569,3.9499,-1.9375\H,0,-3.0507,3.3006,0.1841\H,0,-2.1302,4.7922,-0.1
 462\H,0,-0.025,4.319,-1.7711\H,0,-0.0601,2.6372,-2.3548\H,0,-1.6449,4.
 7947,-3.4052\H,0,-2.0182,3.0867,-3.6632\H,0,-3.6031,4.8915,-2.0422\H,0
 ,-3.7593,3.1298,-2.1153\C,0,-0.1169,3.1449,2.2703\O,0,-1.1327,2.2117,1
 .9211\C,0,-1.8644,1.9213,3.1107\C,0,-0.8528,2.0181,4.2687\C,0,0.3981,2
 .6545,3.6222\H,0,0.6241,3.1405,1.4685\H,0,-0.5555,4.1514,2.3482\H,0,-2
 .6696,2.6613,3.2186\H,0,-2.3028,0.9309,2.9845\H,0,-1.2496,2.6371,5.078
 6\H,0,-0.6277,1.0298,4.6786\H,0,0.8213,3.4662,4.2207\H,0,1.1771,1.9004
 ,3.4707\C,0,2.8832,-0.5148,0.6049\C,0,3.0896,0.4772,1.5676\C,0,3.668,-
 1.674,0.6145\C,0,4.0702,0.3088,2.5416\H,0,2.4804,1.3763,1.5505\C,0,4.6
 371,-1.845,1.5991\H,0,3.5259,-2.4389,-0.1446\C,0,4.8386,-0.8538,2.5611
 \H,0,4.2279,1.0812,3.289\H,0,5.2401,-2.7483,1.6115\H,0,5.5998,-0.9882,
 3.3247\C,0,2.4097,-0.4563,-2.2677\C,0,1.8008,-1.2483,-3.2454\C,0,3.614
 3,0.199,-2.5513\C,0,2.3913,-1.38,-4.5007\H,0,0.8732,-1.7682,-3.0275\C,
 0,4.1995,0.0673,-3.807\H,0,4.0985,0.8091,-1.7921\C,0,3.5874,-0.7221,-4
 .7818\H,0,1.9173,-1.9995,-5.2567\H,0,5.1335,0.5775,-4.0244\H,0,4.047,-
 0.8276,-5.7607\\Version=AS64L-G16RevC.01\HF=-2091.3711694\RMSD=2.569e-
 09\Dipole=3.0771523,3.2733732,-1.0795017\Quadrupole=-3.5662505,-2.9162
 007,6.4824512,-16.8679885,9.1529053,8.1870827\PG=C01 [X(C31H50B1Li1N1O
 6P1)]\\@
 The archive entry for this job was punched.


 DEFINE YOUR TERMS, YOU WILL PERMIT ME AGAIN TO SAY, 
 OR WE SHALL NEVER UNDERSTAND ONE ANOTHER.

                                    -- VOLTAIRE
 Job cpu time:       0 days  9 hours 56 minutes 34.0 seconds.
 Elapsed time:       0 days  2 hours 30 minutes 22.5 seconds.
 File lengths (MBytes):  RWF=   1320 Int=      0 D2E=      0 Chk=     95 Scr=      1
 Normal termination of Gaussian 16 at Wed Oct  8 19:04:20 2025.
