Job Start Time: Wed Oct  8 15:58:52 MDT 2025
SLURM Job ID: 768206
SLURM Job Name: r1-phosphine-2thf-full-c13_tzpop-sp
 Entering Gaussian System, Link 0=/opt/apps/Gaussian/G16C/g16/g16
 Initial command:
 /opt/apps/Gaussian/G16C/g16/l1.exe "/tmp/768206/Gau-1336840.inp" -scrdir="/tmp/768206/"
 Entering Link 1 = /opt/apps/Gaussian/G16C/g16/l1.exe PID=   1336841.
  
 Copyright (c) 1988-2019, Gaussian, Inc.  All Rights Reserved.
  
 This is part of the Gaussian(R) 16 program.  It is based on
 the Gaussian(R) 09 system (copyright 2009, Gaussian, Inc.),
 the Gaussian(R) 03 system (copyright 2003, Gaussian, Inc.),
 the Gaussian(R) 98 system (copyright 1998, Gaussian, Inc.),
 the Gaussian(R) 94 system (copyright 1995, Gaussian, Inc.),
 the Gaussian 92(TM) system (copyright 1992, Gaussian, Inc.),
 the Gaussian 90(TM) system (copyright 1990, Gaussian, Inc.),
 the Gaussian 88(TM) system (copyright 1988, Gaussian, Inc.),
 the Gaussian 86(TM) system (copyright 1986, Carnegie Mellon
 University), and the Gaussian 82(TM) system (copyright 1983,
 Carnegie Mellon University). Gaussian is a federally registered
 trademark of Gaussian, Inc.
  
 This software contains proprietary and confidential information,
 including trade secrets, belonging to Gaussian, Inc.
  
 This software is provided under written license and may be
 used, copied, transmitted, or stored only in accord with that
 written license.
  
 The following legend is applicable only to US Government
 contracts under FAR:
  
                    RESTRICTED RIGHTS LEGEND
  
 Use, reproduction and disclosure by the US Government is
 subject to restrictions as set forth in subparagraphs (a)
 and (c) of the Commercial Computer Software - Restricted
 Rights clause in FAR 52.227-19.
  
 Gaussian, Inc.
 340 Quinnipiac St., Bldg. 40, Wallingford CT 06492
  
  
 ---------------------------------------------------------------
 Warning -- This program may not be used in any manner that
 competes with the business of Gaussian, Inc. or will provide
 assistance to any competitor of Gaussian, Inc.  The licensee
 of this program is prohibited from giving any competitor of
 Gaussian, Inc. access to this program.  By using this program,
 the user acknowledges that Gaussian, Inc. is engaged in the
 business of creating and licensing software in the field of
 computational chemistry and represents and warrants to the
 licensee that it is not a competitor of Gaussian, Inc. and that
 it will not use this program in any manner prohibited above.
 ---------------------------------------------------------------
  

 Cite this work as:
 Gaussian 16, Revision C.01,
 M. J. Frisch, G. W. Trucks, H. B. Schlegel, G. E. Scuseria, 
 M. A. Robb, J. R. Cheeseman, G. Scalmani, V. Barone, 
 G. A. Petersson, H. Nakatsuji, X. Li, M. Caricato, A. V. Marenich, 
 J. Bloino, B. G. Janesko, R. Gomperts, B. Mennucci, H. P. Hratchian, 
 J. V. Ortiz, A. F. Izmaylov, J. L. Sonnenberg, D. Williams-Young, 
 F. Ding, F. Lipparini, F. Egidi, J. Goings, B. Peng, A. Petrone, 
 T. Henderson, D. Ranasinghe, V. G. Zakrzewski, J. Gao, N. Rega, 
 G. Zheng, W. Liang, M. Hada, M. Ehara, K. Toyota, R. Fukuda, 
 J. Hasegawa, M. Ishida, T. Nakajima, Y. Honda, O. Kitao, H. Nakai, 
 T. Vreven, K. Throssell, J. A. Montgomery, Jr., J. E. Peralta, 
 F. Ogliaro, M. J. Bearpark, J. J. Heyd, E. N. Brothers, K. N. Kudin, 
 V. N. Staroverov, T. A. Keith, R. Kobayashi, J. Normand, 
 K. Raghavachari, A. P. Rendell, J. C. Burant, S. S. Iyengar, 
 J. Tomasi, M. Cossi, J. M. Millam, M. Klene, C. Adamo, R. Cammi, 
 J. W. Ochterski, R. L. Martin, K. Morokuma, O. Farkas, 
 J. B. Foresman, and D. J. Fox, Gaussian, Inc., Wallingford CT, 2019.
 
 ******************************************
 Gaussian 16:  AS64L-G16RevC.01  3-Jul-2019
                 8-Oct-2025 
 ******************************************
 %chk=r1-phosphine-2thf-full-c13_tzpop-sp.chk
 %nprocshared=4
 Will use up to    4 processors via shared memory.
 %mem=8GB
 ----------------------------------------------------------------------
 # wb97xd/6-311++g** nosymm int=ultrafine scrf=(smd,solvent=tetrahydrof
 uran)
 ----------------------------------------------------------------------
 1/38=1,172=1/1;
 2/12=2,15=1,17=6,18=5,40=1/2;
 3/5=4,6=6,7=1111,11=2,25=1,30=1,70=32201,72=20,74=-58,75=-5/1,2,3;
 4//1;
 5/5=2,38=5,53=20/2;
 6/7=2,8=2,9=2,10=2,28=1/1;
 99/5=1,9=1/99;
 -----------------------------------
 r1-phosphine-2thf-full-c13_tzpop-sp
 -----------------------------------
 Symbolic Z-matrix:
 Charge =  0 Multiplicity = 1
 C                    -4.5723   -0.0314    0.9087 
 C                    -4.3121    0.7971    1.9328 
 H                    -3.3131    0.7518    2.3689 
 C                    -5.2541    1.809     2.5488 
 H                    -6.1777    1.348     2.9259 
 H                    -4.7825    2.3226    3.3945 
 H                    -5.5608    2.5828    1.8295 
 C                    -5.9349   -0.0147    0.2487 
 H                    -6.2599   -1.0338    0.0009 
 H                    -6.7201    0.4484    0.8599 
 H                    -5.8991    0.5359   -0.704 
 B                    -3.4841   -1.0862    0.2809 
 C                    -3.4139   -0.9429   -1.3519 
 H                    -4.3741   -1.1999   -1.8248 
 H                    -3.1685    0.0781   -1.6848 
 H                    -2.6576   -1.6149   -1.7826 
 O                    -2.1088   -0.8756    0.8955 
 O                    -3.7913   -2.5027    0.643 
 C                    -2.9661   -2.9068    1.7116 
 C                    -1.646    -2.0916    1.4751 
 C                    -2.7731   -4.4227    1.6432 
 H                    -2.0397   -4.7665    2.3839 
 H                    -3.7254   -4.9234    1.8555 
 H                    -2.4426   -4.7409    0.6501 
 C                    -3.6275   -2.5727    3.0594 
 H                    -3.7285   -1.4949    3.2037 
 H                    -4.6338   -3.0078    3.0714 
 H                    -3.065    -2.9902    3.904 
 C                    -0.7153   -2.7849    0.472 
 H                     0.0884   -2.0949    0.1963 
 H                    -0.2464   -3.6828    0.8922 
 H                    -1.2573   -3.0668   -0.4352 
 C                    -0.8571   -1.7694    2.7418 
 H                    -0.5543   -2.6868    3.2628 
 H                     0.0452   -1.2075    2.4759 
 H                    -1.4454   -1.1569    3.4315 
 P                     2.1742    0.6252   -0.0225 
 O                     0.8577    0.3254    0.6319 
 O                     2.0941    1.6205   -1.3096 
 N                     1.5787    2.9093   -0.9132 
 H                     1.9493    3.5219   -1.6378 
 H                     0.5703    2.8192   -1.0697 
 Li                   -0.8821    0.03     -0.2993 
 C                    -1.3726    2.5616    0.8125 
 O                    -1.2778    2.0581   -0.5436 
 C                    -2.2069    2.7613   -1.3833 
 C                    -3.2977    3.2516   -0.447 
 C                    -2.494     3.6027    0.8093 
 H                    -1.592     1.7059    1.4552 
 H                    -0.4014    2.9785    1.0951 
 H                    -1.6869    3.6008   -1.8686 
 H                    -2.5553    2.0707   -2.1537 
 H                    -3.8453    4.104    -0.8591 
 H                    -4.0003    2.439    -0.2366 
 H                    -2.0792    4.6136    0.726 
 H                    -3.0925    3.5518    1.7226 
 C                     0.1389   -1.7797   -2.6998 
 O                    -0.1779   -0.4915   -2.1492 
 C                    -0.3516    0.4278   -3.2257 
 C                     0.6659   -0.0118   -4.2656 
 C                     0.5952   -1.5411   -4.1507 
 H                     0.918    -2.2183   -2.0724 
 H                    -0.7503   -2.4183   -2.6551 
 H                    -1.38      0.3565   -3.6109 
 H                    -0.1823    1.4321   -2.835 
 H                     0.4256    0.3526   -5.2684 
 H                     1.6576    0.3569   -3.9849 
 H                    -0.1425   -1.9434   -4.8522 
 H                     1.5554   -2.0212   -4.3574 
 C                     2.9555   -0.8097   -0.7801 
 C                     3.5842   -0.7593   -2.0277 
 C                     2.9053   -2.0155   -0.0716 
 C                     4.1392   -1.9155   -2.5712 
 H                     3.6294    0.1731   -2.581 
 C                     3.4648   -3.1675   -0.6169 
 H                     2.4194   -2.0603    0.8996 
 C                     4.0761   -3.1189   -1.8697 
 H                     4.6173   -1.8763   -3.5458 
 H                     3.4167   -4.1029   -0.067 
 H                     4.5058   -4.0198   -2.2987 
 C                     3.319     1.382     1.1478 
 C                     4.6342    1.6704    0.7678 
 C                     2.8835    1.673     2.4427 
 C                     5.5074    2.2543    1.6803 
 H                     4.9793    1.436    -0.2366 
 C                     3.7616    2.2563    3.3544 
 H                     1.8624    1.4425    2.7322 
 C                     5.0704    2.5474    2.9734 
 H                     6.5286    2.478     1.3855 
 H                     3.4228    2.4823    4.3614 
 H                     5.7543    3.0007    3.6856 
 
 Symmetry turned off by external request.
 Stoichiometry    C31H50BLiNO6P
 Framework group  C1[X(C31H50BLiNO6P)]
 Deg. of freedom   267
 Full point group                 C1      NOp   1
                          Input orientation:                          
 ---------------------------------------------------------------------
 Center     Atomic      Atomic             Coordinates (Angstroms)
 Number     Number       Type             X           Y           Z
 ---------------------------------------------------------------------
      1          6           0       -4.572300   -0.031400    0.908700
      2          6           0       -4.312100    0.797100    1.932800
      3          1           0       -3.313100    0.751800    2.368900
      4          6           0       -5.254100    1.809000    2.548800
      5          1           0       -6.177700    1.348000    2.925900
      6          1           0       -4.782500    2.322600    3.394500
      7          1           0       -5.560800    2.582800    1.829500
      8          6           0       -5.934900   -0.014700    0.248700
      9          1           0       -6.259900   -1.033800    0.000900
     10          1           0       -6.720100    0.448400    0.859900
     11          1           0       -5.899100    0.535900   -0.704000
     12          5           0       -3.484100   -1.086200    0.280900
     13          6           0       -3.413900   -0.942900   -1.351900
     14          1           0       -4.374100   -1.199900   -1.824800
     15          1           0       -3.168500    0.078100   -1.684800
     16          1           0       -2.657600   -1.614900   -1.782600
     17          8           0       -2.108800   -0.875600    0.895500
     18          8           0       -3.791300   -2.502700    0.643000
     19          6           0       -2.966100   -2.906800    1.711600
     20          6           0       -1.646000   -2.091600    1.475100
     21          6           0       -2.773100   -4.422700    1.643200
     22          1           0       -2.039700   -4.766500    2.383900
     23          1           0       -3.725400   -4.923400    1.855500
     24          1           0       -2.442600   -4.740900    0.650100
     25          6           0       -3.627500   -2.572700    3.059400
     26          1           0       -3.728500   -1.494900    3.203700
     27          1           0       -4.633800   -3.007800    3.071400
     28          1           0       -3.065000   -2.990200    3.904000
     29          6           0       -0.715300   -2.784900    0.472000
     30          1           0        0.088400   -2.094900    0.196300
     31          1           0       -0.246400   -3.682800    0.892200
     32          1           0       -1.257300   -3.066800   -0.435200
     33          6           0       -0.857100   -1.769400    2.741800
     34          1           0       -0.554300   -2.686800    3.262800
     35          1           0        0.045200   -1.207500    2.475900
     36          1           0       -1.445400   -1.156900    3.431500
     37         15           0        2.174200    0.625200   -0.022500
     38          8           0        0.857700    0.325400    0.631900
     39          8           0        2.094100    1.620500   -1.309600
     40          7           0        1.578700    2.909300   -0.913200
     41          1           0        1.949300    3.521900   -1.637800
     42          1           0        0.570300    2.819200   -1.069700
     43          3           0       -0.882100    0.030000   -0.299300
     44          6           0       -1.372600    2.561600    0.812500
     45          8           0       -1.277800    2.058100   -0.543600
     46          6           0       -2.206900    2.761300   -1.383300
     47          6           0       -3.297700    3.251600   -0.447000
     48          6           0       -2.494000    3.602700    0.809300
     49          1           0       -1.592000    1.705900    1.455200
     50          1           0       -0.401400    2.978500    1.095100
     51          1           0       -1.686900    3.600800   -1.868600
     52          1           0       -2.555300    2.070700   -2.153700
     53          1           0       -3.845300    4.104000   -0.859100
     54          1           0       -4.000300    2.439000   -0.236600
     55          1           0       -2.079200    4.613600    0.726000
     56          1           0       -3.092500    3.551800    1.722600
     57          6           0        0.138900   -1.779700   -2.699800
     58          8           0       -0.177900   -0.491500   -2.149200
     59          6           0       -0.351600    0.427800   -3.225700
     60          6           0        0.665900   -0.011800   -4.265600
     61          6           0        0.595200   -1.541100   -4.150700
     62          1           0        0.918000   -2.218300   -2.072400
     63          1           0       -0.750300   -2.418300   -2.655100
     64          1           0       -1.380000    0.356500   -3.610900
     65          1           0       -0.182300    1.432100   -2.835000
     66          1           0        0.425600    0.352600   -5.268400
     67          1           0        1.657600    0.356900   -3.984900
     68          1           0       -0.142500   -1.943400   -4.852200
     69          1           0        1.555400   -2.021200   -4.357400
     70          6           0        2.955500   -0.809700   -0.780100
     71          6           0        3.584200   -0.759300   -2.027700
     72          6           0        2.905300   -2.015500   -0.071600
     73          6           0        4.139200   -1.915500   -2.571200
     74          1           0        3.629400    0.173100   -2.581000
     75          6           0        3.464800   -3.167500   -0.616900
     76          1           0        2.419400   -2.060300    0.899600
     77          6           0        4.076100   -3.118900   -1.869700
     78          1           0        4.617300   -1.876300   -3.545800
     79          1           0        3.416700   -4.102900   -0.067000
     80          1           0        4.505800   -4.019800   -2.298700
     81          6           0        3.319000    1.382000    1.147800
     82          6           0        4.634200    1.670400    0.767800
     83          6           0        2.883500    1.673000    2.442700
     84          6           0        5.507400    2.254300    1.680300
     85          1           0        4.979300    1.436000   -0.236600
     86          6           0        3.761600    2.256300    3.354400
     87          1           0        1.862400    1.442500    2.732200
     88          6           0        5.070400    2.547400    2.973400
     89          1           0        6.528600    2.478000    1.385500
     90          1           0        3.422800    2.482300    4.361400
     91          1           0        5.754300    3.000700    3.685600
 ---------------------------------------------------------------------
 Rotational constants (GHZ):           0.1112421           0.0659429           0.0601336
 Standard basis: 6-311++G(d,p) (5D, 7F)
  1260 basis functions,  1940 primitive gaussians,  1301 cartesian basis functions
   157 alpha electrons      157 beta electrons
       nuclear repulsion energy      5668.4199812433 Hartrees.
 NAtoms=   91 NActive=   91 NUniq=   91 SFac= 1.00D+00 NAtFMM=   60 NAOKFM=T Big=T
 Integral buffers will be    131072 words long.
 Raffenetti 2 integral format.
 Two-electron integral symmetry is turned off.
 Nuclear repulsion after empirical dispersion term =     5668.3029640580 Hartrees.
 ------------------------------------------------------------------------------
 Polarizable Continuum Model (PCM)
 =================================
 Model                : PCM.
 Atomic radii         : SMD-Coulomb.
 Polarization charges : Total charges.
 Charge compensation  : None.
 Solution method      : On-the-fly selection.
 Cavity type          : VdW (van der Waals Surface) (Alpha=1.000).
 Cavity algorithm     : GePol (No added spheres)
                        Default sphere list used, NSphG=   91.
                        Lebedev-Laikov grids with approx.  5.0 points / Ang**2.
                        Smoothing algorithm: York/Karplus (Gamma=1.0000).
                        Polarization charges: spherical gaussians, with
                                              point-specific exponents (IZeta= 3).
                        Self-potential: point-specific (ISelfS= 7).
                        Self-field    : sphere-specific E.n sum rule (ISelfD= 2).
 Solvent              : TetraHydroFuran, Eps=   7.425700 Eps(inf)=   1.974025
 ------------------------------------------------------------------------------
 ------------------------------------------------------------------------------
 Atomic radii for non-electrostatic terms: SMD-CDS.
 ------------------------------------------------------------------------------
 Nuclear repulsion after PCM non-electrostatic terms =     5668.2946593507 Hartrees.
 One-electron integrals computed using PRISM.
 NBasis=  1260 RedAO= T EigKep=  1.21D-06  NBF=  1260
 NBsUse=  1250 1.00D-06 EigRej=  9.78D-07 NBFU=  1250
 ExpMin= 7.40D-03 ExpMax= 7.75D+04 ExpMxC= 2.65D+03 IAcc=3 IRadAn=         5 AccDes= 0.00D+00
 Harris functional with IExCor= 4639 and IRadAn=       5 diagonalized for initial guess.
 HarFok:  IExCor= 4639 AccDes= 0.00D+00 IRadAn=         5 IDoV= 1 UseB2=F ITyADJ=14
 ICtDFT=  3500011 ScaDFX=  1.000000  1.000000  1.000000  1.000000
 FoFCou: FMM=F IPFlag=           0 FMFlag=      100000 FMFlg1=        2001
         NFxFlg=           0 DoJE=T BraDBF=F KetDBF=T FulRan=T
         wScrn=  0.000000 ICntrl=       500 IOpCl=  0 I1Cent=   200000004 NGrid=           0
         NMat0=    1 NMatS0=      1 NMatT0=    0 NMatD0=    1 NMtDS0=    0 NMtDT0=    0
 Symmetry not used in FoFCou.
 Requested convergence on RMS density matrix=1.00D-08 within 128 cycles.
 Requested convergence on MAX density matrix=1.00D-06.
 Requested convergence on             energy=1.00D-06.
 No special actions if energy rises.
 Inv3:  Mode=1 IEnd=    91908675.
 Iteration    1 A*A^-1 deviation from unit magnitude is 8.55D-15 for   5508.
 Iteration    1 A*A^-1 deviation from orthogonality  is 6.22D-15 for   5521   1015.
 Iteration    1 A^-1*A deviation from unit magnitude is 8.55D-15 for   5508.
 Iteration    1 A^-1*A deviation from orthogonality  is 1.33D-14 for   4820   4785.
 Error on total polarization charges =  0.07595
 SCF Done:  E(RwB97XD) =  -2091.38685314     A.U. after   17 cycles
            NFock= 17  Conv=0.23D-08     -V/T= 2.0040
 SMD-CDS (non-electrostatic) energy       (kcal/mol) =      -5.21
 (included in total energy above)

 **********************************************************************

            Population analysis using the SCF Density.

 **********************************************************************

 Alpha  occ. eigenvalues --  -77.31756 -19.30538 -19.26284 -19.25761 -19.21653
 Alpha  occ. eigenvalues --  -19.18847 -19.17168 -14.48402 -10.32663 -10.32390
 Alpha  occ. eigenvalues --  -10.32123 -10.31968 -10.31142 -10.31095 -10.30772
 Alpha  occ. eigenvalues --  -10.30617 -10.30615 -10.30585 -10.30483 -10.30232
 Alpha  occ. eigenvalues --  -10.30166 -10.29982 -10.29914 -10.29878 -10.29754
 Alpha  occ. eigenvalues --  -10.29646 -10.27722 -10.27700 -10.27590 -10.27372
 Alpha  occ. eigenvalues --  -10.25462 -10.24803 -10.24788 -10.24776 -10.24611
 Alpha  occ. eigenvalues --  -10.24055 -10.23773 -10.22200 -10.20809  -6.79867
 Alpha  occ. eigenvalues --   -6.76211  -4.91093  -4.90809  -4.90752  -1.99678
 Alpha  occ. eigenvalues --   -1.19875  -1.14779  -1.14624  -1.09597  -1.08719
 Alpha  occ. eigenvalues --   -1.03000  -0.97606  -0.97094  -0.93196  -0.88170
 Alpha  occ. eigenvalues --   -0.88043  -0.87039  -0.87027  -0.86028  -0.85929
 Alpha  occ. eigenvalues --   -0.85853  -0.85767  -0.83835  -0.83473  -0.81509
 Alpha  occ. eigenvalues --   -0.78928  -0.77680  -0.74890  -0.74561  -0.74397
 Alpha  occ. eigenvalues --   -0.71705  -0.71366  -0.71036  -0.70636  -0.69136
 Alpha  occ. eigenvalues --   -0.68579  -0.68441  -0.68316  -0.67547  -0.66743
 Alpha  occ. eigenvalues --   -0.63206  -0.62860  -0.60448  -0.60151  -0.59715
 Alpha  occ. eigenvalues --   -0.59528  -0.59133  -0.58588  -0.58411  -0.57764
 Alpha  occ. eigenvalues --   -0.56970  -0.56125  -0.55398  -0.54835  -0.54498
 Alpha  occ. eigenvalues --   -0.53840  -0.53365  -0.53168  -0.52636  -0.52524
 Alpha  occ. eigenvalues --   -0.51949  -0.51639  -0.51489  -0.51178  -0.50970
 Alpha  occ. eigenvalues --   -0.50415  -0.50243  -0.50044  -0.49374  -0.49219
 Alpha  occ. eigenvalues --   -0.48937  -0.47593  -0.47493  -0.46878  -0.46738
 Alpha  occ. eigenvalues --   -0.46146  -0.45985  -0.45818  -0.45547  -0.45322
 Alpha  occ. eigenvalues --   -0.44870  -0.44733  -0.44518  -0.44401  -0.44034
 Alpha  occ. eigenvalues --   -0.43817  -0.43635  -0.43382  -0.43178  -0.42820
 Alpha  occ. eigenvalues --   -0.42670  -0.42596  -0.42465  -0.41949  -0.41761
 Alpha  occ. eigenvalues --   -0.41608  -0.40936  -0.40693  -0.40429  -0.40115
 Alpha  occ. eigenvalues --   -0.39643  -0.39350  -0.37962  -0.37793  -0.36700
 Alpha  occ. eigenvalues --   -0.36275  -0.35531  -0.35384  -0.35039  -0.34467
 Alpha  occ. eigenvalues --   -0.34265  -0.34149  -0.33825  -0.33676  -0.30501
 Alpha  occ. eigenvalues --   -0.27669  -0.27027
 Alpha virt. eigenvalues --    0.01559   0.02193   0.02586   0.02643   0.02717
 Alpha virt. eigenvalues --    0.03301   0.04337   0.04634   0.05234   0.05468
 Alpha virt. eigenvalues --    0.05758   0.05763   0.06319   0.06706   0.06851
 Alpha virt. eigenvalues --    0.07023   0.07065   0.07220   0.07378   0.07678
 Alpha virt. eigenvalues --    0.07734   0.07882   0.08070   0.08306   0.08498
 Alpha virt. eigenvalues --    0.08762   0.08832   0.08944   0.09470   0.09782
 Alpha virt. eigenvalues --    0.10079   0.10150   0.10380   0.10595   0.10859
 Alpha virt. eigenvalues --    0.10921   0.11155   0.11315   0.11859   0.12040
 Alpha virt. eigenvalues --    0.12425   0.12587   0.12876   0.12955   0.13073
 Alpha virt. eigenvalues --    0.13160   0.13334   0.13599   0.13823   0.13980
 Alpha virt. eigenvalues --    0.14017   0.14310   0.14568   0.14893   0.15087
 Alpha virt. eigenvalues --    0.15326   0.15379   0.15676   0.15820   0.16009
 Alpha virt. eigenvalues --    0.16092   0.16386   0.16397   0.16528   0.16659
 Alpha virt. eigenvalues --    0.16836   0.16921   0.17278   0.17343   0.17453
 Alpha virt. eigenvalues --    0.17596   0.17697   0.17771   0.17885   0.18003
 Alpha virt. eigenvalues --    0.18257   0.18348   0.18463   0.18659   0.18820
 Alpha virt. eigenvalues --    0.18858   0.18917   0.19111   0.19279   0.19623
 Alpha virt. eigenvalues --    0.19787   0.19802   0.19930   0.20023   0.20072
 Alpha virt. eigenvalues --    0.20304   0.20456   0.20648   0.20671   0.20834
 Alpha virt. eigenvalues --    0.20999   0.21142   0.21285   0.21449   0.21457
 Alpha virt. eigenvalues --    0.21603   0.21720   0.21919   0.22052   0.22193
 Alpha virt. eigenvalues --    0.22322   0.22356   0.22424   0.22536   0.22644
 Alpha virt. eigenvalues --    0.22901   0.23058   0.23143   0.23216   0.23262
 Alpha virt. eigenvalues --    0.23429   0.23675   0.23889   0.23949   0.24202
 Alpha virt. eigenvalues --    0.24323   0.24427   0.24495   0.24725   0.24855
 Alpha virt. eigenvalues --    0.24925   0.25159   0.25251   0.25334   0.25500
 Alpha virt. eigenvalues --    0.25741   0.25805   0.25934   0.26019   0.26191
 Alpha virt. eigenvalues --    0.26386   0.26513   0.26569   0.26682   0.26877
 Alpha virt. eigenvalues --    0.26950   0.27223   0.27387   0.27436   0.27571
 Alpha virt. eigenvalues --    0.27691   0.27856   0.27908   0.28034   0.28205
 Alpha virt. eigenvalues --    0.28305   0.28332   0.28439   0.28569   0.28837
 Alpha virt. eigenvalues --    0.29002   0.29235   0.29338   0.29622   0.29721
 Alpha virt. eigenvalues --    0.29908   0.30124   0.30206   0.30296   0.30406
 Alpha virt. eigenvalues --    0.30685   0.30850   0.30894   0.31134   0.31251
 Alpha virt. eigenvalues --    0.31402   0.31600   0.31638   0.31760   0.31860
 Alpha virt. eigenvalues --    0.32058   0.32147   0.32527   0.32685   0.32787
 Alpha virt. eigenvalues --    0.32979   0.33003   0.33291   0.33421   0.33597
 Alpha virt. eigenvalues --    0.33792   0.33927   0.34133   0.34420   0.34425
 Alpha virt. eigenvalues --    0.34617   0.34806   0.34929   0.35067   0.35183
 Alpha virt. eigenvalues --    0.35471   0.35507   0.35624   0.35902   0.36138
 Alpha virt. eigenvalues --    0.36204   0.36352   0.36492   0.36676   0.37005
 Alpha virt. eigenvalues --    0.37134   0.37263   0.37381   0.37679   0.37869
 Alpha virt. eigenvalues --    0.37978   0.38148   0.38288   0.38359   0.38639
 Alpha virt. eigenvalues --    0.38699   0.38915   0.39232   0.39350   0.39425
 Alpha virt. eigenvalues --    0.39756   0.39881   0.40099   0.40204   0.40321
 Alpha virt. eigenvalues --    0.40458   0.40594   0.40772   0.41106   0.41209
 Alpha virt. eigenvalues --    0.41375   0.41515   0.41738   0.41815   0.42322
 Alpha virt. eigenvalues --    0.42467   0.42512   0.42724   0.42925   0.43147
 Alpha virt. eigenvalues --    0.43178   0.43456   0.43582   0.43647   0.43852
 Alpha virt. eigenvalues --    0.44280   0.44403   0.44607   0.44897   0.45078
 Alpha virt. eigenvalues --    0.45182   0.45255   0.45642   0.45910   0.46079
 Alpha virt. eigenvalues --    0.46331   0.46750   0.46898   0.47147   0.47259
 Alpha virt. eigenvalues --    0.47448   0.47489   0.47699   0.47929   0.48155
 Alpha virt. eigenvalues --    0.48499   0.48752   0.49191   0.49480   0.49712
 Alpha virt. eigenvalues --    0.49888   0.50182   0.50235   0.50723   0.51135
 Alpha virt. eigenvalues --    0.51315   0.51575   0.52002   0.52292   0.52559
 Alpha virt. eigenvalues --    0.52955   0.53324   0.53468   0.53940   0.54115
 Alpha virt. eigenvalues --    0.54562   0.54883   0.55493   0.55942   0.56268
 Alpha virt. eigenvalues --    0.56362   0.56813   0.57295   0.57750   0.58364
 Alpha virt. eigenvalues --    0.58720   0.59113   0.59206   0.59735   0.60106
 Alpha virt. eigenvalues --    0.60499   0.60651   0.60967   0.61410   0.61706
 Alpha virt. eigenvalues --    0.61895   0.62029   0.62604   0.62929   0.63255
 Alpha virt. eigenvalues --    0.63564   0.63764   0.63917   0.64403   0.64721
 Alpha virt. eigenvalues --    0.65014   0.65281   0.65393   0.65619   0.66139
 Alpha virt. eigenvalues --    0.66274   0.66512   0.66565   0.66869   0.67499
 Alpha virt. eigenvalues --    0.67682   0.67835   0.68053   0.68248   0.68596
 Alpha virt. eigenvalues --    0.68840   0.69027   0.69256   0.69424   0.70151
 Alpha virt. eigenvalues --    0.70192   0.70525   0.70684   0.71133   0.71214
 Alpha virt. eigenvalues --    0.71499   0.71838   0.72105   0.72180   0.72516
 Alpha virt. eigenvalues --    0.72694   0.72873   0.73421   0.73486   0.73563
 Alpha virt. eigenvalues --    0.73932   0.74262   0.74482   0.74826   0.75142
 Alpha virt. eigenvalues --    0.75475   0.76006   0.76106   0.76237   0.76607
 Alpha virt. eigenvalues --    0.77066   0.77469   0.77688   0.78126   0.78433
 Alpha virt. eigenvalues --    0.78666   0.79020   0.79383   0.79589   0.79859
 Alpha virt. eigenvalues --    0.80032   0.80093   0.80569   0.80695   0.80807
 Alpha virt. eigenvalues --    0.80963   0.81262   0.81585   0.81787   0.82000
 Alpha virt. eigenvalues --    0.82367   0.82476   0.82528   0.82568   0.82847
 Alpha virt. eigenvalues --    0.83103   0.83357   0.83689   0.83996   0.84295
 Alpha virt. eigenvalues --    0.84374   0.84522   0.84679   0.85112   0.85410
 Alpha virt. eigenvalues --    0.85419   0.85746   0.85939   0.86335   0.86466
 Alpha virt. eigenvalues --    0.86787   0.87030   0.87118   0.87260   0.87494
 Alpha virt. eigenvalues --    0.87764   0.88165   0.88267   0.88581   0.88813
 Alpha virt. eigenvalues --    0.89166   0.89283   0.89498   0.89837   0.90148
 Alpha virt. eigenvalues --    0.90362   0.90548   0.90872   0.91312   0.91415
 Alpha virt. eigenvalues --    0.91629   0.91968   0.92132   0.92342   0.92581
 Alpha virt. eigenvalues --    0.92629   0.93147   0.93295   0.93405   0.94144
 Alpha virt. eigenvalues --    0.94224   0.94600   0.94920   0.95311   0.95565
 Alpha virt. eigenvalues --    0.95856   0.96070   0.96325   0.96460   0.96769
 Alpha virt. eigenvalues --    0.97251   0.97365   0.97821   0.98175   0.98660
 Alpha virt. eigenvalues --    0.98759   0.98989   0.99429   0.99566   0.99660
 Alpha virt. eigenvalues --    0.99988   1.00837   1.01211   1.01438   1.02295
 Alpha virt. eigenvalues --    1.02646   1.03021   1.03316   1.03760   1.04537
 Alpha virt. eigenvalues --    1.04644   1.05157   1.05878   1.06125   1.06682
 Alpha virt. eigenvalues --    1.07177   1.07640   1.07862   1.08352   1.08870
 Alpha virt. eigenvalues --    1.09573   1.09653   1.10545   1.10955   1.11429
 Alpha virt. eigenvalues --    1.12202   1.12348   1.12734   1.12911   1.13339
 Alpha virt. eigenvalues --    1.14068   1.14365   1.14551   1.14825   1.15085
 Alpha virt. eigenvalues --    1.16060   1.16769   1.17251   1.17500   1.17727
 Alpha virt. eigenvalues --    1.18570   1.19018   1.19399   1.19543   1.20263
 Alpha virt. eigenvalues --    1.20854   1.21507   1.22184   1.22480   1.22994
 Alpha virt. eigenvalues --    1.23171   1.23772   1.24133   1.24557   1.25454
 Alpha virt. eigenvalues --    1.25816   1.26101   1.26467   1.27564   1.27672
 Alpha virt. eigenvalues --    1.28307   1.28458   1.29006   1.29899   1.30150
 Alpha virt. eigenvalues --    1.30690   1.31598   1.32116   1.32484   1.33535
 Alpha virt. eigenvalues --    1.33670   1.34042   1.34897   1.35243   1.35966
 Alpha virt. eigenvalues --    1.37106   1.37623   1.38026   1.38267   1.38600
 Alpha virt. eigenvalues --    1.38871   1.39827   1.40432   1.40994   1.41899
 Alpha virt. eigenvalues --    1.42344   1.42577   1.43382   1.44109   1.44683
 Alpha virt. eigenvalues --    1.45315   1.45912   1.46770   1.47200   1.47734
 Alpha virt. eigenvalues --    1.48257   1.48893   1.49440   1.50194   1.50534
 Alpha virt. eigenvalues --    1.51765   1.52260   1.52657   1.53631   1.54050
 Alpha virt. eigenvalues --    1.54424   1.54751   1.55013   1.55899   1.56459
 Alpha virt. eigenvalues --    1.56577   1.57229   1.58025   1.58401   1.59062
 Alpha virt. eigenvalues --    1.59527   1.60041   1.60129   1.60473   1.61183
 Alpha virt. eigenvalues --    1.61568   1.62048   1.62234   1.62382   1.62696
 Alpha virt. eigenvalues --    1.63043   1.63489   1.63806   1.64009   1.64238
 Alpha virt. eigenvalues --    1.64578   1.64756   1.64961   1.65464   1.65921
 Alpha virt. eigenvalues --    1.66459   1.66819   1.67551   1.67688   1.68039
 Alpha virt. eigenvalues --    1.68265   1.68647   1.69058   1.69310   1.69857
 Alpha virt. eigenvalues --    1.70107   1.70544   1.70983   1.71599   1.71844
 Alpha virt. eigenvalues --    1.71921   1.72430   1.72627   1.73201   1.73316
 Alpha virt. eigenvalues --    1.73716   1.73862   1.74281   1.74471   1.74827
 Alpha virt. eigenvalues --    1.75069   1.75517   1.76043   1.76234   1.76465
 Alpha virt. eigenvalues --    1.76755   1.77319   1.77435   1.77804   1.77966
 Alpha virt. eigenvalues --    1.78264   1.78526   1.78658   1.79011   1.79511
 Alpha virt. eigenvalues --    1.79731   1.80153   1.80720   1.80996   1.81525
 Alpha virt. eigenvalues --    1.82370   1.82426   1.82513   1.83120   1.83486
 Alpha virt. eigenvalues --    1.83731   1.84008   1.84111   1.84578   1.84751
 Alpha virt. eigenvalues --    1.85183   1.85340   1.85688   1.85930   1.86348
 Alpha virt. eigenvalues --    1.86653   1.87087   1.87401   1.87458   1.87995
 Alpha virt. eigenvalues --    1.88227   1.88911   1.89167   1.89385   1.89732
 Alpha virt. eigenvalues --    1.90097   1.90347   1.91147   1.91498   1.91893
 Alpha virt. eigenvalues --    1.92019   1.92670   1.93191   1.93198   1.93429
 Alpha virt. eigenvalues --    1.94212   1.94545   1.94680   1.95399   1.95447
 Alpha virt. eigenvalues --    1.96068   1.96228   1.97263   1.97468   1.97689
 Alpha virt. eigenvalues --    1.98133   1.98686   1.98783   1.99311   1.99830
 Alpha virt. eigenvalues --    2.00338   2.00600   2.00984   2.01046   2.01373
 Alpha virt. eigenvalues --    2.01560   2.02331   2.02631   2.02867   2.03378
 Alpha virt. eigenvalues --    2.03759   2.04214   2.04952   2.05057   2.05253
 Alpha virt. eigenvalues --    2.06189   2.06727   2.07231   2.07565   2.07834
 Alpha virt. eigenvalues --    2.08262   2.08766   2.09343   2.09771   2.09948
 Alpha virt. eigenvalues --    2.10262   2.10785   2.11222   2.11537   2.11747
 Alpha virt. eigenvalues --    2.12011   2.12717   2.13260   2.13640   2.14460
 Alpha virt. eigenvalues --    2.14734   2.15223   2.15449   2.15645   2.16254
 Alpha virt. eigenvalues --    2.16564   2.17123   2.17291   2.17809   2.18114
 Alpha virt. eigenvalues --    2.19278   2.20084   2.20396   2.20810   2.21314
 Alpha virt. eigenvalues --    2.21723   2.22531   2.22861   2.23914   2.24376
 Alpha virt. eigenvalues --    2.24738   2.25030   2.25835   2.26324   2.26763
 Alpha virt. eigenvalues --    2.27856   2.28151   2.28660   2.29602   2.30133
 Alpha virt. eigenvalues --    2.30337   2.31738   2.32474   2.33361   2.33874
 Alpha virt. eigenvalues --    2.34022   2.34729   2.34912   2.35844   2.36540
 Alpha virt. eigenvalues --    2.37183   2.37389   2.38101   2.39608   2.39930
 Alpha virt. eigenvalues --    2.40049   2.41234   2.41295   2.41699   2.41865
 Alpha virt. eigenvalues --    2.41976   2.43002   2.43622   2.44216   2.44477
 Alpha virt. eigenvalues --    2.44673   2.45749   2.46109   2.47053   2.47515
 Alpha virt. eigenvalues --    2.48379   2.48476   2.49130   2.50106   2.50897
 Alpha virt. eigenvalues --    2.52460   2.52492   2.52931   2.53208   2.55012
 Alpha virt. eigenvalues --    2.55774   2.56000   2.57112   2.58268   2.58833
 Alpha virt. eigenvalues --    2.59730   2.60247   2.60712   2.61072   2.61527
 Alpha virt. eigenvalues --    2.62218   2.63131   2.63350   2.63694   2.64070
 Alpha virt. eigenvalues --    2.64262   2.64612   2.64886   2.65490   2.66717
 Alpha virt. eigenvalues --    2.67271   2.67346   2.67907   2.68281   2.68716
 Alpha virt. eigenvalues --    2.69028   2.69819   2.69857   2.70567   2.71409
 Alpha virt. eigenvalues --    2.71818   2.72316   2.72618   2.72848   2.73228
 Alpha virt. eigenvalues --    2.73549   2.73608   2.73828   2.74851   2.75501
 Alpha virt. eigenvalues --    2.75899   2.76708   2.77217   2.77707   2.78148
 Alpha virt. eigenvalues --    2.78805   2.79257   2.80188   2.80768   2.80802
 Alpha virt. eigenvalues --    2.81346   2.81694   2.81960   2.82100   2.82899
 Alpha virt. eigenvalues --    2.83287   2.83397   2.83916   2.84285   2.84821
 Alpha virt. eigenvalues --    2.85472   2.85955   2.86555   2.86932   2.87219
 Alpha virt. eigenvalues --    2.87670   2.88434   2.88809   2.88957   2.89318
 Alpha virt. eigenvalues --    2.89881   2.90290   2.90355   2.91197   2.92035
 Alpha virt. eigenvalues --    2.92524   2.92550   2.92967   2.93514   2.93729
 Alpha virt. eigenvalues --    2.94052   2.94518   2.94556   2.95046   2.95915
 Alpha virt. eigenvalues --    2.96247   2.96696   2.97263   2.97372   2.97741
 Alpha virt. eigenvalues --    2.98240   2.99242   2.99439   2.99909   3.00189
 Alpha virt. eigenvalues --    3.00575   3.01180   3.01968   3.02633   3.02700
 Alpha virt. eigenvalues --    3.03463   3.03710   3.04024   3.04360   3.04666
 Alpha virt. eigenvalues --    3.04961   3.05513   3.05925   3.06198   3.06568
 Alpha virt. eigenvalues --    3.07271   3.07657   3.08494   3.08602   3.09189
 Alpha virt. eigenvalues --    3.09961   3.10499   3.10905   3.12628   3.12852
 Alpha virt. eigenvalues --    3.13555   3.13880   3.14894   3.15150   3.16243
 Alpha virt. eigenvalues --    3.17025   3.17634   3.18519   3.18749   3.19253
 Alpha virt. eigenvalues --    3.20073   3.20642   3.21226   3.21719   3.22212
 Alpha virt. eigenvalues --    3.22739   3.23490   3.24019   3.24821   3.25084
 Alpha virt. eigenvalues --    3.25733   3.26992   3.27537   3.28749   3.29835
 Alpha virt. eigenvalues --    3.30148   3.30849   3.31074   3.32030   3.32823
 Alpha virt. eigenvalues --    3.33558   3.33942   3.35064   3.35642   3.37184
 Alpha virt. eigenvalues --    3.38649   3.40690   3.40811   3.42166   3.43192
 Alpha virt. eigenvalues --    3.43620   3.44203   3.44368   3.45921   3.46528
 Alpha virt. eigenvalues --    3.46905   3.47797   3.48186   3.49498   3.50797
 Alpha virt. eigenvalues --    3.51310   3.52365   3.53169   3.54200   3.54607
 Alpha virt. eigenvalues --    3.55198   3.57283   3.62117   3.64475   3.65887
 Alpha virt. eigenvalues --    3.67318   3.68158   3.69387   3.72655   3.74038
 Alpha virt. eigenvalues --    3.75981   3.76771   3.78337   3.82757   3.83526
 Alpha virt. eigenvalues --    3.88553   3.89197   3.89960   3.91436   3.91896
 Alpha virt. eigenvalues --    3.92482   3.93181   3.93238   3.94493   3.94689
 Alpha virt. eigenvalues --    3.95147   3.95722   3.95974   3.98447   3.98665
 Alpha virt. eigenvalues --    3.99564   4.00240   4.01300   4.02439   4.02831
 Alpha virt. eigenvalues --    4.05293   4.06679   4.10567   4.10853   4.11629
 Alpha virt. eigenvalues --    4.13723   4.14526   4.14822   4.17064   4.18867
 Alpha virt. eigenvalues --    4.20902   4.25034   4.25664   4.26333   4.26857
 Alpha virt. eigenvalues --    4.27577   4.27722   4.28682   4.29950   4.31016
 Alpha virt. eigenvalues --    4.34316   4.37274   4.37620   4.40964   4.43174
 Alpha virt. eigenvalues --    4.44840   4.47076   4.47368   4.48212   4.53530
 Alpha virt. eigenvalues --    4.54741   4.63063   4.78424   4.82504   4.94579
 Alpha virt. eigenvalues --    4.95040   5.29763   5.32765   5.42672   5.44903
 Alpha virt. eigenvalues --    5.46581   5.47270   5.48092   5.55520   5.58055
 Alpha virt. eigenvalues --    5.61131   5.67300   5.69409   5.71076   5.75928
 Alpha virt. eigenvalues --    5.76542   5.81109   5.82140   5.91899   7.64679
 Alpha virt. eigenvalues --   14.29680  14.37198  14.44537  14.95915  23.76626
 Alpha virt. eigenvalues --   23.83051  23.94958  23.98897  24.01529  24.02343
 Alpha virt. eigenvalues --   24.03316  24.05375  24.07141  24.10590  24.10974
 Alpha virt. eigenvalues --   24.11691  24.12007  24.12307  24.13662  24.13831
 Alpha virt. eigenvalues --   24.14144  24.14756  24.16225  24.16554  24.17947
 Alpha virt. eigenvalues --   24.18683  24.20060  24.20896  24.21567  24.22407
 Alpha virt. eigenvalues --   24.22691  24.23533  24.31800  24.31931  24.43275
 Alpha virt. eigenvalues --   35.70422  50.09356  50.16701  50.16838  50.19747
 Alpha virt. eigenvalues --   50.24936  50.27443 163.91065
          Condensed to atoms (all electrons):
 Mulliken charges:
               1
     1  C    0.025284
     2  C    0.110575
     3  H    0.198952
     4  C   -0.843976
     5  H    0.181429
     6  H    0.182403
     7  H    0.194880
     8  C   -0.680478
     9  H    0.200971
    10  H    0.153135
    11  H    0.189595
    12  B    0.458967
    13  C   -0.622829
    14  H    0.174002
    15  H    0.124827
    16  H    0.175750
    17  O    0.034037
    18  O   -0.084967
    19  C    0.146697
    20  C   -0.553146
    21  C   -0.830677
    22  H    0.182213
    23  H    0.192153
    24  H    0.157765
    25  C   -0.334454
    26  H    0.127413
    27  H    0.198727
    28  H    0.176478
    29  C   -0.232889
    30  H    0.014714
    31  H    0.251440
    32  H    0.270020
    33  C   -0.746544
    34  H    0.228039
    35  H    0.145211
    36  H    0.203166
    37  P   -0.510191
    38  O   -0.007904
    39  O    0.014164
    40  N   -0.478834
    41  H    0.387275
    42  H    0.309688
    43  Li  -0.916408
    44  C   -0.012000
    45  O   -0.007593
    46  C   -0.084518
    47  C   -0.581422
    48  C   -0.355560
    49  H    0.001631
    50  H    0.255156
    51  H    0.243347
    52  H    0.210776
    53  H    0.270614
    54  H    0.188466
    55  H    0.238309
    56  H    0.234677
    57  C   -0.024633
    58  O    0.235232
    59  C   -0.198669
    60  C   -0.585758
    61  C   -0.674423
    62  H    0.087493
    63  H    0.235051
    64  H    0.237415
    65  H    0.204619
    66  H    0.266704
    67  H    0.140802
    68  H    0.222614
    69  H    0.223256
    70  C    0.025923
    71  C   -0.042590
    72  C   -0.073238
    73  C   -0.540293
    74  H    0.304946
    75  C   -0.448638
    76  H    0.364010
    77  C   -0.422550
    78  H    0.283550
    79  H    0.296644
    80  H    0.274964
    81  C   -0.258744
    82  C   -0.153774
    83  C    0.251026
    84  C   -0.203814
    85  H    0.285204
    86  C   -0.122168
    87  H    0.333461
    88  C   -0.534561
    89  H    0.287160
    90  H    0.297610
    91  H    0.257618
 Sum of Mulliken charges =  -0.00000
 Mulliken charges with hydrogens summed into heavy atoms:
               1
     1  C    0.025284
     2  C    0.309527
     4  C   -0.285264
     8  C   -0.136777
    12  B    0.458967
    13  C   -0.148251
    17  O    0.034037
    18  O   -0.084967
    19  C    0.146697
    20  C   -0.553146
    21  C   -0.298546
    25  C    0.168164
    29  C    0.303284
    33  C   -0.170128
    37  P   -0.510191
    38  O   -0.007904
    39  O    0.014164
    40  N    0.218130
    43  Li  -0.916408
    44  C    0.244787
    45  O   -0.007593
    46  C    0.369605
    47  C   -0.122343
    48  C    0.117426
    57  C    0.297910
    58  O    0.235232
    59  C    0.243365
    60  C   -0.178252
    61  C   -0.228553
    70  C    0.025923
    71  C    0.262356
    72  C    0.290772
    73  C   -0.256743
    75  C   -0.151995
    77  C   -0.147586
    81  C   -0.258744
    82  C    0.131430
    83  C    0.584487
    84  C    0.083346
    86  C    0.175442
    88  C   -0.276943
 Electronic spatial extent (au):  <R**2>=          21140.7975
 Charge=             -0.0000 electrons
 Dipole moment (field-independent basis, Debye):
    X=             14.9527    Y=              6.6395    Z=             -6.3466  Tot=             17.5484
 Quadrupole moment (field-independent basis, Debye-Ang):
   XX=           -274.7402   YY=           -236.3715   ZZ=           -230.7638
   XY=            -23.4188   XZ=              3.4867   YZ=              2.6147
 Traceless Quadrupole moment (field-independent basis, Debye-Ang):
   XX=            -27.4483   YY=             10.9203   ZZ=             16.5280
   XY=            -23.4188   XZ=              3.4867   YZ=              2.6147
 Octapole moment (field-independent basis, Debye-Ang**2):
  XXX=            477.0560  YYY=            103.8139  ZZZ=           -104.9849  XYY=            124.4865
  XXY=            135.5460  XXZ=            -64.1093  XZZ=            122.8690  YZZ=             51.3551
  YYZ=            -51.8832  XYZ=             36.1058
 Hexadecapole moment (field-independent basis, Debye-Ang**3):
 XXXX=         -16047.9617 YYYY=          -7019.3957 ZZZZ=          -5929.8276 XXXY=           -517.4117
 XXXZ=            979.3632 YYYX=           -860.9770 YYYZ=           -386.8990 ZZZX=            905.6227
 ZZZY=           -162.5610 XXYY=          -3722.4304 XXZZ=          -3504.1325 YYZZ=          -2087.9684
 XXYZ=            114.1490 YYXZ=            280.5964 ZZXY=           -117.7731
 N-N= 5.668294659351D+03 E-N=-1.623003427498D+04  KE= 2.083053927803D+03
 Unable to Open any file for archive entry.
 1\1\GINC-NODE06\SP\RwB97XD\6-311++G(d,p)\C31H50B1Li1N1O6P1\WHUGHES2\08
 -Oct-2025\0\\# wb97xd/6-311++g** nosymm int=ultrafine scrf=(smd,solven
 t=tetrahydrofuran)\\r1-phosphine-2thf-full-c13_tzpop-sp\\0,1\C,0,-4.57
 23,-0.0314,0.9087\C,0,-4.3121,0.7971,1.9328\H,0,-3.3131,0.7518,2.3689\
 C,0,-5.2541,1.809,2.5488\H,0,-6.1777,1.348,2.9259\H,0,-4.7825,2.3226,3
 .3945\H,0,-5.5608,2.5828,1.8295\C,0,-5.9349,-0.0147,0.2487\H,0,-6.2599
 ,-1.0338,0.0009\H,0,-6.7201,0.4484,0.8599\H,0,-5.8991,0.5359,-0.704\B,
 0,-3.4841,-1.0862,0.2809\C,0,-3.4139,-0.9429,-1.3519\H,0,-4.3741,-1.19
 99,-1.8248\H,0,-3.1685,0.0781,-1.6848\H,0,-2.6576,-1.6149,-1.7826\O,0,
 -2.1088,-0.8756,0.8955\O,0,-3.7913,-2.5027,0.643\C,0,-2.9661,-2.9068,1
 .7116\C,0,-1.646,-2.0916,1.4751\C,0,-2.7731,-4.4227,1.6432\H,0,-2.0397
 ,-4.7665,2.3839\H,0,-3.7254,-4.9234,1.8555\H,0,-2.4426,-4.7409,0.6501\
 C,0,-3.6275,-2.5727,3.0594\H,0,-3.7285,-1.4949,3.2037\H,0,-4.6338,-3.0
 078,3.0714\H,0,-3.065,-2.9902,3.904\C,0,-0.7153,-2.7849,0.472\H,0,0.08
 84,-2.0949,0.1963\H,0,-0.2464,-3.6828,0.8922\H,0,-1.2573,-3.0668,-0.43
 52\C,0,-0.8571,-1.7694,2.7418\H,0,-0.5543,-2.6868,3.2628\H,0,0.0452,-1
 .2075,2.4759\H,0,-1.4454,-1.1569,3.4315\P,0,2.1742,0.6252,-0.0225\O,0,
 0.8577,0.3254,0.6319\O,0,2.0941,1.6205,-1.3096\N,0,1.5787,2.9093,-0.91
 32\H,0,1.9493,3.5219,-1.6378\H,0,0.5703,2.8192,-1.0697\Li,0,-0.8821,0.
 03,-0.2993\C,0,-1.3726,2.5616,0.8125\O,0,-1.2778,2.0581,-0.5436\C,0,-2
 .2069,2.7613,-1.3833\C,0,-3.2977,3.2516,-0.447\C,0,-2.494,3.6027,0.809
 3\H,0,-1.592,1.7059,1.4552\H,0,-0.4014,2.9785,1.0951\H,0,-1.6869,3.600
 8,-1.8686\H,0,-2.5553,2.0707,-2.1537\H,0,-3.8453,4.104,-0.8591\H,0,-4.
 0003,2.439,-0.2366\H,0,-2.0792,4.6136,0.726\H,0,-3.0925,3.5518,1.7226\
 C,0,0.1389,-1.7797,-2.6998\O,0,-0.1779,-0.4915,-2.1492\C,0,-0.3516,0.4
 278,-3.2257\C,0,0.6659,-0.0118,-4.2656\C,0,0.5952,-1.5411,-4.1507\H,0,
 0.918,-2.2183,-2.0724\H,0,-0.7503,-2.4183,-2.6551\H,0,-1.38,0.3565,-3.
 6109\H,0,-0.1823,1.4321,-2.835\H,0,0.4256,0.3526,-5.2684\H,0,1.6576,0.
 3569,-3.9849\H,0,-0.1425,-1.9434,-4.8522\H,0,1.5554,-2.0212,-4.3574\C,
 0,2.9555,-0.8097,-0.7801\C,0,3.5842,-0.7593,-2.0277\C,0,2.9053,-2.0155
 ,-0.0716\C,0,4.1392,-1.9155,-2.5712\H,0,3.6294,0.1731,-2.581\C,0,3.464
 8,-3.1675,-0.6169\H,0,2.4194,-2.0603,0.8996\C,0,4.0761,-3.1189,-1.8697
 \H,0,4.6173,-1.8763,-3.5458\H,0,3.4167,-4.1029,-0.067\H,0,4.5058,-4.01
 98,-2.2987\C,0,3.319,1.382,1.1478\C,0,4.6342,1.6704,0.7678\C,0,2.8835,
 1.673,2.4427\C,0,5.5074,2.2543,1.6803\H,0,4.9793,1.436,-0.2366\C,0,3.7
 616,2.2563,3.3544\H,0,1.8624,1.4425,2.7322\C,0,5.0704,2.5474,2.9734\H,
 0,6.5286,2.478,1.3855\H,0,3.4228,2.4823,4.3614\H,0,5.7543,3.0007,3.685
 6\\Version=AS64L-G16RevC.01\HF=-2091.3868531\RMSD=2.302e-09\Dipole=5.8
 82835,2.6121795,-2.4969607\Quadrupole=-20.4071744,8.1190003,12.288174,
 -17.4113166,2.5922472,1.9439991\PG=C01 [X(C31H50B1Li1N1O6P1)]\\@
 The archive entry for this job was punched.


 HO!  SUCH BUGS AND GOBLINS IN MY LIFE!

                            -- HAMLET, ACT 5, SCENE 2
 Job cpu time:       0 days  9 hours 27 minutes 47.8 seconds.
 Elapsed time:       0 days  2 hours 23 minutes 15.3 seconds.
 File lengths (MBytes):  RWF=   1336 Int=      0 D2E=      0 Chk=     95 Scr=      1
 Normal termination of Gaussian 16 at Wed Oct  8 18:22:08 2025.
