Job Start Time: Wed Oct  8 15:57:09 MDT 2025
SLURM Job ID: 768204
SLURM Job Name: r1-phosphine-2thf-full-c10_tzpop-sp
 Entering Gaussian System, Link 0=/opt/apps/Gaussian/G16C/g16/g16
 Initial command:
 /opt/apps/Gaussian/G16C/g16/l1.exe "/tmp/768204/Gau-2380030.inp" -scrdir="/tmp/768204/"
 Entering Link 1 = /opt/apps/Gaussian/G16C/g16/l1.exe PID=   2380031.
  
 Copyright (c) 1988-2019, Gaussian, Inc.  All Rights Reserved.
  
 This is part of the Gaussian(R) 16 program.  It is based on
 the Gaussian(R) 09 system (copyright 2009, Gaussian, Inc.),
 the Gaussian(R) 03 system (copyright 2003, Gaussian, Inc.),
 the Gaussian(R) 98 system (copyright 1998, Gaussian, Inc.),
 the Gaussian(R) 94 system (copyright 1995, Gaussian, Inc.),
 the Gaussian 92(TM) system (copyright 1992, Gaussian, Inc.),
 the Gaussian 90(TM) system (copyright 1990, Gaussian, Inc.),
 the Gaussian 88(TM) system (copyright 1988, Gaussian, Inc.),
 the Gaussian 86(TM) system (copyright 1986, Carnegie Mellon
 University), and the Gaussian 82(TM) system (copyright 1983,
 Carnegie Mellon University). Gaussian is a federally registered
 trademark of Gaussian, Inc.
  
 This software contains proprietary and confidential information,
 including trade secrets, belonging to Gaussian, Inc.
  
 This software is provided under written license and may be
 used, copied, transmitted, or stored only in accord with that
 written license.
  
 The following legend is applicable only to US Government
 contracts under FAR:
  
                    RESTRICTED RIGHTS LEGEND
  
 Use, reproduction and disclosure by the US Government is
 subject to restrictions as set forth in subparagraphs (a)
 and (c) of the Commercial Computer Software - Restricted
 Rights clause in FAR 52.227-19.
  
 Gaussian, Inc.
 340 Quinnipiac St., Bldg. 40, Wallingford CT 06492
  
  
 ---------------------------------------------------------------
 Warning -- This program may not be used in any manner that
 competes with the business of Gaussian, Inc. or will provide
 assistance to any competitor of Gaussian, Inc.  The licensee
 of this program is prohibited from giving any competitor of
 Gaussian, Inc. access to this program.  By using this program,
 the user acknowledges that Gaussian, Inc. is engaged in the
 business of creating and licensing software in the field of
 computational chemistry and represents and warrants to the
 licensee that it is not a competitor of Gaussian, Inc. and that
 it will not use this program in any manner prohibited above.
 ---------------------------------------------------------------
  

 Cite this work as:
 Gaussian 16, Revision C.01,
 M. J. Frisch, G. W. Trucks, H. B. Schlegel, G. E. Scuseria, 
 M. A. Robb, J. R. Cheeseman, G. Scalmani, V. Barone, 
 G. A. Petersson, H. Nakatsuji, X. Li, M. Caricato, A. V. Marenich, 
 J. Bloino, B. G. Janesko, R. Gomperts, B. Mennucci, H. P. Hratchian, 
 J. V. Ortiz, A. F. Izmaylov, J. L. Sonnenberg, D. Williams-Young, 
 F. Ding, F. Lipparini, F. Egidi, J. Goings, B. Peng, A. Petrone, 
 T. Henderson, D. Ranasinghe, V. G. Zakrzewski, J. Gao, N. Rega, 
 G. Zheng, W. Liang, M. Hada, M. Ehara, K. Toyota, R. Fukuda, 
 J. Hasegawa, M. Ishida, T. Nakajima, Y. Honda, O. Kitao, H. Nakai, 
 T. Vreven, K. Throssell, J. A. Montgomery, Jr., J. E. Peralta, 
 F. Ogliaro, M. J. Bearpark, J. J. Heyd, E. N. Brothers, K. N. Kudin, 
 V. N. Staroverov, T. A. Keith, R. Kobayashi, J. Normand, 
 K. Raghavachari, A. P. Rendell, J. C. Burant, S. S. Iyengar, 
 J. Tomasi, M. Cossi, J. M. Millam, M. Klene, C. Adamo, R. Cammi, 
 J. W. Ochterski, R. L. Martin, K. Morokuma, O. Farkas, 
 J. B. Foresman, and D. J. Fox, Gaussian, Inc., Wallingford CT, 2019.
 
 ******************************************
 Gaussian 16:  AS64L-G16RevC.01  3-Jul-2019
                 8-Oct-2025 
 ******************************************
 %chk=r1-phosphine-2thf-full-c10_tzpop-sp.chk
 %nprocshared=4
 Will use up to    4 processors via shared memory.
 %mem=8GB
 ----------------------------------------------------------------------
 # wb97xd/6-311++g** nosymm int=ultrafine scrf=(smd,solvent=tetrahydrof
 uran)
 ----------------------------------------------------------------------
 1/38=1,172=1/1;
 2/12=2,15=1,17=6,18=5,40=1/2;
 3/5=4,6=6,7=1111,11=2,25=1,30=1,70=32201,72=20,74=-58,75=-5/1,2,3;
 4//1;
 5/5=2,38=5,53=20/2;
 6/7=2,8=2,9=2,10=2,28=1/1;
 99/5=1,9=1/99;
 -----------------------------------
 r1-phosphine-2thf-full-c10_tzpop-sp
 -----------------------------------
 Symbolic Z-matrix:
 Charge =  0 Multiplicity = 1
 C                    -1.7298   -2.5539    0.3601 
 C                    -2.1953   -2.0396   -0.7909 
 H                    -2.304    -0.9535   -0.8376 
 C                    -2.5469   -2.7302   -2.0826 
 H                    -3.5556   -2.4561   -2.4224 
 H                    -1.8563   -2.4265   -2.8845 
 H                    -2.5064   -3.8225   -2.018 
 C                    -1.5184   -4.0379    0.5591 
 H                    -1.9359   -4.6728   -0.2322 
 H                    -0.446    -4.2696    0.6337 
 H                    -1.9632   -4.3533    1.5121 
 B                    -1.2656   -1.6025    1.6094 
 C                     0.3708   -1.5983    1.7564 
 H                     0.8441   -1.0489    0.9312 
 H                     0.701    -1.1226    2.6917 
 H                     0.8021   -2.6117    1.7496 
 O                    -1.7412   -0.1683    1.4344 
 O                    -1.9584   -2.0244    2.8685 
 C                    -2.5264   -0.9022    3.5031 
 C                    -2.8422    0.0573    2.3039 
 C                    -1.5242   -0.2873    4.4951 
 H                    -1.9763    0.515     5.0918 
 H                    -1.1833   -1.0718    5.1806 
 H                    -0.6451    0.115     3.9858 
 C                    -3.7626   -1.3394    4.2906 
 H                    -4.3062   -0.4752    4.6938 
 H                    -4.447    -1.9246    3.6702 
 H                    -3.4572   -1.9685    5.1353 
 C                    -2.8879    1.5393    2.6623 
 H                    -1.9333    1.8791    3.0719 
 H                    -3.1006    2.138     1.7683 
 H                    -3.6745    1.7431    3.3992 
 C                    -4.151    -0.3455    1.6097 
 H                    -5.0274   -0.048     2.1981 
 H                    -4.2153    0.1411    0.6328 
 H                    -4.1914   -1.4245    1.44 
 P                     1.7201   -0.0209   -1.6631 
 O                     0.2667    0.1293   -1.3243 
 O                     2.0972    0.7231   -3.0796 
 N                     1.3037    0.3311   -4.208 
 H                     0.3277    0.3843   -3.9096 
 H                     1.5103   -0.6575   -4.3699 
 Li                   -0.9549    0.9035    0.0412 
 C                    -1.6107    2.2539   -2.4998 
 O                    -2.1071    2.1963   -1.1609 
 C                    -3.5252    2.125    -1.3155 
 C                    -3.7594    1.1597   -2.4875 
 C                    -2.4053    1.1756   -3.2391 
 H                    -1.8111    3.2542   -2.9116 
 H                    -0.535     2.0859   -2.4632 
 H                    -3.9524    1.8028   -0.367 
 H                    -3.9034    3.131    -1.5475 
 H                    -3.9959    0.1551   -2.1252 
 H                    -4.5892    1.497    -3.115 
 H                    -1.9007    0.2096   -3.1348 
 H                    -2.5099    1.4012   -4.3041 
 C                     0.7823    2.0246    2.0909 
 O                     0.1723    2.3343    0.83 
 C                     0.0788    3.7485    0.6952 
 C                    -0.1798    4.2465    2.1103 
 C                     0.6971    3.3009    2.9469 
 H                     0.2239    1.1839    2.5034 
 H                     1.8174    1.7099    1.9233 
 H                     1.0266    4.1467    0.3019 
 H                    -0.7238    3.9567   -0.0148 
 H                     0.0861    5.2996    2.2396 
 H                    -1.2387    4.1216    2.3601 
 H                     1.6942    3.7302    3.0904 
 H                     0.2713    3.1011    3.9345 
 C                     2.1799   -1.7465   -1.8909 
 C                     3.449    -2.0888   -2.3764 
 C                     1.2423   -2.7419   -1.6041 
 C                     3.7753   -3.427    -2.5705 
 H                     4.1805   -1.3152   -2.5979 
 C                     1.5747   -4.0806   -1.8039 
 H                     0.2621   -2.4659   -1.222 
 C                     2.8373   -4.4218   -2.2851 
 H                     4.7591   -3.6953   -2.9445 
 H                     0.8455   -4.8545   -1.5818 
 H                     3.0951   -5.4663   -2.4382 
 C                     2.8924    0.7992   -0.5721 
 C                     3.5907    0.0681    0.3942 
 C                     3.0516    2.1878   -0.6506 
 C                     4.4512    0.7238    1.2724 
 H                     3.4625   -1.0081    0.4716 
 C                     3.9135    2.8367    0.2273 
 H                     2.5029    2.7614   -1.3914 
 C                     4.6141    2.1052    1.1876 
 H                     4.9901    0.1538    2.0234 
 H                     4.0378    3.9139    0.1637 
 H                     5.2858    2.6147    1.873 
 
 Symmetry turned off by external request.
 Stoichiometry    C31H50BLiNO6P
 Framework group  C1[X(C31H50BLiNO6P)]
 Deg. of freedom   267
 Full point group                 C1      NOp   1
                          Input orientation:                          
 ---------------------------------------------------------------------
 Center     Atomic      Atomic             Coordinates (Angstroms)
 Number     Number       Type             X           Y           Z
 ---------------------------------------------------------------------
      1          6           0       -1.729800   -2.553900    0.360100
      2          6           0       -2.195300   -2.039600   -0.790900
      3          1           0       -2.304000   -0.953500   -0.837600
      4          6           0       -2.546900   -2.730200   -2.082600
      5          1           0       -3.555600   -2.456100   -2.422400
      6          1           0       -1.856300   -2.426500   -2.884500
      7          1           0       -2.506400   -3.822500   -2.018000
      8          6           0       -1.518400   -4.037900    0.559100
      9          1           0       -1.935900   -4.672800   -0.232200
     10          1           0       -0.446000   -4.269600    0.633700
     11          1           0       -1.963200   -4.353300    1.512100
     12          5           0       -1.265600   -1.602500    1.609400
     13          6           0        0.370800   -1.598300    1.756400
     14          1           0        0.844100   -1.048900    0.931200
     15          1           0        0.701000   -1.122600    2.691700
     16          1           0        0.802100   -2.611700    1.749600
     17          8           0       -1.741200   -0.168300    1.434400
     18          8           0       -1.958400   -2.024400    2.868500
     19          6           0       -2.526400   -0.902200    3.503100
     20          6           0       -2.842200    0.057300    2.303900
     21          6           0       -1.524200   -0.287300    4.495100
     22          1           0       -1.976300    0.515000    5.091800
     23          1           0       -1.183300   -1.071800    5.180600
     24          1           0       -0.645100    0.115000    3.985800
     25          6           0       -3.762600   -1.339400    4.290600
     26          1           0       -4.306200   -0.475200    4.693800
     27          1           0       -4.447000   -1.924600    3.670200
     28          1           0       -3.457200   -1.968500    5.135300
     29          6           0       -2.887900    1.539300    2.662300
     30          1           0       -1.933300    1.879100    3.071900
     31          1           0       -3.100600    2.138000    1.768300
     32          1           0       -3.674500    1.743100    3.399200
     33          6           0       -4.151000   -0.345500    1.609700
     34          1           0       -5.027400   -0.048000    2.198100
     35          1           0       -4.215300    0.141100    0.632800
     36          1           0       -4.191400   -1.424500    1.440000
     37         15           0        1.720100   -0.020900   -1.663100
     38          8           0        0.266700    0.129300   -1.324300
     39          8           0        2.097200    0.723100   -3.079600
     40          7           0        1.303700    0.331100   -4.208000
     41          1           0        0.327700    0.384300   -3.909600
     42          1           0        1.510300   -0.657500   -4.369900
     43          3           0       -0.954900    0.903500    0.041200
     44          6           0       -1.610700    2.253900   -2.499800
     45          8           0       -2.107100    2.196300   -1.160900
     46          6           0       -3.525200    2.125000   -1.315500
     47          6           0       -3.759400    1.159700   -2.487500
     48          6           0       -2.405300    1.175600   -3.239100
     49          1           0       -1.811100    3.254200   -2.911600
     50          1           0       -0.535000    2.085900   -2.463200
     51          1           0       -3.952400    1.802800   -0.367000
     52          1           0       -3.903400    3.131000   -1.547500
     53          1           0       -3.995900    0.155100   -2.125200
     54          1           0       -4.589200    1.497000   -3.115000
     55          1           0       -1.900700    0.209600   -3.134800
     56          1           0       -2.509900    1.401200   -4.304100
     57          6           0        0.782300    2.024600    2.090900
     58          8           0        0.172300    2.334300    0.830000
     59          6           0        0.078800    3.748500    0.695200
     60          6           0       -0.179800    4.246500    2.110300
     61          6           0        0.697100    3.300900    2.946900
     62          1           0        0.223900    1.183900    2.503400
     63          1           0        1.817400    1.709900    1.923300
     64          1           0        1.026600    4.146700    0.301900
     65          1           0       -0.723800    3.956700   -0.014800
     66          1           0        0.086100    5.299600    2.239600
     67          1           0       -1.238700    4.121600    2.360100
     68          1           0        1.694200    3.730200    3.090400
     69          1           0        0.271300    3.101100    3.934500
     70          6           0        2.179900   -1.746500   -1.890900
     71          6           0        3.449000   -2.088800   -2.376400
     72          6           0        1.242300   -2.741900   -1.604100
     73          6           0        3.775300   -3.427000   -2.570500
     74          1           0        4.180500   -1.315200   -2.597900
     75          6           0        1.574700   -4.080600   -1.803900
     76          1           0        0.262100   -2.465900   -1.222000
     77          6           0        2.837300   -4.421800   -2.285100
     78          1           0        4.759100   -3.695300   -2.944500
     79          1           0        0.845500   -4.854500   -1.581800
     80          1           0        3.095100   -5.466300   -2.438200
     81          6           0        2.892400    0.799200   -0.572100
     82          6           0        3.590700    0.068100    0.394200
     83          6           0        3.051600    2.187800   -0.650600
     84          6           0        4.451200    0.723800    1.272400
     85          1           0        3.462500   -1.008100    0.471600
     86          6           0        3.913500    2.836700    0.227300
     87          1           0        2.502900    2.761400   -1.391400
     88          6           0        4.614100    2.105200    1.187600
     89          1           0        4.990100    0.153800    2.023400
     90          1           0        4.037800    3.913900    0.163700
     91          1           0        5.285800    2.614700    1.873000
 ---------------------------------------------------------------------
 Rotational constants (GHZ):           0.0996363           0.0788400           0.0690768
 Standard basis: 6-311++G(d,p) (5D, 7F)
  1260 basis functions,  1940 primitive gaussians,  1301 cartesian basis functions
   157 alpha electrons      157 beta electrons
       nuclear repulsion energy      5749.0694697367 Hartrees.
 NAtoms=   91 NActive=   91 NUniq=   91 SFac= 1.00D+00 NAtFMM=   60 NAOKFM=T Big=T
 Integral buffers will be    131072 words long.
 Raffenetti 2 integral format.
 Two-electron integral symmetry is turned off.
 Nuclear repulsion after empirical dispersion term =     5748.9502892515 Hartrees.
 ------------------------------------------------------------------------------
 Polarizable Continuum Model (PCM)
 =================================
 Model                : PCM.
 Atomic radii         : SMD-Coulomb.
 Polarization charges : Total charges.
 Charge compensation  : None.
 Solution method      : On-the-fly selection.
 Cavity type          : VdW (van der Waals Surface) (Alpha=1.000).
 Cavity algorithm     : GePol (No added spheres)
                        Default sphere list used, NSphG=   91.
                        Lebedev-Laikov grids with approx.  5.0 points / Ang**2.
                        Smoothing algorithm: York/Karplus (Gamma=1.0000).
                        Polarization charges: spherical gaussians, with
                                              point-specific exponents (IZeta= 3).
                        Self-potential: point-specific (ISelfS= 7).
                        Self-field    : sphere-specific E.n sum rule (ISelfD= 2).
 Solvent              : TetraHydroFuran, Eps=   7.425700 Eps(inf)=   1.974025
 ------------------------------------------------------------------------------
 ------------------------------------------------------------------------------
 Atomic radii for non-electrostatic terms: SMD-CDS.
 ------------------------------------------------------------------------------
 Nuclear repulsion after PCM non-electrostatic terms =     5748.9434447173 Hartrees.
 One-electron integrals computed using PRISM.
 NBasis=  1260 RedAO= T EigKep=  1.24D-06  NBF=  1260
 NBsUse=  1249 1.00D-06 EigRej=  8.99D-07 NBFU=  1249
 ExpMin= 7.40D-03 ExpMax= 7.75D+04 ExpMxC= 2.65D+03 IAcc=3 IRadAn=         5 AccDes= 0.00D+00
 Harris functional with IExCor= 4639 and IRadAn=       5 diagonalized for initial guess.
 HarFok:  IExCor= 4639 AccDes= 0.00D+00 IRadAn=         5 IDoV= 1 UseB2=F ITyADJ=14
 ICtDFT=  3500011 ScaDFX=  1.000000  1.000000  1.000000  1.000000
 FoFCou: FMM=F IPFlag=           0 FMFlag=      100000 FMFlg1=        2001
         NFxFlg=           0 DoJE=T BraDBF=F KetDBF=T FulRan=T
         wScrn=  0.000000 ICntrl=       500 IOpCl=  0 I1Cent=   200000004 NGrid=           0
         NMat0=    1 NMatS0=      1 NMatT0=    0 NMatD0=    1 NMtDS0=    0 NMtDT0=    0
 Symmetry not used in FoFCou.
 Requested convergence on RMS density matrix=1.00D-08 within 128 cycles.
 Requested convergence on MAX density matrix=1.00D-06.
 Requested convergence on             energy=1.00D-06.
 No special actions if energy rises.
 Inv3:  Mode=1 IEnd=    95056923.
 Iteration    1 A*A^-1 deviation from unit magnitude is 7.77D-15 for   5621.
 Iteration    1 A*A^-1 deviation from orthogonality  is 3.22D-15 for   5610   1028.
 Iteration    1 A^-1*A deviation from unit magnitude is 7.55D-15 for   5621.
 Iteration    1 A^-1*A deviation from orthogonality  is 3.22D-15 for   5613   4773.
 Error on total polarization charges =  0.07515
 SCF Done:  E(RwB97XD) =  -2091.38478535     A.U. after   16 cycles
            NFock= 16  Conv=0.37D-08     -V/T= 2.0040
 SMD-CDS (non-electrostatic) energy       (kcal/mol) =      -4.30
 (included in total energy above)

 **********************************************************************

            Population analysis using the SCF Density.

 **********************************************************************

 Alpha  occ. eigenvalues --  -77.31872 -19.30431 -19.26199 -19.25225 -19.21943
 Alpha  occ. eigenvalues --  -19.19210 -19.17168 -14.48756 -10.32411 -10.32288
 Alpha  occ. eigenvalues --  -10.32037 -10.31457 -10.31410 -10.31156 -10.30818
 Alpha  occ. eigenvalues --  -10.30812 -10.30630 -10.30616 -10.30609 -10.30110
 Alpha  occ. eigenvalues --  -10.30059 -10.29926 -10.29798 -10.29759 -10.29726
 Alpha  occ. eigenvalues --  -10.29516 -10.27693 -10.27662 -10.27559 -10.27530
 Alpha  occ. eigenvalues --  -10.25699 -10.25472 -10.24838 -10.24637 -10.24628
 Alpha  occ. eigenvalues --  -10.24604 -10.24170 -10.22455 -10.20513  -6.79901
 Alpha  occ. eigenvalues --   -6.76353  -4.91224  -4.90945  -4.90901  -1.99344
 Alpha  occ. eigenvalues --   -1.19748  -1.15376  -1.14371  -1.09893  -1.08877
 Alpha  occ. eigenvalues --   -1.03159  -0.97601  -0.97074  -0.92915  -0.87733
 Alpha  occ. eigenvalues --   -0.87658  -0.87219  -0.87211  -0.86107  -0.86016
 Alpha  occ. eigenvalues --   -0.85753  -0.85638  -0.83478  -0.83255  -0.81744
 Alpha  occ. eigenvalues --   -0.79278  -0.77913  -0.75217  -0.75021  -0.74213
 Alpha  occ. eigenvalues --   -0.71889  -0.71411  -0.71045  -0.70483  -0.69535
 Alpha  occ. eigenvalues --   -0.68630  -0.68226  -0.68066  -0.67798  -0.67379
 Alpha  occ. eigenvalues --   -0.63008  -0.62447  -0.61111  -0.60521  -0.59943
 Alpha  occ. eigenvalues --   -0.59480  -0.59165  -0.58315  -0.58130  -0.57690
 Alpha  occ. eigenvalues --   -0.56820  -0.56048  -0.55469  -0.54754  -0.54167
 Alpha  occ. eigenvalues --   -0.54063  -0.53727  -0.53537  -0.53154  -0.52427
 Alpha  occ. eigenvalues --   -0.52112  -0.51891  -0.51822  -0.51454  -0.50501
 Alpha  occ. eigenvalues --   -0.50263  -0.50015  -0.49924  -0.49216  -0.48550
 Alpha  occ. eigenvalues --   -0.48221  -0.47862  -0.47486  -0.47256  -0.46985
 Alpha  occ. eigenvalues --   -0.46457  -0.46316  -0.45952  -0.45444  -0.45225
 Alpha  occ. eigenvalues --   -0.44894  -0.44586  -0.44272  -0.43991  -0.43937
 Alpha  occ. eigenvalues --   -0.43628  -0.43421  -0.43242  -0.43097  -0.42993
 Alpha  occ. eigenvalues --   -0.42877  -0.42489  -0.42172  -0.41782  -0.41505
 Alpha  occ. eigenvalues --   -0.41319  -0.41019  -0.40442  -0.40271  -0.40165
 Alpha  occ. eigenvalues --   -0.39884  -0.39607  -0.38436  -0.38124  -0.36970
 Alpha  occ. eigenvalues --   -0.36263  -0.35622  -0.35569  -0.35231  -0.34633
 Alpha  occ. eigenvalues --   -0.34449  -0.34016  -0.33818  -0.33604  -0.30487
 Alpha  occ. eigenvalues --   -0.27927  -0.26881
 Alpha virt. eigenvalues --    0.02027   0.02165   0.02308   0.02518   0.02629
 Alpha virt. eigenvalues --    0.02725   0.04000   0.05007   0.05297   0.05669
 Alpha virt. eigenvalues --    0.05830   0.06015   0.06113   0.06885   0.06944
 Alpha virt. eigenvalues --    0.07137   0.07377   0.07434   0.07594   0.07697
 Alpha virt. eigenvalues --    0.07848   0.07891   0.08055   0.08069   0.08602
 Alpha virt. eigenvalues --    0.08965   0.09296   0.09394   0.09549   0.09843
 Alpha virt. eigenvalues --    0.10055   0.10426   0.10550   0.10838   0.11178
 Alpha virt. eigenvalues --    0.11345   0.11495   0.11790   0.12030   0.12291
 Alpha virt. eigenvalues --    0.12565   0.12691   0.12889   0.13067   0.13212
 Alpha virt. eigenvalues --    0.13412   0.13534   0.13622   0.13911   0.14161
 Alpha virt. eigenvalues --    0.14457   0.14668   0.15002   0.15222   0.15395
 Alpha virt. eigenvalues --    0.15471   0.15609   0.15767   0.15866   0.16011
 Alpha virt. eigenvalues --    0.16244   0.16334   0.16431   0.16559   0.16942
 Alpha virt. eigenvalues --    0.17061   0.17194   0.17234   0.17322   0.17626
 Alpha virt. eigenvalues --    0.17644   0.17874   0.18084   0.18204   0.18328
 Alpha virt. eigenvalues --    0.18469   0.18526   0.18848   0.18921   0.18993
 Alpha virt. eigenvalues --    0.19145   0.19241   0.19478   0.19551   0.19653
 Alpha virt. eigenvalues --    0.19756   0.19933   0.20062   0.20124   0.20226
 Alpha virt. eigenvalues --    0.20524   0.20609   0.20668   0.20862   0.21024
 Alpha virt. eigenvalues --    0.21091   0.21319   0.21380   0.21516   0.21681
 Alpha virt. eigenvalues --    0.21852   0.22015   0.22083   0.22321   0.22363
 Alpha virt. eigenvalues --    0.22433   0.22545   0.22790   0.22867   0.22993
 Alpha virt. eigenvalues --    0.23041   0.23140   0.23258   0.23380   0.23505
 Alpha virt. eigenvalues --    0.23685   0.23843   0.23917   0.23984   0.24097
 Alpha virt. eigenvalues --    0.24261   0.24468   0.24644   0.24761   0.24850
 Alpha virt. eigenvalues --    0.25049   0.25162   0.25282   0.25545   0.25642
 Alpha virt. eigenvalues --    0.25724   0.25800   0.25974   0.26128   0.26164
 Alpha virt. eigenvalues --    0.26469   0.26591   0.26942   0.26987   0.27041
 Alpha virt. eigenvalues --    0.27205   0.27375   0.27450   0.27589   0.27836
 Alpha virt. eigenvalues --    0.27898   0.28115   0.28217   0.28429   0.28451
 Alpha virt. eigenvalues --    0.28528   0.28662   0.28821   0.29122   0.29387
 Alpha virt. eigenvalues --    0.29512   0.29687   0.29876   0.29901   0.30130
 Alpha virt. eigenvalues --    0.30173   0.30546   0.30567   0.30744   0.30918
 Alpha virt. eigenvalues --    0.30995   0.31133   0.31249   0.31353   0.31686
 Alpha virt. eigenvalues --    0.31779   0.32039   0.32151   0.32289   0.32492
 Alpha virt. eigenvalues --    0.32590   0.32768   0.33240   0.33255   0.33322
 Alpha virt. eigenvalues --    0.33591   0.33826   0.34041   0.34070   0.34178
 Alpha virt. eigenvalues --    0.34361   0.34531   0.34652   0.34865   0.35143
 Alpha virt. eigenvalues --    0.35301   0.35393   0.35525   0.35576   0.35828
 Alpha virt. eigenvalues --    0.36000   0.36139   0.36330   0.36345   0.36729
 Alpha virt. eigenvalues --    0.36840   0.36957   0.37059   0.37382   0.37517
 Alpha virt. eigenvalues --    0.37770   0.38032   0.38083   0.38239   0.38280
 Alpha virt. eigenvalues --    0.38476   0.38628   0.38832   0.38923   0.38976
 Alpha virt. eigenvalues --    0.39188   0.39553   0.39621   0.39779   0.39877
 Alpha virt. eigenvalues --    0.40316   0.40509   0.40588   0.40664   0.40698
 Alpha virt. eigenvalues --    0.40793   0.41068   0.41161   0.41246   0.41674
 Alpha virt. eigenvalues --    0.41715   0.42010   0.42219   0.42432   0.42553
 Alpha virt. eigenvalues --    0.42797   0.42980   0.43026   0.43342   0.43522
 Alpha virt. eigenvalues --    0.43715   0.43920   0.44187   0.44299   0.44548
 Alpha virt. eigenvalues --    0.44633   0.44737   0.45064   0.45460   0.45610
 Alpha virt. eigenvalues --    0.45665   0.45873   0.46085   0.46280   0.46508
 Alpha virt. eigenvalues --    0.46682   0.46974   0.47081   0.47267   0.47353
 Alpha virt. eigenvalues --    0.47796   0.47915   0.48090   0.48430   0.48755
 Alpha virt. eigenvalues --    0.48846   0.49019   0.49328   0.49699   0.49730
 Alpha virt. eigenvalues --    0.50148   0.50388   0.50834   0.51039   0.51838
 Alpha virt. eigenvalues --    0.51916   0.52174   0.52817   0.53017   0.53364
 Alpha virt. eigenvalues --    0.53556   0.53788   0.54282   0.54779   0.55160
 Alpha virt. eigenvalues --    0.55320   0.55606   0.55933   0.56205   0.56639
 Alpha virt. eigenvalues --    0.56867   0.57243   0.57784   0.57960   0.58528
 Alpha virt. eigenvalues --    0.58754   0.58942   0.59254   0.59937   0.60040
 Alpha virt. eigenvalues --    0.60520   0.60782   0.61604   0.61680   0.61943
 Alpha virt. eigenvalues --    0.62087   0.62315   0.62863   0.62998   0.63194
 Alpha virt. eigenvalues --    0.63629   0.63885   0.64043   0.64558   0.64825
 Alpha virt. eigenvalues --    0.65104   0.65440   0.65696   0.65862   0.66191
 Alpha virt. eigenvalues --    0.66337   0.66673   0.67012   0.67614   0.68213
 Alpha virt. eigenvalues --    0.68340   0.68385   0.68668   0.68974   0.69139
 Alpha virt. eigenvalues --    0.69303   0.69538   0.69927   0.70250   0.70540
 Alpha virt. eigenvalues --    0.70867   0.71118   0.71473   0.71575   0.72134
 Alpha virt. eigenvalues --    0.72179   0.72599   0.72890   0.73048   0.73272
 Alpha virt. eigenvalues --    0.73742   0.74003   0.74087   0.74320   0.74818
 Alpha virt. eigenvalues --    0.75185   0.75289   0.75577   0.75841   0.76119
 Alpha virt. eigenvalues --    0.76353   0.76510   0.77091   0.77102   0.77591
 Alpha virt. eigenvalues --    0.77983   0.78157   0.78182   0.78569   0.78890
 Alpha virt. eigenvalues --    0.78918   0.79250   0.79448   0.79645   0.79973
 Alpha virt. eigenvalues --    0.80152   0.80394   0.80569   0.81012   0.81295
 Alpha virt. eigenvalues --    0.81496   0.81544   0.81655   0.81984   0.82266
 Alpha virt. eigenvalues --    0.82451   0.82910   0.82993   0.83068   0.83426
 Alpha virt. eigenvalues --    0.83708   0.84164   0.84246   0.84315   0.84625
 Alpha virt. eigenvalues --    0.85091   0.85327   0.85358   0.85859   0.85908
 Alpha virt. eigenvalues --    0.86305   0.86582   0.86674   0.86958   0.87446
 Alpha virt. eigenvalues --    0.87555   0.87766   0.87982   0.88191   0.88453
 Alpha virt. eigenvalues --    0.88623   0.88840   0.88947   0.89391   0.89488
 Alpha virt. eigenvalues --    0.89582   0.89702   0.90186   0.90397   0.90903
 Alpha virt. eigenvalues --    0.90979   0.91160   0.91519   0.91645   0.92020
 Alpha virt. eigenvalues --    0.92197   0.92854   0.92923   0.93093   0.93298
 Alpha virt. eigenvalues --    0.93684   0.94172   0.94380   0.94552   0.94795
 Alpha virt. eigenvalues --    0.95133   0.95593   0.95880   0.96344   0.96439
 Alpha virt. eigenvalues --    0.96934   0.97357   0.97610   0.97907   0.98064
 Alpha virt. eigenvalues --    0.98239   0.98516   0.98832   0.99332   0.99494
 Alpha virt. eigenvalues --    0.99770   1.00062   1.00783   1.01055   1.01662
 Alpha virt. eigenvalues --    1.01892   1.01934   1.02257   1.02798   1.03327
 Alpha virt. eigenvalues --    1.04074   1.04416   1.04923   1.05158   1.05636
 Alpha virt. eigenvalues --    1.06118   1.06494   1.07036   1.07159   1.07584
 Alpha virt. eigenvalues --    1.07645   1.08175   1.08716   1.09609   1.09837
 Alpha virt. eigenvalues --    1.10428   1.11096   1.11405   1.12031   1.12258
 Alpha virt. eigenvalues --    1.12720   1.13020   1.13533   1.14442   1.14980
 Alpha virt. eigenvalues --    1.15593   1.16469   1.16662   1.16841   1.17656
 Alpha virt. eigenvalues --    1.18048   1.18227   1.18515   1.18744   1.18941
 Alpha virt. eigenvalues --    1.19658   1.19910   1.21168   1.21473   1.21754
 Alpha virt. eigenvalues --    1.22212   1.22279   1.22644   1.22797   1.24284
 Alpha virt. eigenvalues --    1.24475   1.24994   1.25519   1.25611   1.25769
 Alpha virt. eigenvalues --    1.26311   1.26711   1.27236   1.27750   1.27941
 Alpha virt. eigenvalues --    1.28578   1.28996   1.29922   1.30961   1.31671
 Alpha virt. eigenvalues --    1.31937   1.32371   1.33391   1.33594   1.34071
 Alpha virt. eigenvalues --    1.34522   1.35308   1.35804   1.36547   1.37387
 Alpha virt. eigenvalues --    1.37844   1.38014   1.38940   1.39351   1.40494
 Alpha virt. eigenvalues --    1.40739   1.41317   1.41515   1.42831   1.43489
 Alpha virt. eigenvalues --    1.43984   1.44510   1.45308   1.45616   1.45847
 Alpha virt. eigenvalues --    1.47272   1.47352   1.47664   1.48530   1.49709
 Alpha virt. eigenvalues --    1.49955   1.51183   1.51566   1.51874   1.52441
 Alpha virt. eigenvalues --    1.52656   1.53248   1.54037   1.54224   1.55186
 Alpha virt. eigenvalues --    1.55447   1.56394   1.56730   1.57259   1.57489
 Alpha virt. eigenvalues --    1.58008   1.58437   1.58504   1.58929   1.59558
 Alpha virt. eigenvalues --    1.60182   1.60524   1.60814   1.61169   1.61579
 Alpha virt. eigenvalues --    1.62164   1.62863   1.63138   1.63484   1.63782
 Alpha virt. eigenvalues --    1.63787   1.64441   1.64776   1.65408   1.65724
 Alpha virt. eigenvalues --    1.65911   1.66070   1.66487   1.66695   1.66935
 Alpha virt. eigenvalues --    1.67020   1.67490   1.67905   1.68075   1.68275
 Alpha virt. eigenvalues --    1.68399   1.68896   1.69187   1.69579   1.70316
 Alpha virt. eigenvalues --    1.70610   1.70945   1.71277   1.71797   1.71861
 Alpha virt. eigenvalues --    1.72239   1.72752   1.73047   1.73584   1.73952
 Alpha virt. eigenvalues --    1.74056   1.74323   1.74692   1.74807   1.75381
 Alpha virt. eigenvalues --    1.75702   1.75871   1.76082   1.76336   1.76402
 Alpha virt. eigenvalues --    1.76980   1.77174   1.77504   1.77730   1.77936
 Alpha virt. eigenvalues --    1.78400   1.79104   1.79365   1.79499   1.79901
 Alpha virt. eigenvalues --    1.80186   1.80530   1.80667   1.81546   1.81832
 Alpha virt. eigenvalues --    1.82029   1.82320   1.82868   1.83034   1.83431
 Alpha virt. eigenvalues --    1.84092   1.84346   1.84566   1.84882   1.84982
 Alpha virt. eigenvalues --    1.85332   1.85912   1.86613   1.86733   1.87069
 Alpha virt. eigenvalues --    1.87506   1.87656   1.88062   1.88726   1.88843
 Alpha virt. eigenvalues --    1.89186   1.89645   1.89718   1.90144   1.90430
 Alpha virt. eigenvalues --    1.90937   1.91217   1.91397   1.91638   1.92394
 Alpha virt. eigenvalues --    1.92554   1.93156   1.93366   1.93579   1.94724
 Alpha virt. eigenvalues --    1.94858   1.95321   1.95826   1.96153   1.96897
 Alpha virt. eigenvalues --    1.97276   1.97407   1.97708   1.98795   1.98830
 Alpha virt. eigenvalues --    1.99279   1.99789   1.99889   2.00403   2.00836
 Alpha virt. eigenvalues --    2.00922   2.01104   2.01707   2.01850   2.02310
 Alpha virt. eigenvalues --    2.02861   2.03091   2.03374   2.03771   2.04320
 Alpha virt. eigenvalues --    2.04538   2.05108   2.05494   2.05905   2.06748
 Alpha virt. eigenvalues --    2.07073   2.07162   2.07609   2.08098   2.08208
 Alpha virt. eigenvalues --    2.08548   2.09039   2.09506   2.09726   2.09944
 Alpha virt. eigenvalues --    2.10608   2.10664   2.11219   2.11500   2.12148
 Alpha virt. eigenvalues --    2.12354   2.12880   2.13146   2.13247   2.13988
 Alpha virt. eigenvalues --    2.14409   2.15036   2.15763   2.16585   2.16878
 Alpha virt. eigenvalues --    2.16970   2.17377   2.18423   2.19121   2.19772
 Alpha virt. eigenvalues --    2.19998   2.20470   2.20808   2.21672   2.22031
 Alpha virt. eigenvalues --    2.22367   2.22920   2.23609   2.23917   2.24684
 Alpha virt. eigenvalues --    2.25710   2.26127   2.26467   2.26976   2.27651
 Alpha virt. eigenvalues --    2.28573   2.28995   2.29143   2.30074   2.30386
 Alpha virt. eigenvalues --    2.30923   2.31968   2.32483   2.33215   2.33973
 Alpha virt. eigenvalues --    2.34490   2.34871   2.36155   2.36325   2.37648
 Alpha virt. eigenvalues --    2.38182   2.38535   2.39174   2.39556   2.40579
 Alpha virt. eigenvalues --    2.41206   2.41561   2.41912   2.42064   2.42091
 Alpha virt. eigenvalues --    2.42679   2.43308   2.44039   2.44581   2.45151
 Alpha virt. eigenvalues --    2.45308   2.46258   2.46589   2.47222   2.48154
 Alpha virt. eigenvalues --    2.48358   2.49472   2.49957   2.51965   2.52631
 Alpha virt. eigenvalues --    2.53154   2.54279   2.55032   2.55324   2.56634
 Alpha virt. eigenvalues --    2.57442   2.59123   2.59863   2.60170   2.60581
 Alpha virt. eigenvalues --    2.61167   2.61464   2.61806   2.62249   2.62642
 Alpha virt. eigenvalues --    2.63422   2.63536   2.63949   2.64290   2.64936
 Alpha virt. eigenvalues --    2.65614   2.65847   2.66033   2.66409   2.66892
 Alpha virt. eigenvalues --    2.67410   2.68043   2.68493   2.68774   2.69514
 Alpha virt. eigenvalues --    2.69725   2.70322   2.70764   2.70899   2.71446
 Alpha virt. eigenvalues --    2.72190   2.72491   2.73076   2.73256   2.73451
 Alpha virt. eigenvalues --    2.73815   2.73984   2.74395   2.75456   2.76089
 Alpha virt. eigenvalues --    2.76330   2.76808   2.77322   2.77878   2.78300
 Alpha virt. eigenvalues --    2.79504   2.79620   2.80101   2.80712   2.81462
 Alpha virt. eigenvalues --    2.82109   2.82367   2.82589   2.84004   2.84179
 Alpha virt. eigenvalues --    2.84814   2.85034   2.85569   2.85822   2.86755
 Alpha virt. eigenvalues --    2.86946   2.87263   2.87576   2.87884   2.88460
 Alpha virt. eigenvalues --    2.88806   2.89204   2.89371   2.89780   2.89949
 Alpha virt. eigenvalues --    2.90811   2.91314   2.92073   2.92510   2.93155
 Alpha virt. eigenvalues --    2.93676   2.93980   2.94294   2.94328   2.94870
 Alpha virt. eigenvalues --    2.95551   2.96072   2.96312   2.96605   2.96797
 Alpha virt. eigenvalues --    2.97474   2.98171   2.98328   2.98484   2.99142
 Alpha virt. eigenvalues --    2.99504   2.99639   3.00285   3.01017   3.01481
 Alpha virt. eigenvalues --    3.01716   3.01946   3.02580   3.02716   3.02906
 Alpha virt. eigenvalues --    3.04050   3.04138   3.04269   3.05209   3.05547
 Alpha virt. eigenvalues --    3.05818   3.06548   3.06972   3.07560   3.07690
 Alpha virt. eigenvalues --    3.08005   3.09236   3.09877   3.10365   3.11149
 Alpha virt. eigenvalues --    3.11473   3.12253   3.12487   3.12968   3.13624
 Alpha virt. eigenvalues --    3.14175   3.15014   3.15661   3.16330   3.17045
 Alpha virt. eigenvalues --    3.18625   3.18782   3.19142   3.20883   3.20974
 Alpha virt. eigenvalues --    3.21917   3.22401   3.22909   3.23412   3.24626
 Alpha virt. eigenvalues --    3.25341   3.26190   3.26324   3.26579   3.26832
 Alpha virt. eigenvalues --    3.28333   3.29155   3.29656   3.30472   3.30679
 Alpha virt. eigenvalues --    3.32183   3.32461   3.32794   3.34120   3.34390
 Alpha virt. eigenvalues --    3.35461   3.35832   3.36663   3.37334   3.38150
 Alpha virt. eigenvalues --    3.39140   3.41529   3.41683   3.42001   3.43301
 Alpha virt. eigenvalues --    3.43886   3.44432   3.46688   3.47950   3.48154
 Alpha virt. eigenvalues --    3.48734   3.49225   3.49531   3.50864   3.51274
 Alpha virt. eigenvalues --    3.52435   3.52651   3.53046   3.54491   3.56834
 Alpha virt. eigenvalues --    3.58839   3.64914   3.66487   3.67404   3.67691
 Alpha virt. eigenvalues --    3.68010   3.69049   3.72751   3.74725   3.75780
 Alpha virt. eigenvalues --    3.76712   3.78472   3.83897   3.85249   3.87968
 Alpha virt. eigenvalues --    3.89203   3.89682   3.91170   3.92198   3.92628
 Alpha virt. eigenvalues --    3.93295   3.94122   3.94719   3.95004   3.95170
 Alpha virt. eigenvalues --    3.96111   3.96719   3.97697   3.98671   3.99608
 Alpha virt. eigenvalues --    4.00986   4.01516   4.02808   4.03631   4.05365
 Alpha virt. eigenvalues --    4.07784   4.10955   4.12262   4.14159   4.14641
 Alpha virt. eigenvalues --    4.14739   4.15017   4.17295   4.20089   4.20551
 Alpha virt. eigenvalues --    4.21665   4.25141   4.26168   4.26437   4.27135
 Alpha virt. eigenvalues --    4.27502   4.28634   4.29623   4.30502   4.33633
 Alpha virt. eigenvalues --    4.34625   4.39226   4.39372   4.42157   4.44397
 Alpha virt. eigenvalues --    4.46939   4.47658   4.50346   4.53452   4.57781
 Alpha virt. eigenvalues --    4.60787   4.69871   4.79379   4.94388   4.95476
 Alpha virt. eigenvalues --    5.24726   5.29003   5.37933   5.44476   5.45465
 Alpha virt. eigenvalues --    5.47984   5.53160   5.56305   5.59878   5.63010
 Alpha virt. eigenvalues --    5.67645   5.70383   5.71582   5.72923   5.77836
 Alpha virt. eigenvalues --    5.79963   5.84294   5.91920   7.61685  14.31448
 Alpha virt. eigenvalues --   14.37194  14.41822  14.97278  23.79059  23.83371
 Alpha virt. eigenvalues --   23.96219  23.98814  24.01719  24.02557  24.03822
 Alpha virt. eigenvalues --   24.05732  24.06776  24.10345  24.11780  24.12157
 Alpha virt. eigenvalues --   24.12379  24.12756  24.13124  24.13992  24.14276
 Alpha virt. eigenvalues --   24.14722  24.15291  24.15624  24.18206  24.19663
 Alpha virt. eigenvalues --   24.20103  24.20936  24.21889  24.22717  24.22831
 Alpha virt. eigenvalues --   24.26377  24.31785  24.32144  24.43869  35.67460
 Alpha virt. eigenvalues --   50.08474  50.13940  50.16929  50.19655  50.25478
 Alpha virt. eigenvalues --   50.27548 163.87672
          Condensed to atoms (all electrons):
 Mulliken charges:
               1
     1  C   -0.190817
     2  C    0.192194
     3  H   -0.013864
     4  C   -0.585838
     5  H    0.206120
     6  H    0.209981
     7  H    0.156009
     8  C   -0.850560
     9  H    0.134634
    10  H    0.142719
    11  H    0.206032
    12  B    0.663748
    13  C   -0.765205
    14  H    0.107877
    15  H    0.158034
    16  H    0.171493
    17  O    0.084466
    18  O   -0.069010
    19  C    0.043489
    20  C   -0.662547
    21  C   -0.136086
    22  H    0.211385
    23  H    0.202361
    24  H    0.083969
    25  C   -0.892331
    26  H    0.177155
    27  H    0.185745
    28  H    0.191394
    29  C   -0.793274
    30  H    0.098652
    31  H    0.208965
    32  H    0.242366
    33  C   -0.365002
    34  H    0.230751
    35  H    0.080514
    36  H    0.218415
    37  P    0.226253
    38  O   -0.057154
    39  O    0.177131
    40  N   -0.576609
    41  H    0.360279
    42  H    0.362037
    43  Li  -0.163804
    44  C   -0.163980
    45  O    0.044762
    46  C   -0.198923
    47  C   -0.507554
    48  C   -0.309660
    49  H    0.233479
    50  H   -0.075994
    51  H    0.210782
    52  H    0.229034
    53  H    0.165535
    54  H    0.255011
    55  H    0.065450
    56  H    0.256045
    57  C    0.191331
    58  O    0.313883
    59  C   -0.026350
    60  C   -0.676180
    61  C   -0.502055
    62  H   -0.218280
    63  H    0.281842
    64  H    0.126451
    65  H    0.134777
    66  H    0.257936
    67  H    0.206807
    68  H    0.214158
    69  H    0.238843
    70  C   -0.015363
    71  C    0.077890
    72  C    0.129377
    73  C   -0.760251
    74  H    0.309594
    75  C   -0.066285
    76  H   -0.155694
    77  C   -0.372352
    78  H    0.278013
    79  H    0.297571
    80  H    0.283927
    81  C   -0.206314
    82  C   -0.061836
    83  C   -0.146461
    84  C   -0.577316
    85  H    0.314141
    86  C   -0.369418
    87  H    0.349733
    88  C   -0.520748
    89  H    0.290854
    90  H    0.289463
    91  H    0.272258
 Sum of Mulliken charges =  -0.00000
 Mulliken charges with hydrogens summed into heavy atoms:
               1
     1  C   -0.190817
     2  C    0.178331
     4  C   -0.013727
     8  C   -0.367175
    12  B    0.663748
    13  C   -0.327801
    17  O    0.084466
    18  O   -0.069010
    19  C    0.043489
    20  C   -0.662547
    21  C    0.361629
    25  C   -0.338037
    29  C   -0.243291
    33  C    0.164678
    37  P    0.226253
    38  O   -0.057154
    39  O    0.177131
    40  N    0.145707
    43  Li  -0.163804
    44  C   -0.006495
    45  O    0.044762
    46  C    0.240893
    47  C   -0.087009
    48  C    0.011836
    57  C    0.254893
    58  O    0.313883
    59  C    0.234878
    60  C   -0.211437
    61  C   -0.049055
    70  C   -0.015363
    71  C    0.387484
    72  C   -0.026317
    73  C   -0.482238
    75  C    0.231285
    77  C   -0.088425
    81  C   -0.206314
    82  C    0.252305
    83  C    0.203271
    84  C   -0.286462
    86  C   -0.079955
    88  C   -0.248489
 Electronic spatial extent (au):  <R**2>=          19328.1171
 Charge=              0.0000 electrons
 Dipole moment (field-independent basis, Debye):
    X=              5.0715    Y=              7.9674    Z=             -5.2835  Tot=             10.8220
 Quadrupole moment (field-independent basis, Debye-Ang):
   XX=           -233.9220   YY=           -236.4209   ZZ=           -260.5479
   XY=            -20.7427   XZ=             17.4846   YZ=             26.5178
 Traceless Quadrupole moment (field-independent basis, Debye-Ang):
   XX=              9.7083   YY=              7.2093   ZZ=            -16.9176
   XY=            -20.7427   XZ=             17.4846   YZ=             26.5178
 Octapole moment (field-independent basis, Debye-Ang**2):
  XXX=            120.8605  YYY=             82.9540  ZZZ=            -50.8580  XYY=            101.1982
  XXY=             50.9965  XXZ=            -24.9836  XZZ=             11.4093  YZZ=             36.1993
  YYZ=            -67.1841  XYZ=             46.4801
 Hexadecapole moment (field-independent basis, Debye-Ang**3):
 XXXX=          -9914.5755 YYYY=          -7459.2838 ZZZZ=          -8494.4259 XXXY=           -293.9920
 XXXZ=           1388.9673 YYYX=           -222.3988 YYYZ=           -325.7987 ZZZX=           1446.0106
 ZZZY=           -391.2779 XXYY=          -2832.9256 XXZZ=          -2967.3636 YYZZ=          -2711.6996
 XXYZ=             11.2328 YYXZ=            413.7701 ZZXY=           -245.6967
 N-N= 5.748943444717D+03 E-N=-1.639073569664D+04  KE= 2.083046110075D+03
 Unable to Open any file for archive entry.
 1\1\GINC-NODE05\SP\RwB97XD\6-311++G(d,p)\C31H50B1Li1N1O6P1\WHUGHES2\08
 -Oct-2025\0\\# wb97xd/6-311++g** nosymm int=ultrafine scrf=(smd,solven
 t=tetrahydrofuran)\\r1-phosphine-2thf-full-c10_tzpop-sp\\0,1\C,0,-1.72
 98,-2.5539,0.3601\C,0,-2.1953,-2.0396,-0.7909\H,0,-2.304,-0.9535,-0.83
 76\C,0,-2.5469,-2.7302,-2.0826\H,0,-3.5556,-2.4561,-2.4224\H,0,-1.8563
 ,-2.4265,-2.8845\H,0,-2.5064,-3.8225,-2.018\C,0,-1.5184,-4.0379,0.5591
 \H,0,-1.9359,-4.6728,-0.2322\H,0,-0.446,-4.2696,0.6337\H,0,-1.9632,-4.
 3533,1.5121\B,0,-1.2656,-1.6025,1.6094\C,0,0.3708,-1.5983,1.7564\H,0,0
 .8441,-1.0489,0.9312\H,0,0.701,-1.1226,2.6917\H,0,0.8021,-2.6117,1.749
 6\O,0,-1.7412,-0.1683,1.4344\O,0,-1.9584,-2.0244,2.8685\C,0,-2.5264,-0
 .9022,3.5031\C,0,-2.8422,0.0573,2.3039\C,0,-1.5242,-0.2873,4.4951\H,0,
 -1.9763,0.515,5.0918\H,0,-1.1833,-1.0718,5.1806\H,0,-0.6451,0.115,3.98
 58\C,0,-3.7626,-1.3394,4.2906\H,0,-4.3062,-0.4752,4.6938\H,0,-4.447,-1
 .9246,3.6702\H,0,-3.4572,-1.9685,5.1353\C,0,-2.8879,1.5393,2.6623\H,0,
 -1.9333,1.8791,3.0719\H,0,-3.1006,2.138,1.7683\H,0,-3.6745,1.7431,3.39
 92\C,0,-4.151,-0.3455,1.6097\H,0,-5.0274,-0.048,2.1981\H,0,-4.2153,0.1
 411,0.6328\H,0,-4.1914,-1.4245,1.44\P,0,1.7201,-0.0209,-1.6631\O,0,0.2
 667,0.1293,-1.3243\O,0,2.0972,0.7231,-3.0796\N,0,1.3037,0.3311,-4.208\
 H,0,0.3277,0.3843,-3.9096\H,0,1.5103,-0.6575,-4.3699\Li,0,-0.9549,0.90
 35,0.0412\C,0,-1.6107,2.2539,-2.4998\O,0,-2.1071,2.1963,-1.1609\C,0,-3
 .5252,2.125,-1.3155\C,0,-3.7594,1.1597,-2.4875\C,0,-2.4053,1.1756,-3.2
 391\H,0,-1.8111,3.2542,-2.9116\H,0,-0.535,2.0859,-2.4632\H,0,-3.9524,1
 .8028,-0.367\H,0,-3.9034,3.131,-1.5475\H,0,-3.9959,0.1551,-2.1252\H,0,
 -4.5892,1.497,-3.115\H,0,-1.9007,0.2096,-3.1348\H,0,-2.5099,1.4012,-4.
 3041\C,0,0.7823,2.0246,2.0909\O,0,0.1723,2.3343,0.83\C,0,0.0788,3.7485
 ,0.6952\C,0,-0.1798,4.2465,2.1103\C,0,0.6971,3.3009,2.9469\H,0,0.2239,
 1.1839,2.5034\H,0,1.8174,1.7099,1.9233\H,0,1.0266,4.1467,0.3019\H,0,-0
 .7238,3.9567,-0.0148\H,0,0.0861,5.2996,2.2396\H,0,-1.2387,4.1216,2.360
 1\H,0,1.6942,3.7302,3.0904\H,0,0.2713,3.1011,3.9345\C,0,2.1799,-1.7465
 ,-1.8909\C,0,3.449,-2.0888,-2.3764\C,0,1.2423,-2.7419,-1.6041\C,0,3.77
 53,-3.427,-2.5705\H,0,4.1805,-1.3152,-2.5979\C,0,1.5747,-4.0806,-1.803
 9\H,0,0.2621,-2.4659,-1.222\C,0,2.8373,-4.4218,-2.2851\H,0,4.7591,-3.6
 953,-2.9445\H,0,0.8455,-4.8545,-1.5818\H,0,3.0951,-5.4663,-2.4382\C,0,
 2.8924,0.7992,-0.5721\C,0,3.5907,0.0681,0.3942\C,0,3.0516,2.1878,-0.65
 06\C,0,4.4512,0.7238,1.2724\H,0,3.4625,-1.0081,0.4716\C,0,3.9135,2.836
 7,0.2273\H,0,2.5029,2.7614,-1.3914\C,0,4.6141,2.1052,1.1876\H,0,4.9901
 ,0.1538,2.0234\H,0,4.0378,3.9139,0.1637\H,0,5.2858,2.6147,1.873\\Versi
 on=AS64L-G16RevC.01\HF=-2091.3847854\RMSD=3.743e-09\Dipole=1.9952709,3
 .1346236,-2.0786973\Quadrupole=7.2178745,5.359973,-12.5778475,-15.4216
 871,12.9993862,19.7153431\PG=C01 [X(C31H50B1Li1N1O6P1)]\\@
 The archive entry for this job was punched.


 ALL SCIENCE IS EITHER PHYSICS, OR STAMP COLLECTING.
   --ERNEST RUTHERFORD, 1871-1937.
 Job cpu time:       0 days  9 hours 36 minutes 38.9 seconds.
 Elapsed time:       0 days  2 hours 25 minutes 26.5 seconds.
 File lengths (MBytes):  RWF=   1353 Int=      0 D2E=      0 Chk=     95 Scr=      1
 Normal termination of Gaussian 16 at Wed Oct  8 18:22:36 2025.
