Job Start Time: Wed Oct  8 16:39:56 MDT 2025
SLURM Job ID: 768208
SLURM Job Name: r1-phosphine-2thf-full-c3_tzpop-sp
 Entering Gaussian System, Link 0=/opt/apps/Gaussian/G16C/g16/g16
 Initial command:
 /opt/apps/Gaussian/G16C/g16/l1.exe "/tmp/768208/Gau-1738470.inp" -scrdir="/tmp/768208/"
 Entering Link 1 = /opt/apps/Gaussian/G16C/g16/l1.exe PID=   1738471.
  
 Copyright (c) 1988-2019, Gaussian, Inc.  All Rights Reserved.
  
 This is part of the Gaussian(R) 16 program.  It is based on
 the Gaussian(R) 09 system (copyright 2009, Gaussian, Inc.),
 the Gaussian(R) 03 system (copyright 2003, Gaussian, Inc.),
 the Gaussian(R) 98 system (copyright 1998, Gaussian, Inc.),
 the Gaussian(R) 94 system (copyright 1995, Gaussian, Inc.),
 the Gaussian 92(TM) system (copyright 1992, Gaussian, Inc.),
 the Gaussian 90(TM) system (copyright 1990, Gaussian, Inc.),
 the Gaussian 88(TM) system (copyright 1988, Gaussian, Inc.),
 the Gaussian 86(TM) system (copyright 1986, Carnegie Mellon
 University), and the Gaussian 82(TM) system (copyright 1983,
 Carnegie Mellon University). Gaussian is a federally registered
 trademark of Gaussian, Inc.
  
 This software contains proprietary and confidential information,
 including trade secrets, belonging to Gaussian, Inc.
  
 This software is provided under written license and may be
 used, copied, transmitted, or stored only in accord with that
 written license.
  
 The following legend is applicable only to US Government
 contracts under FAR:
  
                    RESTRICTED RIGHTS LEGEND
  
 Use, reproduction and disclosure by the US Government is
 subject to restrictions as set forth in subparagraphs (a)
 and (c) of the Commercial Computer Software - Restricted
 Rights clause in FAR 52.227-19.
  
 Gaussian, Inc.
 340 Quinnipiac St., Bldg. 40, Wallingford CT 06492
  
  
 ---------------------------------------------------------------
 Warning -- This program may not be used in any manner that
 competes with the business of Gaussian, Inc. or will provide
 assistance to any competitor of Gaussian, Inc.  The licensee
 of this program is prohibited from giving any competitor of
 Gaussian, Inc. access to this program.  By using this program,
 the user acknowledges that Gaussian, Inc. is engaged in the
 business of creating and licensing software in the field of
 computational chemistry and represents and warrants to the
 licensee that it is not a competitor of Gaussian, Inc. and that
 it will not use this program in any manner prohibited above.
 ---------------------------------------------------------------
  

 Cite this work as:
 Gaussian 16, Revision C.01,
 M. J. Frisch, G. W. Trucks, H. B. Schlegel, G. E. Scuseria, 
 M. A. Robb, J. R. Cheeseman, G. Scalmani, V. Barone, 
 G. A. Petersson, H. Nakatsuji, X. Li, M. Caricato, A. V. Marenich, 
 J. Bloino, B. G. Janesko, R. Gomperts, B. Mennucci, H. P. Hratchian, 
 J. V. Ortiz, A. F. Izmaylov, J. L. Sonnenberg, D. Williams-Young, 
 F. Ding, F. Lipparini, F. Egidi, J. Goings, B. Peng, A. Petrone, 
 T. Henderson, D. Ranasinghe, V. G. Zakrzewski, J. Gao, N. Rega, 
 G. Zheng, W. Liang, M. Hada, M. Ehara, K. Toyota, R. Fukuda, 
 J. Hasegawa, M. Ishida, T. Nakajima, Y. Honda, O. Kitao, H. Nakai, 
 T. Vreven, K. Throssell, J. A. Montgomery, Jr., J. E. Peralta, 
 F. Ogliaro, M. J. Bearpark, J. J. Heyd, E. N. Brothers, K. N. Kudin, 
 V. N. Staroverov, T. A. Keith, R. Kobayashi, J. Normand, 
 K. Raghavachari, A. P. Rendell, J. C. Burant, S. S. Iyengar, 
 J. Tomasi, M. Cossi, J. M. Millam, M. Klene, C. Adamo, R. Cammi, 
 J. W. Ochterski, R. L. Martin, K. Morokuma, O. Farkas, 
 J. B. Foresman, and D. J. Fox, Gaussian, Inc., Wallingford CT, 2019.
 
 ******************************************
 Gaussian 16:  AS64L-G16RevC.01  3-Jul-2019
                 8-Oct-2025 
 ******************************************
 %chk=r1-phosphine-2thf-full-c3_tzpop-sp.chk
 %nprocshared=4
 Will use up to    4 processors via shared memory.
 %mem=8GB
 ----------------------------------------------------------------------
 # wb97xd/6-311++g** nosymm int=ultrafine scrf=(smd,solvent=tetrahydrof
 uran)
 ----------------------------------------------------------------------
 1/38=1,172=1/1;
 2/12=2,15=1,17=6,18=5,40=1/2;
 3/5=4,6=6,7=1111,11=2,25=1,30=1,70=32201,72=20,74=-58,75=-5/1,2,3;
 4//1;
 5/5=2,38=5,53=20/2;
 6/7=2,8=2,9=2,10=2,28=1/1;
 99/5=1,9=1/99;
 ----------------------------------
 r1-phosphine-2thf-full-c3_tzpop-sp
 ----------------------------------
 Symbolic Z-matrix:
 Charge =  0 Multiplicity = 1
 C                    -2.0543   -2.3266   -1.0441 
 C                    -1.6095   -1.5247   -2.0267 
 H                    -1.4729   -0.4685   -1.7885 
 C                    -1.2625   -1.935    -3.437 
 H                    -1.8619   -2.7875   -3.7794 
 H                    -1.428    -1.1102   -4.1411 
 H                    -0.2045   -2.2228   -3.5312 
 C                    -2.2504   -3.8088   -1.3089 
 H                    -2.369    -4.3684   -0.374 
 H                    -3.1636   -3.9865   -1.896 
 H                    -1.4203   -4.2633   -1.8696 
 B                    -2.3933   -1.8038    0.4698 
 C                    -1.246    -2.3059    1.5316 
 H                    -0.2993   -1.7517    1.4311 
 H                    -1.5904   -2.1769    2.5681 
 H                    -0.9919   -3.3721    1.4165 
 O                    -2.515    -0.2894    0.4916 
 O                    -3.7403   -2.2479    0.9261 
 C                    -4.6662   -1.2128    0.6873 
 C                    -3.8173    0.0884    0.9207 
 C                    -5.8408   -1.3623    1.6543 
 H                    -6.5261   -0.5078    1.5857 
 H                    -6.4072   -2.2685    1.4079 
 H                    -5.4984   -1.4532    2.6893 
 C                    -5.2131   -1.3074   -0.7485 
 H                    -4.4293   -1.1389   -1.4913 
 H                    -5.613    -2.3166   -0.9029 
 H                    -6.0236   -0.5897   -0.9262 
 C                    -3.7407    0.4746    2.4028 
 H                    -2.9704    1.2444    2.5308 
 H                    -4.6896    0.8804    2.7742 
 H                    -3.4694   -0.3904    3.0159 
 C                    -4.2952    1.2963    0.117 
 H                    -5.3491    1.5157    0.3313 
 H                    -3.7013    2.1766    0.383 
 H                    -4.1874    1.1253   -0.9582 
 P                     1.9152   -0.4052   -0.5874 
 O                     0.6916    0.3443   -0.1497 
 O                     1.9717   -1.9635   -0.1475 
 N                     1.2028   -2.8718   -0.9699 
 H                     0.2214   -2.6329   -0.7855 
 H                     1.3705   -3.7553   -0.4896 
 Li                   -0.9125    0.6141    0.9782 
 C                    -1.1635    2.8501   -0.7963 
 O                    -1.2571    2.5628    0.597 
 C                    -0.7349    3.7026    1.2701 
 C                     0.4784    4.1383    0.4405 
 C                     0.1736    3.583    -0.9721 
 H                    -1.233     1.9005   -1.3307 
 H                    -2.0113    3.4866   -1.0887 
 H                    -1.5047    4.4881    1.2919 
 H                    -0.5026    3.4049    2.2938 
 H                     0.5989    5.2253    0.4492 
 H                     1.3934    3.6963    0.846 
 H                     0.0965    4.3733   -1.7243 
 H                     0.9506    2.8837   -1.2916 
 C                    -0.5132    0.1385    4.0709 
 O                    -0.2366    0.8883    2.8854 
 C                     1.1576    1.1904    2.9368 
 C                     1.8056   -0.1118    3.3958 
 C                     0.7378   -0.72      4.3327 
 H                    -0.6955    0.8427    4.8945 
 H                    -1.4194   -0.4393    3.8935 
 H                     1.4599    1.523     1.9437 
 H                     1.3278    2.0016    3.6612 
 H                     1.9716   -0.7665    2.5357 
 H                     2.7684    0.0561    3.8868 
 H                     0.5539   -1.7703    4.0902 
 H                     1.034    -0.6617    5.3841 
 C                     3.4251    0.1904    0.2026 
 C                     3.6158    1.5758    0.2602 
 C                     4.3923   -0.6668    0.736 
 C                     4.7568    2.1007    0.8589 
 H                     2.8711    2.2464   -0.1605 
 C                     5.5316   -0.1374    1.3389 
 H                     4.2518   -1.742     0.6945 
 C                     5.7137    1.2432    1.4025 
 H                     4.8983    3.1768    0.9022 
 H                     6.2767   -0.8063    1.7602 
 H                     6.6032    1.6521    1.8737 
 C                     2.1231   -0.3347   -2.3748 
 C                     1.2457    0.4403   -3.1346 
 C                     3.1719   -1.0221   -2.9957 
 C                     1.4144    0.5282   -4.5152 
 H                     0.4281    0.9619   -2.6471 
 C                     3.3331   -0.9382   -4.3743 
 H                     3.8575   -1.6257   -2.406 
 C                     2.4544   -0.1619   -5.1337 
 H                     0.7279    1.128    -5.1059 
 H                     4.1422   -1.4773   -4.8584 
 H                     2.5831   -0.0977   -6.2107 
 
 Symmetry turned off by external request.
 Stoichiometry    C31H50BLiNO6P
 Framework group  C1[X(C31H50BLiNO6P)]
 Deg. of freedom   267
 Full point group                 C1      NOp   1
                          Input orientation:                          
 ---------------------------------------------------------------------
 Center     Atomic      Atomic             Coordinates (Angstroms)
 Number     Number       Type             X           Y           Z
 ---------------------------------------------------------------------
      1          6           0       -2.054300   -2.326600   -1.044100
      2          6           0       -1.609500   -1.524700   -2.026700
      3          1           0       -1.472900   -0.468500   -1.788500
      4          6           0       -1.262500   -1.935000   -3.437000
      5          1           0       -1.861900   -2.787500   -3.779400
      6          1           0       -1.428000   -1.110200   -4.141100
      7          1           0       -0.204500   -2.222800   -3.531200
      8          6           0       -2.250400   -3.808800   -1.308900
      9          1           0       -2.369000   -4.368400   -0.374000
     10          1           0       -3.163600   -3.986500   -1.896000
     11          1           0       -1.420300   -4.263300   -1.869600
     12          5           0       -2.393300   -1.803800    0.469800
     13          6           0       -1.246000   -2.305900    1.531600
     14          1           0       -0.299300   -1.751700    1.431100
     15          1           0       -1.590400   -2.176900    2.568100
     16          1           0       -0.991900   -3.372100    1.416500
     17          8           0       -2.515000   -0.289400    0.491600
     18          8           0       -3.740300   -2.247900    0.926100
     19          6           0       -4.666200   -1.212800    0.687300
     20          6           0       -3.817300    0.088400    0.920700
     21          6           0       -5.840800   -1.362300    1.654300
     22          1           0       -6.526100   -0.507800    1.585700
     23          1           0       -6.407200   -2.268500    1.407900
     24          1           0       -5.498400   -1.453200    2.689300
     25          6           0       -5.213100   -1.307400   -0.748500
     26          1           0       -4.429300   -1.138900   -1.491300
     27          1           0       -5.613000   -2.316600   -0.902900
     28          1           0       -6.023600   -0.589700   -0.926200
     29          6           0       -3.740700    0.474600    2.402800
     30          1           0       -2.970400    1.244400    2.530800
     31          1           0       -4.689600    0.880400    2.774200
     32          1           0       -3.469400   -0.390400    3.015900
     33          6           0       -4.295200    1.296300    0.117000
     34          1           0       -5.349100    1.515700    0.331300
     35          1           0       -3.701300    2.176600    0.383000
     36          1           0       -4.187400    1.125300   -0.958200
     37         15           0        1.915200   -0.405200   -0.587400
     38          8           0        0.691600    0.344300   -0.149700
     39          8           0        1.971700   -1.963500   -0.147500
     40          7           0        1.202800   -2.871800   -0.969900
     41          1           0        0.221400   -2.632900   -0.785500
     42          1           0        1.370500   -3.755300   -0.489600
     43          3           0       -0.912500    0.614100    0.978200
     44          6           0       -1.163500    2.850100   -0.796300
     45          8           0       -1.257100    2.562800    0.597000
     46          6           0       -0.734900    3.702600    1.270100
     47          6           0        0.478400    4.138300    0.440500
     48          6           0        0.173600    3.583000   -0.972100
     49          1           0       -1.233000    1.900500   -1.330700
     50          1           0       -2.011300    3.486600   -1.088700
     51          1           0       -1.504700    4.488100    1.291900
     52          1           0       -0.502600    3.404900    2.293800
     53          1           0        0.598900    5.225300    0.449200
     54          1           0        1.393400    3.696300    0.846000
     55          1           0        0.096500    4.373300   -1.724300
     56          1           0        0.950600    2.883700   -1.291600
     57          6           0       -0.513200    0.138500    4.070900
     58          8           0       -0.236600    0.888300    2.885400
     59          6           0        1.157600    1.190400    2.936800
     60          6           0        1.805600   -0.111800    3.395800
     61          6           0        0.737800   -0.720000    4.332700
     62          1           0       -0.695500    0.842700    4.894500
     63          1           0       -1.419400   -0.439300    3.893500
     64          1           0        1.459900    1.523000    1.943700
     65          1           0        1.327800    2.001600    3.661200
     66          1           0        1.971600   -0.766500    2.535700
     67          1           0        2.768400    0.056100    3.886800
     68          1           0        0.553900   -1.770300    4.090200
     69          1           0        1.034000   -0.661700    5.384100
     70          6           0        3.425100    0.190400    0.202600
     71          6           0        3.615800    1.575800    0.260200
     72          6           0        4.392300   -0.666800    0.736000
     73          6           0        4.756800    2.100700    0.858900
     74          1           0        2.871100    2.246400   -0.160500
     75          6           0        5.531600   -0.137400    1.338900
     76          1           0        4.251800   -1.742000    0.694500
     77          6           0        5.713700    1.243200    1.402500
     78          1           0        4.898300    3.176800    0.902200
     79          1           0        6.276700   -0.806300    1.760200
     80          1           0        6.603200    1.652100    1.873700
     81          6           0        2.123100   -0.334700   -2.374800
     82          6           0        1.245700    0.440300   -3.134600
     83          6           0        3.171900   -1.022100   -2.995700
     84          6           0        1.414400    0.528200   -4.515200
     85          1           0        0.428100    0.961900   -2.647100
     86          6           0        3.333100   -0.938200   -4.374300
     87          1           0        3.857500   -1.625700   -2.406000
     88          6           0        2.454400   -0.161900   -5.133700
     89          1           0        0.727900    1.128000   -5.105900
     90          1           0        4.142200   -1.477300   -4.858400
     91          1           0        2.583100   -0.097700   -6.210700
 ---------------------------------------------------------------------
 Rotational constants (GHZ):           0.1116872           0.0742262           0.0625022
 Standard basis: 6-311++G(d,p) (5D, 7F)
  1260 basis functions,  1940 primitive gaussians,  1301 cartesian basis functions
   157 alpha electrons      157 beta electrons
       nuclear repulsion energy      5732.1118006508 Hartrees.
 NAtoms=   91 NActive=   91 NUniq=   91 SFac= 1.00D+00 NAtFMM=   60 NAOKFM=T Big=T
 Integral buffers will be    131072 words long.
 Raffenetti 2 integral format.
 Two-electron integral symmetry is turned off.
 Nuclear repulsion after empirical dispersion term =     5731.9932218512 Hartrees.
 ------------------------------------------------------------------------------
 Polarizable Continuum Model (PCM)
 =================================
 Model                : PCM.
 Atomic radii         : SMD-Coulomb.
 Polarization charges : Total charges.
 Charge compensation  : None.
 Solution method      : On-the-fly selection.
 Cavity type          : VdW (van der Waals Surface) (Alpha=1.000).
 Cavity algorithm     : GePol (No added spheres)
                        Default sphere list used, NSphG=   91.
                        Lebedev-Laikov grids with approx.  5.0 points / Ang**2.
                        Smoothing algorithm: York/Karplus (Gamma=1.0000).
                        Polarization charges: spherical gaussians, with
                                              point-specific exponents (IZeta= 3).
                        Self-potential: point-specific (ISelfS= 7).
                        Self-field    : sphere-specific E.n sum rule (ISelfD= 2).
 Solvent              : TetraHydroFuran, Eps=   7.425700 Eps(inf)=   1.974025
 ------------------------------------------------------------------------------
 ------------------------------------------------------------------------------
 Atomic radii for non-electrostatic terms: SMD-CDS.
 ------------------------------------------------------------------------------
 Nuclear repulsion after PCM non-electrostatic terms =     5731.9848411272 Hartrees.
 One-electron integrals computed using PRISM.
 NBasis=  1260 RedAO= T EigKep=  1.18D-06  NBF=  1260
 NBsUse=  1250 1.00D-06 EigRej=  9.99D-07 NBFU=  1250
 ExpMin= 7.40D-03 ExpMax= 7.75D+04 ExpMxC= 2.65D+03 IAcc=3 IRadAn=         5 AccDes= 0.00D+00
 Harris functional with IExCor= 4639 and IRadAn=       5 diagonalized for initial guess.
 HarFok:  IExCor= 4639 AccDes= 0.00D+00 IRadAn=         5 IDoV= 1 UseB2=F ITyADJ=14
 ICtDFT=  3500011 ScaDFX=  1.000000  1.000000  1.000000  1.000000
 FoFCou: FMM=F IPFlag=           0 FMFlag=      100000 FMFlg1=        2001
         NFxFlg=           0 DoJE=T BraDBF=F KetDBF=T FulRan=T
         wScrn=  0.000000 ICntrl=       500 IOpCl=  0 I1Cent=   200000004 NGrid=           0
         NMat0=    1 NMatS0=      1 NMatT0=    0 NMatD0=    1 NMtDS0=    0 NMtDT0=    0
 Symmetry not used in FoFCou.
 Requested convergence on RMS density matrix=1.00D-08 within 128 cycles.
 Requested convergence on MAX density matrix=1.00D-06.
 Requested convergence on             energy=1.00D-06.
 No special actions if energy rises.
 Inv3:  Mode=1 IEnd=    92640747.
 Iteration    1 A*A^-1 deviation from unit magnitude is 8.33D-15 for   5550.
 Iteration    1 A*A^-1 deviation from orthogonality  is 2.71D-15 for   4174   1477.
 Iteration    1 A^-1*A deviation from unit magnitude is 8.10D-15 for   5550.
 Iteration    1 A^-1*A deviation from orthogonality  is 6.73D-15 for   3483   3457.
 Error on total polarization charges =  0.07589
 SCF Done:  E(RwB97XD) =  -2091.38736018     A.U. after   17 cycles
            NFock= 17  Conv=0.21D-08     -V/T= 2.0040
 SMD-CDS (non-electrostatic) energy       (kcal/mol) =      -5.26
 (included in total energy above)

 **********************************************************************

            Population analysis using the SCF Density.

 **********************************************************************

 Alpha  occ. eigenvalues --  -77.31941 -19.30343 -19.25932 -19.25664 -19.21845
 Alpha  occ. eigenvalues --  -19.18760 -19.17248 -14.47809 -10.32266 -10.32203
 Alpha  occ. eigenvalues --  -10.32160 -10.32091 -10.31156 -10.31109 -10.30711
 Alpha  occ. eigenvalues --  -10.30663 -10.30661 -10.30532 -10.30374 -10.30195
 Alpha  occ. eigenvalues --  -10.30179 -10.29947 -10.29903 -10.29863 -10.29617
 Alpha  occ. eigenvalues --  -10.29534 -10.27778 -10.27606 -10.27491 -10.27425
 Alpha  occ. eigenvalues --  -10.25279 -10.24806 -10.24794 -10.24790 -10.24780
 Alpha  occ. eigenvalues --  -10.24189 -10.24046 -10.22393 -10.20995  -6.79915
 Alpha  occ. eigenvalues --   -6.76363  -4.91252  -4.90958  -4.90911  -1.98912
 Alpha  occ. eigenvalues --   -1.19446  -1.15211  -1.14985  -1.09683  -1.08849
 Alpha  occ. eigenvalues --   -1.03092  -0.97575  -0.97036  -0.93050  -0.87604
 Alpha  occ. eigenvalues --   -0.87522  -0.87153  -0.86980  -0.86083  -0.86003
 Alpha  occ. eigenvalues --   -0.85873  -0.85692  -0.83577  -0.83250  -0.81488
 Alpha  occ. eigenvalues --   -0.78909  -0.77641  -0.74894  -0.74637  -0.74574
 Alpha  occ. eigenvalues --   -0.71747  -0.71371  -0.70963  -0.70652  -0.69208
 Alpha  occ. eigenvalues --   -0.69084  -0.68341  -0.68119  -0.67584  -0.66930
 Alpha  occ. eigenvalues --   -0.63075  -0.62876  -0.60491  -0.59895  -0.59491
 Alpha  occ. eigenvalues --   -0.59354  -0.59044  -0.58435  -0.57797  -0.57575
 Alpha  occ. eigenvalues --   -0.56916  -0.55805  -0.55466  -0.54784  -0.53997
 Alpha  occ. eigenvalues --   -0.53964  -0.53834  -0.53637  -0.52841  -0.52619
 Alpha  occ. eigenvalues --   -0.51911  -0.51729  -0.51549  -0.51101  -0.50448
 Alpha  occ. eigenvalues --   -0.50368  -0.50178  -0.50027  -0.49331  -0.48706
 Alpha  occ. eigenvalues --   -0.48403  -0.48066  -0.47290  -0.46991  -0.46890
 Alpha  occ. eigenvalues --   -0.46258  -0.46037  -0.45762  -0.45685  -0.45529
 Alpha  occ. eigenvalues --   -0.44870  -0.44570  -0.44350  -0.44074  -0.43877
 Alpha  occ. eigenvalues --   -0.43845  -0.43630  -0.43462  -0.43242  -0.42901
 Alpha  occ. eigenvalues --   -0.42764  -0.42690  -0.42512  -0.42164  -0.41633
 Alpha  occ. eigenvalues --   -0.41430  -0.40929  -0.40440  -0.40240  -0.39961
 Alpha  occ. eigenvalues --   -0.39817  -0.39403  -0.38115  -0.37724  -0.36941
 Alpha  occ. eigenvalues --   -0.35786  -0.35524  -0.35271  -0.34994  -0.34740
 Alpha  occ. eigenvalues --   -0.34290  -0.34000  -0.33804  -0.33605  -0.30223
 Alpha  occ. eigenvalues --   -0.27945  -0.27180
 Alpha virt. eigenvalues --    0.01383   0.02226   0.02527   0.02609   0.02704
 Alpha virt. eigenvalues --    0.03292   0.04422   0.04753   0.05219   0.05441
 Alpha virt. eigenvalues --    0.05655   0.05851   0.06129   0.06848   0.07007
 Alpha virt. eigenvalues --    0.07081   0.07162   0.07202   0.07514   0.07590
 Alpha virt. eigenvalues --    0.07742   0.07778   0.08097   0.08169   0.08706
 Alpha virt. eigenvalues --    0.08804   0.09072   0.09117   0.09355   0.09686
 Alpha virt. eigenvalues --    0.09814   0.10136   0.10336   0.10566   0.10921
 Alpha virt. eigenvalues --    0.11120   0.11275   0.11556   0.11693   0.11957
 Alpha virt. eigenvalues --    0.12297   0.12515   0.12598   0.12807   0.12950
 Alpha virt. eigenvalues --    0.13249   0.13430   0.13562   0.13748   0.14183
 Alpha virt. eigenvalues --    0.14372   0.14567   0.14684   0.14959   0.15228
 Alpha virt. eigenvalues --    0.15445   0.15652   0.15779   0.15850   0.16004
 Alpha virt. eigenvalues --    0.16237   0.16316   0.16392   0.16493   0.16669
 Alpha virt. eigenvalues --    0.16769   0.16899   0.17201   0.17334   0.17510
 Alpha virt. eigenvalues --    0.17728   0.17899   0.18096   0.18130   0.18328
 Alpha virt. eigenvalues --    0.18392   0.18661   0.18706   0.18794   0.18916
 Alpha virt. eigenvalues --    0.19027   0.19098   0.19288   0.19482   0.19532
 Alpha virt. eigenvalues --    0.19742   0.19879   0.20064   0.20122   0.20239
 Alpha virt. eigenvalues --    0.20353   0.20600   0.20770   0.20811   0.20995
 Alpha virt. eigenvalues --    0.21038   0.21224   0.21355   0.21443   0.21646
 Alpha virt. eigenvalues --    0.21768   0.21913   0.22073   0.22168   0.22295
 Alpha virt. eigenvalues --    0.22302   0.22424   0.22587   0.22738   0.22788
 Alpha virt. eigenvalues --    0.23041   0.23219   0.23309   0.23437   0.23554
 Alpha virt. eigenvalues --    0.23602   0.23886   0.23921   0.23992   0.24243
 Alpha virt. eigenvalues --    0.24396   0.24519   0.24553   0.24732   0.24828
 Alpha virt. eigenvalues --    0.24917   0.25042   0.25435   0.25518   0.25556
 Alpha virt. eigenvalues --    0.25716   0.25873   0.25909   0.26067   0.26270
 Alpha virt. eigenvalues --    0.26547   0.26620   0.26724   0.27031   0.27032
 Alpha virt. eigenvalues --    0.27208   0.27274   0.27530   0.27578   0.27697
 Alpha virt. eigenvalues --    0.27903   0.28110   0.28155   0.28322   0.28360
 Alpha virt. eigenvalues --    0.28586   0.28786   0.28950   0.29057   0.29209
 Alpha virt. eigenvalues --    0.29444   0.29614   0.29702   0.29822   0.29904
 Alpha virt. eigenvalues --    0.30118   0.30213   0.30355   0.30639   0.30864
 Alpha virt. eigenvalues --    0.31058   0.31073   0.31264   0.31367   0.31564
 Alpha virt. eigenvalues --    0.31622   0.31664   0.31914   0.32264   0.32371
 Alpha virt. eigenvalues --    0.32605   0.32687   0.32834   0.32922   0.33176
 Alpha virt. eigenvalues --    0.33338   0.33380   0.33735   0.33821   0.33912
 Alpha virt. eigenvalues --    0.34052   0.34177   0.34272   0.34494   0.34625
 Alpha virt. eigenvalues --    0.34964   0.35135   0.35176   0.35224   0.35491
 Alpha virt. eigenvalues --    0.36011   0.36161   0.36338   0.36356   0.36512
 Alpha virt. eigenvalues --    0.36833   0.36879   0.36930   0.37078   0.37387
 Alpha virt. eigenvalues --    0.37537   0.37694   0.37866   0.38086   0.38156
 Alpha virt. eigenvalues --    0.38240   0.38551   0.38688   0.38784   0.38851
 Alpha virt. eigenvalues --    0.39093   0.39236   0.39421   0.39573   0.39836
 Alpha virt. eigenvalues --    0.40122   0.40190   0.40292   0.40417   0.40497
 Alpha virt. eigenvalues --    0.40621   0.40792   0.40884   0.41131   0.41567
 Alpha virt. eigenvalues --    0.41730   0.41891   0.42000   0.42247   0.42435
 Alpha virt. eigenvalues --    0.42739   0.42750   0.42845   0.43169   0.43348
 Alpha virt. eigenvalues --    0.43471   0.43704   0.43938   0.44120   0.44332
 Alpha virt. eigenvalues --    0.44563   0.44647   0.44985   0.45134   0.45241
 Alpha virt. eigenvalues --    0.45280   0.45474   0.45649   0.45885   0.46198
 Alpha virt. eigenvalues --    0.46442   0.46676   0.46808   0.46872   0.47170
 Alpha virt. eigenvalues --    0.47343   0.47586   0.47861   0.47997   0.48228
 Alpha virt. eigenvalues --    0.48483   0.48560   0.48853   0.49251   0.49440
 Alpha virt. eigenvalues --    0.50023   0.50107   0.50492   0.50588   0.51295
 Alpha virt. eigenvalues --    0.51548   0.52007   0.52268   0.52787   0.52863
 Alpha virt. eigenvalues --    0.53097   0.53622   0.53770   0.54064   0.54255
 Alpha virt. eigenvalues --    0.54542   0.54681   0.55344   0.55798   0.56311
 Alpha virt. eigenvalues --    0.56589   0.56982   0.57153   0.57543   0.57718
 Alpha virt. eigenvalues --    0.58202   0.58386   0.58901   0.59085   0.59829
 Alpha virt. eigenvalues --    0.60455   0.60558   0.61178   0.61732   0.62176
 Alpha virt. eigenvalues --    0.62213   0.62609   0.62762   0.63172   0.63183
 Alpha virt. eigenvalues --    0.63574   0.63685   0.63738   0.64060   0.64243
 Alpha virt. eigenvalues --    0.64726   0.65028   0.65178   0.65491   0.65960
 Alpha virt. eigenvalues --    0.66276   0.66443   0.66681   0.66946   0.67248
 Alpha virt. eigenvalues --    0.67661   0.67956   0.68260   0.68870   0.69112
 Alpha virt. eigenvalues --    0.69474   0.69691   0.69954   0.70368   0.70689
 Alpha virt. eigenvalues --    0.70788   0.71065   0.71158   0.71576   0.71797
 Alpha virt. eigenvalues --    0.72233   0.72443   0.72973   0.73157   0.73362
 Alpha virt. eigenvalues --    0.73548   0.73779   0.74184   0.74279   0.74727
 Alpha virt. eigenvalues --    0.74957   0.75142   0.75603   0.75850   0.75998
 Alpha virt. eigenvalues --    0.76292   0.76372   0.76721   0.76889   0.77122
 Alpha virt. eigenvalues --    0.77786   0.77915   0.78134   0.78570   0.78657
 Alpha virt. eigenvalues --    0.78957   0.79143   0.79544   0.79731   0.80152
 Alpha virt. eigenvalues --    0.80302   0.80722   0.80786   0.81037   0.81114
 Alpha virt. eigenvalues --    0.81454   0.81746   0.82025   0.82063   0.82565
 Alpha virt. eigenvalues --    0.82914   0.83093   0.83224   0.83557   0.83696
 Alpha virt. eigenvalues --    0.83843   0.84185   0.84229   0.84628   0.84730
 Alpha virt. eigenvalues --    0.85145   0.85334   0.85509   0.85860   0.86004
 Alpha virt. eigenvalues --    0.86472   0.86612   0.86804   0.86949   0.87046
 Alpha virt. eigenvalues --    0.87333   0.87430   0.87711   0.87817   0.88032
 Alpha virt. eigenvalues --    0.88316   0.88499   0.88685   0.88914   0.89233
 Alpha virt. eigenvalues --    0.89421   0.89730   0.90041   0.90197   0.90219
 Alpha virt. eigenvalues --    0.91009   0.91070   0.91335   0.91530   0.91636
 Alpha virt. eigenvalues --    0.91864   0.92182   0.92528   0.92699   0.93335
 Alpha virt. eigenvalues --    0.93513   0.93848   0.93880   0.94367   0.94521
 Alpha virt. eigenvalues --    0.94783   0.95186   0.95652   0.95805   0.95983
 Alpha virt. eigenvalues --    0.96112   0.96380   0.96780   0.97093   0.97190
 Alpha virt. eigenvalues --    0.97433   0.97498   0.98115   0.98454   0.98817
 Alpha virt. eigenvalues --    0.99265   0.99542   0.99767   1.00136   1.00815
 Alpha virt. eigenvalues --    1.00966   1.01198   1.01979   1.02570   1.02741
 Alpha virt. eigenvalues --    1.03044   1.03653   1.04338   1.05014   1.05357
 Alpha virt. eigenvalues --    1.05563   1.05765   1.06371   1.06899   1.07009
 Alpha virt. eigenvalues --    1.07335   1.07983   1.08108   1.08685   1.09248
 Alpha virt. eigenvalues --    1.09488   1.09572   1.10432   1.11201   1.11296
 Alpha virt. eigenvalues --    1.11855   1.12777   1.12898   1.13153   1.14051
 Alpha virt. eigenvalues --    1.14397   1.15124   1.15621   1.16216   1.16881
 Alpha virt. eigenvalues --    1.17178   1.17592   1.18029   1.18178   1.18457
 Alpha virt. eigenvalues --    1.18918   1.19144   1.20099   1.20693   1.20967
 Alpha virt. eigenvalues --    1.21524   1.21692   1.21964   1.22433   1.23107
 Alpha virt. eigenvalues --    1.23831   1.24112   1.24569   1.24855   1.25469
 Alpha virt. eigenvalues --    1.25674   1.26323   1.26640   1.27616   1.28327
 Alpha virt. eigenvalues --    1.29259   1.29504   1.30224   1.30761   1.30978
 Alpha virt. eigenvalues --    1.31552   1.31980   1.32414   1.33008   1.33846
 Alpha virt. eigenvalues --    1.34260   1.35158   1.35530   1.36003   1.36180
 Alpha virt. eigenvalues --    1.37278   1.37441   1.37953   1.38533   1.38860
 Alpha virt. eigenvalues --    1.39552   1.39819   1.41429   1.41965   1.42649
 Alpha virt. eigenvalues --    1.42687   1.42976   1.44384   1.45017   1.45496
 Alpha virt. eigenvalues --    1.46371   1.46566   1.47301   1.47984   1.48602
 Alpha virt. eigenvalues --    1.48894   1.49221   1.49999   1.50724   1.51358
 Alpha virt. eigenvalues --    1.51874   1.53055   1.53463   1.53815   1.54284
 Alpha virt. eigenvalues --    1.54368   1.54882   1.55328   1.56387   1.56621
 Alpha virt. eigenvalues --    1.57997   1.58401   1.58951   1.59063   1.59330
 Alpha virt. eigenvalues --    1.59890   1.60119   1.60375   1.60886   1.61585
 Alpha virt. eigenvalues --    1.61950   1.62390   1.62513   1.62906   1.62997
 Alpha virt. eigenvalues --    1.63487   1.63737   1.63956   1.64248   1.64759
 Alpha virt. eigenvalues --    1.65273   1.65389   1.66060   1.66116   1.66439
 Alpha virt. eigenvalues --    1.67104   1.67391   1.67745   1.67922   1.68300
 Alpha virt. eigenvalues --    1.68753   1.68860   1.68952   1.69365   1.70027
 Alpha virt. eigenvalues --    1.70291   1.70538   1.71066   1.71180   1.71207
 Alpha virt. eigenvalues --    1.71529   1.71925   1.72285   1.72641   1.73129
 Alpha virt. eigenvalues --    1.73376   1.73772   1.74093   1.74354   1.74864
 Alpha virt. eigenvalues --    1.74978   1.74999   1.75385   1.75706   1.76434
 Alpha virt. eigenvalues --    1.76720   1.76839   1.77180   1.77540   1.77746
 Alpha virt. eigenvalues --    1.77881   1.78347   1.78776   1.79126   1.79425
 Alpha virt. eigenvalues --    1.79876   1.80429   1.80667   1.81205   1.81608
 Alpha virt. eigenvalues --    1.81889   1.82335   1.82801   1.83106   1.83521
 Alpha virt. eigenvalues --    1.83785   1.84233   1.84513   1.84652   1.84768
 Alpha virt. eigenvalues --    1.85231   1.85898   1.86524   1.86573   1.87197
 Alpha virt. eigenvalues --    1.87801   1.87954   1.88138   1.88565   1.88699
 Alpha virt. eigenvalues --    1.89215   1.89632   1.90071   1.90707   1.91032
 Alpha virt. eigenvalues --    1.91191   1.91345   1.92073   1.92211   1.92544
 Alpha virt. eigenvalues --    1.92669   1.93595   1.93926   1.94363   1.94605
 Alpha virt. eigenvalues --    1.94686   1.95528   1.95705   1.96156   1.96662
 Alpha virt. eigenvalues --    1.97264   1.97695   1.97792   1.98439   1.98928
 Alpha virt. eigenvalues --    1.99322   1.99653   2.00316   2.00502   2.01029
 Alpha virt. eigenvalues --    2.01159   2.01488   2.01777   2.01899   2.02239
 Alpha virt. eigenvalues --    2.02593   2.02891   2.03452   2.04170   2.04541
 Alpha virt. eigenvalues --    2.04764   2.04982   2.05181   2.05881   2.05941
 Alpha virt. eigenvalues --    2.06579   2.06855   2.07484   2.07764   2.08135
 Alpha virt. eigenvalues --    2.08190   2.08812   2.09022   2.09207   2.09834
 Alpha virt. eigenvalues --    2.10443   2.10586   2.11116   2.11209   2.12246
 Alpha virt. eigenvalues --    2.12467   2.12759   2.13308   2.13733   2.14195
 Alpha virt. eigenvalues --    2.14661   2.14757   2.15323   2.15572   2.16141
 Alpha virt. eigenvalues --    2.16632   2.17110   2.17367   2.18094   2.18664
 Alpha virt. eigenvalues --    2.18855   2.19030   2.19784   2.20145   2.21793
 Alpha virt. eigenvalues --    2.22174   2.22677   2.22787   2.23853   2.24323
 Alpha virt. eigenvalues --    2.24653   2.25030   2.25455   2.25636   2.25976
 Alpha virt. eigenvalues --    2.26998   2.27456   2.28475   2.29340   2.30202
 Alpha virt. eigenvalues --    2.30736   2.31199   2.31952   2.32914   2.33259
 Alpha virt. eigenvalues --    2.33746   2.34389   2.34879   2.35407   2.36230
 Alpha virt. eigenvalues --    2.36984   2.37816   2.38517   2.38855   2.39739
 Alpha virt. eigenvalues --    2.40181   2.40941   2.41514   2.41938   2.42058
 Alpha virt. eigenvalues --    2.42450   2.43281   2.43394   2.43660   2.44022
 Alpha virt. eigenvalues --    2.45428   2.45832   2.46408   2.46876   2.47859
 Alpha virt. eigenvalues --    2.48712   2.49454   2.49814   2.51178   2.51517
 Alpha virt. eigenvalues --    2.51904   2.52525   2.53047   2.54793   2.55816
 Alpha virt. eigenvalues --    2.56400   2.58637   2.59433   2.59722   2.59943
 Alpha virt. eigenvalues --    2.60548   2.60972   2.61107   2.61962   2.62374
 Alpha virt. eigenvalues --    2.63004   2.63450   2.63782   2.64198   2.64319
 Alpha virt. eigenvalues --    2.65219   2.65950   2.66126   2.66432   2.66820
 Alpha virt. eigenvalues --    2.67441   2.67873   2.67922   2.67991   2.69441
 Alpha virt. eigenvalues --    2.69725   2.70418   2.70612   2.71106   2.71194
 Alpha virt. eigenvalues --    2.71788   2.72364   2.72700   2.73228   2.73517
 Alpha virt. eigenvalues --    2.73810   2.73991   2.74541   2.74921   2.75281
 Alpha virt. eigenvalues --    2.75469   2.76673   2.77012   2.77267   2.77631
 Alpha virt. eigenvalues --    2.78388   2.78504   2.79985   2.80381   2.81036
 Alpha virt. eigenvalues --    2.81912   2.82202   2.82495   2.83190   2.83327
 Alpha virt. eigenvalues --    2.83775   2.84030   2.84889   2.85005   2.85849
 Alpha virt. eigenvalues --    2.86225   2.86549   2.86962   2.87802   2.87950
 Alpha virt. eigenvalues --    2.88198   2.88384   2.88632   2.89171   2.89750
 Alpha virt. eigenvalues --    2.89904   2.90945   2.91068   2.91091   2.92115
 Alpha virt. eigenvalues --    2.92820   2.93102   2.93778   2.93943   2.94336
 Alpha virt. eigenvalues --    2.94910   2.95158   2.95346   2.95873   2.96163
 Alpha virt. eigenvalues --    2.96247   2.97010   2.97882   2.98167   2.98349
 Alpha virt. eigenvalues --    2.98597   2.98943   2.99097   2.99983   3.00083
 Alpha virt. eigenvalues --    3.00568   3.01142   3.01900   3.02108   3.02995
 Alpha virt. eigenvalues --    3.03042   3.03424   3.03913   3.04417   3.04737
 Alpha virt. eigenvalues --    3.05518   3.05923   3.06601   3.07029   3.07566
 Alpha virt. eigenvalues --    3.07799   3.08349   3.08699   3.08934   3.09342
 Alpha virt. eigenvalues --    3.09887   3.11208   3.11762   3.12464   3.13495
 Alpha virt. eigenvalues --    3.14069   3.14448   3.14875   3.16018   3.16461
 Alpha virt. eigenvalues --    3.17283   3.17896   3.18048   3.19156   3.19911
 Alpha virt. eigenvalues --    3.20563   3.21345   3.21663   3.22026   3.23217
 Alpha virt. eigenvalues --    3.23528   3.24899   3.25035   3.25471   3.26618
 Alpha virt. eigenvalues --    3.27181   3.27897   3.28088   3.29600   3.30584
 Alpha virt. eigenvalues --    3.31606   3.31869   3.32771   3.33294   3.33721
 Alpha virt. eigenvalues --    3.34390   3.36120   3.36463   3.36844   3.38500
 Alpha virt. eigenvalues --    3.38841   3.39114   3.40835   3.41585   3.42087
 Alpha virt. eigenvalues --    3.42731   3.43825   3.45077   3.45737   3.47123
 Alpha virt. eigenvalues --    3.48442   3.48800   3.49738   3.50487   3.51357
 Alpha virt. eigenvalues --    3.52283   3.52463   3.53684   3.54002   3.55800
 Alpha virt. eigenvalues --    3.56943   3.58971   3.64173   3.64721   3.65435
 Alpha virt. eigenvalues --    3.68145   3.69517   3.69636   3.73465   3.73748
 Alpha virt. eigenvalues --    3.75170   3.75792   3.77378   3.82608   3.84372
 Alpha virt. eigenvalues --    3.88622   3.88857   3.89574   3.91513   3.92065
 Alpha virt. eigenvalues --    3.93047   3.93468   3.93990   3.94551   3.94620
 Alpha virt. eigenvalues --    3.95071   3.95679   3.97433   3.97710   3.98265
 Alpha virt. eigenvalues --    3.98567   4.01000   4.01628   4.03993   4.04789
 Alpha virt. eigenvalues --    4.05823   4.07172   4.10952   4.11464   4.14491
 Alpha virt. eigenvalues --    4.14866   4.15399   4.15921   4.18877   4.19239
 Alpha virt. eigenvalues --    4.20578   4.21595   4.23114   4.25759   4.26809
 Alpha virt. eigenvalues --    4.27901   4.28059   4.28312   4.28769   4.30236
 Alpha virt. eigenvalues --    4.34402   4.37670   4.38153   4.41225   4.41996
 Alpha virt. eigenvalues --    4.44538   4.47767   4.50461   4.50692   4.53308
 Alpha virt. eigenvalues --    4.53676   4.63029   4.74353   4.82835   4.94659
 Alpha virt. eigenvalues --    4.95296   5.31058   5.32233   5.38067   5.41299
 Alpha virt. eigenvalues --    5.47978   5.49909   5.53060   5.54219   5.59045
 Alpha virt. eigenvalues --    5.63810   5.67263   5.69820   5.71191   5.73219
 Alpha virt. eigenvalues --    5.79166   5.79614   5.83363   5.92856   7.66895
 Alpha virt. eigenvalues --   14.30524  14.35542  14.47644  14.96392  23.78242
 Alpha virt. eigenvalues --   23.80221  23.96119  23.98945  24.02410  24.03393
 Alpha virt. eigenvalues --   24.03870  24.05000  24.05684  24.11051  24.11512
 Alpha virt. eigenvalues --   24.11755  24.11892  24.12589  24.13150  24.13715
 Alpha virt. eigenvalues --   24.14305  24.14455  24.15189  24.15499  24.18041
 Alpha virt. eigenvalues --   24.18516  24.19932  24.20018  24.21086  24.22412
 Alpha virt. eigenvalues --   24.22616  24.23057  24.31762  24.32284  24.43566
 Alpha virt. eigenvalues --   35.71209  50.09351  50.13797  50.15472  50.21039
 Alpha virt. eigenvalues --   50.25166  50.27298 163.94175
          Condensed to atoms (all electrons):
 Mulliken charges:
               1
     1  C   -0.110637
     2  C    0.302824
     3  H   -0.008968
     4  C   -0.838834
     5  H    0.187271
     6  H    0.188283
     7  H    0.175518
     8  C   -0.807154
     9  H    0.159665
    10  H    0.205931
    11  H    0.174989
    12  B    0.604050
    13  C   -0.943344
    14  H    0.269187
    15  H    0.207573
    16  H    0.171212
    17  O    0.199327
    18  O   -0.104267
    19  C    0.159870
    20  C   -0.737405
    21  C   -0.793408
    22  H    0.179527
    23  H    0.187564
    24  H    0.175390
    25  C   -0.460689
    26  H    0.155374
    27  H    0.206374
    28  H    0.181366
    29  C   -0.267756
    30  H    0.126605
    31  H    0.223139
    32  H    0.230483
    33  C   -0.710125
    34  H    0.235757
    35  H    0.135392
    36  H    0.182313
    37  P   -1.120342
    38  O    0.011212
    39  O    0.142325
    40  N   -0.522268
    41  H    0.304085
    42  H    0.417360
    43  Li  -0.211348
    44  C   -0.055008
    45  O    0.089286
    46  C   -0.243028
    47  C   -0.474260
    48  C   -0.364748
    49  H   -0.111255
    50  H    0.237907
    51  H    0.194812
    52  H    0.206434
    53  H    0.246867
    54  H    0.164771
    55  H    0.268125
    56  H   -0.042698
    57  C    0.008651
    58  O   -0.002635
    59  C   -0.319401
    60  C   -0.153219
    61  C   -0.854806
    62  H    0.207341
    63  H    0.109750
    64  H   -0.126992
    65  H    0.238174
    66  H    0.260457
    67  H    0.247549
    68  H    0.173924
    69  H    0.233793
    70  C    0.470751
    71  C    0.061119
    72  C   -0.028340
    73  C   -0.303803
    74  H    0.348042
    75  C   -0.412388
    76  H    0.300669
    77  C   -0.551826
    78  H    0.291495
    79  H    0.291163
    80  H    0.269629
    81  C    0.513409
    82  C    0.413515
    83  C   -0.448256
    84  C   -0.370308
    85  H    0.312371
    86  C   -0.351864
    87  H    0.288694
    88  C   -0.560469
    89  H    0.299712
    90  H    0.293414
    91  H    0.270057
 Sum of Mulliken charges =  -0.00000
 Mulliken charges with hydrogens summed into heavy atoms:
               1
     1  C   -0.110637
     2  C    0.293856
     4  C   -0.287762
     8  C   -0.266569
    12  B    0.604050
    13  C   -0.295372
    17  O    0.199327
    18  O   -0.104267
    19  C    0.159870
    20  C   -0.737405
    21  C   -0.250927
    25  C    0.082426
    29  C    0.312472
    33  C   -0.156663
    37  P   -1.120342
    38  O    0.011212
    39  O    0.142325
    40  N    0.199177
    43  Li  -0.211348
    44  C    0.071645
    45  O    0.089286
    46  C    0.158219
    47  C   -0.062622
    48  C   -0.139321
    57  C    0.325742
    58  O   -0.002635
    59  C   -0.208219
    60  C    0.354787
    61  C   -0.447089
    70  C    0.470751
    71  C    0.409161
    72  C    0.272329
    73  C   -0.012308
    75  C   -0.121226
    77  C   -0.282196
    81  C    0.513409
    82  C    0.725886
    83  C   -0.159561
    84  C   -0.070596
    86  C   -0.058450
    88  C   -0.290412
 Electronic spatial extent (au):  <R**2>=          19949.1648
 Charge=             -0.0000 electrons
 Dipole moment (field-independent basis, Debye):
    X=             12.2538    Y=              8.8215    Z=              0.7566  Tot=             15.1177
 Quadrupole moment (field-independent basis, Debye-Ang):
   XX=           -252.0596   YY=           -245.4517   ZZ=           -231.9145
   XY=            -19.9034   XZ=              7.5414   YZ=              3.5083
 Traceless Quadrupole moment (field-independent basis, Debye-Ang):
   XX=             -8.9177   YY=             -2.3098   ZZ=             11.2275
   XY=            -19.9034   XZ=              7.5414   YZ=              3.5083
 Octapole moment (field-independent basis, Debye-Ang**2):
  XXX=            249.9879  YYY=            146.3759  ZZZ=            -37.6274  XYY=             84.7936
  XXY=             79.6676  XXZ=             22.3376  XZZ=             71.3239  YZZ=             53.3990
  YYZ=              0.1310  XYZ=             11.5178
 Hexadecapole moment (field-independent basis, Debye-Ang**3):
 XXXX=         -13361.6055 YYYY=          -5364.0424 ZZZZ=          -7062.9468 XXXY=          -1115.3623
 XXXZ=           1026.3113 YYYX=          -1020.2314 YYYZ=           -473.8306 ZZZX=            454.1717
 ZZZY=           -535.7778 XXYY=          -3283.4957 XXZZ=          -3518.3065 YYZZ=          -2331.3015
 XXYZ=              9.3673 YYXZ=            325.9461 ZZXY=           -382.6447
 N-N= 5.731984841127D+03 E-N=-1.635758837257D+04  KE= 2.083067893308D+03
 Unable to Open any file for archive entry.
 1\1\GINC-NODE09\SP\RwB97XD\6-311++G(d,p)\C31H50B1Li1N1O6P1\WHUGHES2\08
 -Oct-2025\0\\# wb97xd/6-311++g** nosymm int=ultrafine scrf=(smd,solven
 t=tetrahydrofuran)\\r1-phosphine-2thf-full-c3_tzpop-sp\\0,1\C,0,-2.054
 3,-2.3266,-1.0441\C,0,-1.6095,-1.5247,-2.0267\H,0,-1.4729,-0.4685,-1.7
 885\C,0,-1.2625,-1.935,-3.437\H,0,-1.8619,-2.7875,-3.7794\H,0,-1.428,-
 1.1102,-4.1411\H,0,-0.2045,-2.2228,-3.5312\C,0,-2.2504,-3.8088,-1.3089
 \H,0,-2.369,-4.3684,-0.374\H,0,-3.1636,-3.9865,-1.896\H,0,-1.4203,-4.2
 633,-1.8696\B,0,-2.3933,-1.8038,0.4698\C,0,-1.246,-2.3059,1.5316\H,0,-
 0.2993,-1.7517,1.4311\H,0,-1.5904,-2.1769,2.5681\H,0,-0.9919,-3.3721,1
 .4165\O,0,-2.515,-0.2894,0.4916\O,0,-3.7403,-2.2479,0.9261\C,0,-4.6662
 ,-1.2128,0.6873\C,0,-3.8173,0.0884,0.9207\C,0,-5.8408,-1.3623,1.6543\H
 ,0,-6.5261,-0.5078,1.5857\H,0,-6.4072,-2.2685,1.4079\H,0,-5.4984,-1.45
 32,2.6893\C,0,-5.2131,-1.3074,-0.7485\H,0,-4.4293,-1.1389,-1.4913\H,0,
 -5.613,-2.3166,-0.9029\H,0,-6.0236,-0.5897,-0.9262\C,0,-3.7407,0.4746,
 2.4028\H,0,-2.9704,1.2444,2.5308\H,0,-4.6896,0.8804,2.7742\H,0,-3.4694
 ,-0.3904,3.0159\C,0,-4.2952,1.2963,0.117\H,0,-5.3491,1.5157,0.3313\H,0
 ,-3.7013,2.1766,0.383\H,0,-4.1874,1.1253,-0.9582\P,0,1.9152,-0.4052,-0
 .5874\O,0,0.6916,0.3443,-0.1497\O,0,1.9717,-1.9635,-0.1475\N,0,1.2028,
 -2.8718,-0.9699\H,0,0.2214,-2.6329,-0.7855\H,0,1.3705,-3.7553,-0.4896\
 Li,0,-0.9125,0.6141,0.9782\C,0,-1.1635,2.8501,-0.7963\O,0,-1.2571,2.56
 28,0.597\C,0,-0.7349,3.7026,1.2701\C,0,0.4784,4.1383,0.4405\C,0,0.1736
 ,3.583,-0.9721\H,0,-1.233,1.9005,-1.3307\H,0,-2.0113,3.4866,-1.0887\H,
 0,-1.5047,4.4881,1.2919\H,0,-0.5026,3.4049,2.2938\H,0,0.5989,5.2253,0.
 4492\H,0,1.3934,3.6963,0.846\H,0,0.0965,4.3733,-1.7243\H,0,0.9506,2.88
 37,-1.2916\C,0,-0.5132,0.1385,4.0709\O,0,-0.2366,0.8883,2.8854\C,0,1.1
 576,1.1904,2.9368\C,0,1.8056,-0.1118,3.3958\C,0,0.7378,-0.72,4.3327\H,
 0,-0.6955,0.8427,4.8945\H,0,-1.4194,-0.4393,3.8935\H,0,1.4599,1.523,1.
 9437\H,0,1.3278,2.0016,3.6612\H,0,1.9716,-0.7665,2.5357\H,0,2.7684,0.0
 561,3.8868\H,0,0.5539,-1.7703,4.0902\H,0,1.034,-0.6617,5.3841\C,0,3.42
 51,0.1904,0.2026\C,0,3.6158,1.5758,0.2602\C,0,4.3923,-0.6668,0.736\C,0
 ,4.7568,2.1007,0.8589\H,0,2.8711,2.2464,-0.1605\C,0,5.5316,-0.1374,1.3
 389\H,0,4.2518,-1.742,0.6945\C,0,5.7137,1.2432,1.4025\H,0,4.8983,3.176
 8,0.9022\H,0,6.2767,-0.8063,1.7602\H,0,6.6032,1.6521,1.8737\C,0,2.1231
 ,-0.3347,-2.3748\C,0,1.2457,0.4403,-3.1346\C,0,3.1719,-1.0221,-2.9957\
 C,0,1.4144,0.5282,-4.5152\H,0,0.4281,0.9619,-2.6471\C,0,3.3331,-0.9382
 ,-4.3743\H,0,3.8575,-1.6257,-2.406\C,0,2.4544,-0.1619,-5.1337\H,0,0.72
 79,1.128,-5.1059\H,0,4.1422,-1.4773,-4.8584\H,0,2.5831,-0.0977,-6.2107
 \\Version=AS64L-G16RevC.01\HF=-2091.3873602\RMSD=2.062e-09\Dipole=4.82
 10034,3.4706296,0.297663\Quadrupole=-6.6300544,-1.7172823,8.3473366,-1
 4.7977211,5.606841,2.6083548\PG=C01 [X(C31H50B1Li1N1O6P1)]\\@
 The archive entry for this job was punched.


 HE WHO LAUGHS LAST PROBABLY DIDN'T GET THE JOKE.
 Job cpu time:       0 days  9 hours 49 minutes 24.6 seconds.
 Elapsed time:       0 days  2 hours 28 minutes 35.0 seconds.
 File lengths (MBytes):  RWF=   1340 Int=      0 D2E=      0 Chk=     95 Scr=      1
 Normal termination of Gaussian 16 at Wed Oct  8 19:08:32 2025.
