Job Start Time: Wed Oct  8 16:40:26 MDT 2025
SLURM Job ID: 768210
SLURM Job Name: r1-phosphine-2thf-full-c9_tzpop-sp
 Entering Gaussian System, Link 0=/opt/apps/Gaussian/G16C/g16/g16
 Initial command:
 /opt/apps/Gaussian/G16C/g16/l1.exe "/tmp/768210/Gau-247735.inp" -scrdir="/tmp/768210/"
 Entering Link 1 = /opt/apps/Gaussian/G16C/g16/l1.exe PID=    247736.
  
 Copyright (c) 1988-2019, Gaussian, Inc.  All Rights Reserved.
  
 This is part of the Gaussian(R) 16 program.  It is based on
 the Gaussian(R) 09 system (copyright 2009, Gaussian, Inc.),
 the Gaussian(R) 03 system (copyright 2003, Gaussian, Inc.),
 the Gaussian(R) 98 system (copyright 1998, Gaussian, Inc.),
 the Gaussian(R) 94 system (copyright 1995, Gaussian, Inc.),
 the Gaussian 92(TM) system (copyright 1992, Gaussian, Inc.),
 the Gaussian 90(TM) system (copyright 1990, Gaussian, Inc.),
 the Gaussian 88(TM) system (copyright 1988, Gaussian, Inc.),
 the Gaussian 86(TM) system (copyright 1986, Carnegie Mellon
 University), and the Gaussian 82(TM) system (copyright 1983,
 Carnegie Mellon University). Gaussian is a federally registered
 trademark of Gaussian, Inc.
  
 This software contains proprietary and confidential information,
 including trade secrets, belonging to Gaussian, Inc.
  
 This software is provided under written license and may be
 used, copied, transmitted, or stored only in accord with that
 written license.
  
 The following legend is applicable only to US Government
 contracts under FAR:
  
                    RESTRICTED RIGHTS LEGEND
  
 Use, reproduction and disclosure by the US Government is
 subject to restrictions as set forth in subparagraphs (a)
 and (c) of the Commercial Computer Software - Restricted
 Rights clause in FAR 52.227-19.
  
 Gaussian, Inc.
 340 Quinnipiac St., Bldg. 40, Wallingford CT 06492
  
  
 ---------------------------------------------------------------
 Warning -- This program may not be used in any manner that
 competes with the business of Gaussian, Inc. or will provide
 assistance to any competitor of Gaussian, Inc.  The licensee
 of this program is prohibited from giving any competitor of
 Gaussian, Inc. access to this program.  By using this program,
 the user acknowledges that Gaussian, Inc. is engaged in the
 business of creating and licensing software in the field of
 computational chemistry and represents and warrants to the
 licensee that it is not a competitor of Gaussian, Inc. and that
 it will not use this program in any manner prohibited above.
 ---------------------------------------------------------------
  

 Cite this work as:
 Gaussian 16, Revision C.01,
 M. J. Frisch, G. W. Trucks, H. B. Schlegel, G. E. Scuseria, 
 M. A. Robb, J. R. Cheeseman, G. Scalmani, V. Barone, 
 G. A. Petersson, H. Nakatsuji, X. Li, M. Caricato, A. V. Marenich, 
 J. Bloino, B. G. Janesko, R. Gomperts, B. Mennucci, H. P. Hratchian, 
 J. V. Ortiz, A. F. Izmaylov, J. L. Sonnenberg, D. Williams-Young, 
 F. Ding, F. Lipparini, F. Egidi, J. Goings, B. Peng, A. Petrone, 
 T. Henderson, D. Ranasinghe, V. G. Zakrzewski, J. Gao, N. Rega, 
 G. Zheng, W. Liang, M. Hada, M. Ehara, K. Toyota, R. Fukuda, 
 J. Hasegawa, M. Ishida, T. Nakajima, Y. Honda, O. Kitao, H. Nakai, 
 T. Vreven, K. Throssell, J. A. Montgomery, Jr., J. E. Peralta, 
 F. Ogliaro, M. J. Bearpark, J. J. Heyd, E. N. Brothers, K. N. Kudin, 
 V. N. Staroverov, T. A. Keith, R. Kobayashi, J. Normand, 
 K. Raghavachari, A. P. Rendell, J. C. Burant, S. S. Iyengar, 
 J. Tomasi, M. Cossi, J. M. Millam, M. Klene, C. Adamo, R. Cammi, 
 J. W. Ochterski, R. L. Martin, K. Morokuma, O. Farkas, 
 J. B. Foresman, and D. J. Fox, Gaussian, Inc., Wallingford CT, 2019.
 
 ******************************************
 Gaussian 16:  AS64L-G16RevC.01  3-Jul-2019
                 8-Oct-2025 
 ******************************************
 %chk=r1-phosphine-2thf-full-c9_tzpop-sp.chk
 %nprocshared=4
 Will use up to    4 processors via shared memory.
 %mem=8GB
 ----------------------------------------------------------------------
 # wb97xd/6-311++g** nosymm int=ultrafine scrf=(smd,solvent=tetrahydrof
 uran)
 ----------------------------------------------------------------------
 1/38=1,172=1/1;
 2/12=2,15=1,17=6,18=5,40=1/2;
 3/5=4,6=6,7=1111,11=2,25=1,30=1,70=32201,72=20,74=-58,75=-5/1,2,3;
 4//1;
 5/5=2,38=5,53=20/2;
 6/7=2,8=2,9=2,10=2,28=1/1;
 99/5=1,9=1/99;
 ----------------------------------
 r1-phosphine-2thf-full-c9_tzpop-sp
 ----------------------------------
 Symbolic Z-matrix:
 Charge =  0 Multiplicity = 1
 C                    -2.9606    0.4974    2.6603 
 C                    -1.879     0.5367    3.4559 
 H                    -0.9871    0.0316    3.084 
 C                    -1.6966    1.1878    4.8026 
 H                    -1.4276    0.4486    5.5713 
 H                    -0.8737    1.917     4.7727 
 H                    -2.5888    1.7182    5.1511 
 C                    -4.2711    1.1444    3.0623 
 H                    -4.3925    1.2755    4.1446 
 H                    -4.3781    2.1372    2.6012 
 H                    -5.1165    0.543     2.7046 
 B                    -2.9504   -0.2002    1.1808 
 C                    -3.2396    0.9239    0.0223 
 H                    -4.1307    1.5263    0.255 
 H                    -2.4116    1.6358   -0.1062 
 H                    -3.4273    0.4545   -0.9517 
 O                    -1.6385   -0.9204    0.8539 
 O                    -3.9505   -1.3132    1.1345 
 C                    -3.3563   -2.4615    0.5753 
 C                    -1.8575   -2.3247    0.9982 
 C                    -3.5055   -2.445    -0.9573 
 H                    -2.9215   -1.635    -1.4032 
 H                    -3.1869   -3.3917   -1.4112 
 H                    -4.5593   -2.2808   -1.2101 
 C                    -4.0513   -3.7053    1.1253 
 H                    -4.0942   -3.6848    2.2182 
 H                    -5.0808   -3.7498    0.7498 
 H                    -3.5381   -4.6231    0.8112 
 C                    -0.8845   -3.1056    0.1213 
 H                    -0.8882   -2.7544   -0.9123 
 H                     0.1376   -2.9997    0.5006 
 H                    -1.1432   -4.1717    0.127 
 C                    -1.6331   -2.7458    2.4564 
 H                    -2.3645   -2.2847    3.1243 
 H                    -1.6932   -3.8353    2.5659 
 H                    -0.6331   -2.431     2.7759 
 P                     2.4156   -0.6115   -0.6926 
 O                     1.0107   -0.9617   -1.0798 
 O                     3.4817   -1.7094   -1.292 
 N                     3.1668   -3.0779   -0.9923 
 H                     3.2299   -3.1705    0.0244 
 H                     2.1831   -3.2043   -1.241 
 Li                   -0.6994   -0.0559   -0.6326 
 C                     0.2421    2.7904   -1.1702 
 O                     0.1569    1.7499   -0.1971 
 C                     0.1124    2.4028    1.073 
 C                    -0.7142    3.6812    0.8593 
 C                    -0.7245    3.8678   -0.6766 
 H                     1.2732    3.1688   -1.2013 
 H                    -0.0068    2.3591   -2.1403 
 H                    -0.3338    1.7085    1.7851 
 H                     1.1408    2.6353    1.3848 
 H                    -1.7289    3.5543    1.2477 
 H                    -0.2589    4.531     1.3758 
 H                    -1.7273    3.695    -1.0794 
 H                    -0.403     4.8668   -0.9846 
 C                    -1.0518   -0.9548   -3.4818 
 O                    -1.2606    0.1388   -2.5851 
 C                    -2.1022    1.0575   -3.2782 
 C                    -3.1521    0.1762   -3.9486 
 C                    -2.3684   -1.1174   -4.265 
 H                    -0.2152   -0.7095   -4.1502 
 H                    -0.7744   -1.8246   -2.8857 
 H                    -2.502     1.7662   -2.5515 
 H                    -1.5032    1.6029   -4.024 
 H                    -3.9671   -0.0276   -3.2468 
 H                    -3.5759    0.6476   -4.8396 
 H                    -2.9194   -2.0033   -3.9377 
 H                    -2.1694   -1.222    -5.3356 
 C                     2.6835   -0.625     1.0884 
 C                     1.583    -0.6308    1.9508 
 C                     3.9853   -0.6534    1.6077 
 C                     1.7891   -0.6508    3.3292 
 H                     0.5693   -0.6358    1.5535 
 C                     4.1831   -0.6712    2.9845 
 H                     4.8424   -0.6628    0.9388 
 C                     3.0837   -0.6673    3.8445 
 H                     0.9363   -0.659     4.0021 
 H                     5.1921   -0.6925    3.3858 
 H                     3.2382   -0.6831    4.9198 
 C                     3.0638    0.8932   -1.4361 
 C                     3.7163    1.8779   -0.69 
 C                     2.852     1.0801   -2.8077 
 C                     4.1651    3.0393   -1.3163 
 H                     3.8687    1.7537    0.3779 
 C                     3.3007    2.2415   -3.4277 
 H                     2.3295    0.3244   -3.3881 
 C                     3.9587    3.2208   -2.6823 
 H                     4.6704    3.8039   -0.7334 
 H                     3.1345    2.3845   -4.4916 
 H                     4.307     4.1283   -3.1677 
 
 Symmetry turned off by external request.
 Stoichiometry    C31H50BLiNO6P
 Framework group  C1[X(C31H50BLiNO6P)]
 Deg. of freedom   267
 Full point group                 C1      NOp   1
                          Input orientation:                          
 ---------------------------------------------------------------------
 Center     Atomic      Atomic             Coordinates (Angstroms)
 Number     Number       Type             X           Y           Z
 ---------------------------------------------------------------------
      1          6           0       -2.960600    0.497400    2.660300
      2          6           0       -1.879000    0.536700    3.455900
      3          1           0       -0.987100    0.031600    3.084000
      4          6           0       -1.696600    1.187800    4.802600
      5          1           0       -1.427600    0.448600    5.571300
      6          1           0       -0.873700    1.917000    4.772700
      7          1           0       -2.588800    1.718200    5.151100
      8          6           0       -4.271100    1.144400    3.062300
      9          1           0       -4.392500    1.275500    4.144600
     10          1           0       -4.378100    2.137200    2.601200
     11          1           0       -5.116500    0.543000    2.704600
     12          5           0       -2.950400   -0.200200    1.180800
     13          6           0       -3.239600    0.923900    0.022300
     14          1           0       -4.130700    1.526300    0.255000
     15          1           0       -2.411600    1.635800   -0.106200
     16          1           0       -3.427300    0.454500   -0.951700
     17          8           0       -1.638500   -0.920400    0.853900
     18          8           0       -3.950500   -1.313200    1.134500
     19          6           0       -3.356300   -2.461500    0.575300
     20          6           0       -1.857500   -2.324700    0.998200
     21          6           0       -3.505500   -2.445000   -0.957300
     22          1           0       -2.921500   -1.635000   -1.403200
     23          1           0       -3.186900   -3.391700   -1.411200
     24          1           0       -4.559300   -2.280800   -1.210100
     25          6           0       -4.051300   -3.705300    1.125300
     26          1           0       -4.094200   -3.684800    2.218200
     27          1           0       -5.080800   -3.749800    0.749800
     28          1           0       -3.538100   -4.623100    0.811200
     29          6           0       -0.884500   -3.105600    0.121300
     30          1           0       -0.888200   -2.754400   -0.912300
     31          1           0        0.137600   -2.999700    0.500600
     32          1           0       -1.143200   -4.171700    0.127000
     33          6           0       -1.633100   -2.745800    2.456400
     34          1           0       -2.364500   -2.284700    3.124300
     35          1           0       -1.693200   -3.835300    2.565900
     36          1           0       -0.633100   -2.431000    2.775900
     37         15           0        2.415600   -0.611500   -0.692600
     38          8           0        1.010700   -0.961700   -1.079800
     39          8           0        3.481700   -1.709400   -1.292000
     40          7           0        3.166800   -3.077900   -0.992300
     41          1           0        3.229900   -3.170500    0.024400
     42          1           0        2.183100   -3.204300   -1.241000
     43          3           0       -0.699400   -0.055900   -0.632600
     44          6           0        0.242100    2.790400   -1.170200
     45          8           0        0.156900    1.749900   -0.197100
     46          6           0        0.112400    2.402800    1.073000
     47          6           0       -0.714200    3.681200    0.859300
     48          6           0       -0.724500    3.867800   -0.676600
     49          1           0        1.273200    3.168800   -1.201300
     50          1           0       -0.006800    2.359100   -2.140300
     51          1           0       -0.333800    1.708500    1.785100
     52          1           0        1.140800    2.635300    1.384800
     53          1           0       -1.728900    3.554300    1.247700
     54          1           0       -0.258900    4.531000    1.375800
     55          1           0       -1.727300    3.695000   -1.079400
     56          1           0       -0.403000    4.866800   -0.984600
     57          6           0       -1.051800   -0.954800   -3.481800
     58          8           0       -1.260600    0.138800   -2.585100
     59          6           0       -2.102200    1.057500   -3.278200
     60          6           0       -3.152100    0.176200   -3.948600
     61          6           0       -2.368400   -1.117400   -4.265000
     62          1           0       -0.215200   -0.709500   -4.150200
     63          1           0       -0.774400   -1.824600   -2.885700
     64          1           0       -2.502000    1.766200   -2.551500
     65          1           0       -1.503200    1.602900   -4.024000
     66          1           0       -3.967100   -0.027600   -3.246800
     67          1           0       -3.575900    0.647600   -4.839600
     68          1           0       -2.919400   -2.003300   -3.937700
     69          1           0       -2.169400   -1.222000   -5.335600
     70          6           0        2.683500   -0.625000    1.088400
     71          6           0        1.583000   -0.630800    1.950800
     72          6           0        3.985300   -0.653400    1.607700
     73          6           0        1.789100   -0.650800    3.329200
     74          1           0        0.569300   -0.635800    1.553500
     75          6           0        4.183100   -0.671200    2.984500
     76          1           0        4.842400   -0.662800    0.938800
     77          6           0        3.083700   -0.667300    3.844500
     78          1           0        0.936300   -0.659000    4.002100
     79          1           0        5.192100   -0.692500    3.385800
     80          1           0        3.238200   -0.683100    4.919800
     81          6           0        3.063800    0.893200   -1.436100
     82          6           0        3.716300    1.877900   -0.690000
     83          6           0        2.852000    1.080100   -2.807700
     84          6           0        4.165100    3.039300   -1.316300
     85          1           0        3.868700    1.753700    0.377900
     86          6           0        3.300700    2.241500   -3.427700
     87          1           0        2.329500    0.324400   -3.388100
     88          6           0        3.958700    3.220800   -2.682300
     89          1           0        4.670400    3.803900   -0.733400
     90          1           0        3.134500    2.384500   -4.491600
     91          1           0        4.307000    4.128300   -3.167700
 ---------------------------------------------------------------------
 Rotational constants (GHZ):           0.1045763           0.0767552           0.0673003
 Standard basis: 6-311++G(d,p) (5D, 7F)
  1260 basis functions,  1940 primitive gaussians,  1301 cartesian basis functions
   157 alpha electrons      157 beta electrons
       nuclear repulsion energy      5747.0320427991 Hartrees.
 NAtoms=   91 NActive=   91 NUniq=   91 SFac= 1.00D+00 NAtFMM=   60 NAOKFM=T Big=T
 Integral buffers will be    131072 words long.
 Raffenetti 2 integral format.
 Two-electron integral symmetry is turned off.
 Nuclear repulsion after empirical dispersion term =     5746.9119977068 Hartrees.
 ------------------------------------------------------------------------------
 Polarizable Continuum Model (PCM)
 =================================
 Model                : PCM.
 Atomic radii         : SMD-Coulomb.
 Polarization charges : Total charges.
 Charge compensation  : None.
 Solution method      : On-the-fly selection.
 Cavity type          : VdW (van der Waals Surface) (Alpha=1.000).
 Cavity algorithm     : GePol (No added spheres)
                        Default sphere list used, NSphG=   91.
                        Lebedev-Laikov grids with approx.  5.0 points / Ang**2.
                        Smoothing algorithm: York/Karplus (Gamma=1.0000).
                        Polarization charges: spherical gaussians, with
                                              point-specific exponents (IZeta= 3).
                        Self-potential: point-specific (ISelfS= 7).
                        Self-field    : sphere-specific E.n sum rule (ISelfD= 2).
 Solvent              : TetraHydroFuran, Eps=   7.425700 Eps(inf)=   1.974025
 ------------------------------------------------------------------------------
 ------------------------------------------------------------------------------
 Atomic radii for non-electrostatic terms: SMD-CDS.
 ------------------------------------------------------------------------------
 Nuclear repulsion after PCM non-electrostatic terms =     5746.9046225138 Hartrees.
 One-electron integrals computed using PRISM.
 NBasis=  1260 RedAO= T EigKep=  1.17D-06  NBF=  1260
 NBsUse=  1249 1.00D-06 EigRej=  9.69D-07 NBFU=  1249
 ExpMin= 7.40D-03 ExpMax= 7.75D+04 ExpMxC= 2.65D+03 IAcc=3 IRadAn=         5 AccDes= 0.00D+00
 Harris functional with IExCor= 4639 and IRadAn=       5 diagonalized for initial guess.
 HarFok:  IExCor= 4639 AccDes= 0.00D+00 IRadAn=         5 IDoV= 1 UseB2=F ITyADJ=14
 ICtDFT=  3500011 ScaDFX=  1.000000  1.000000  1.000000  1.000000
 FoFCou: FMM=F IPFlag=           0 FMFlag=      100000 FMFlg1=        2001
         NFxFlg=           0 DoJE=T BraDBF=F KetDBF=T FulRan=T
         wScrn=  0.000000 ICntrl=       500 IOpCl=  0 I1Cent=   200000004 NGrid=           0
         NMat0=    1 NMatS0=      1 NMatT0=    0 NMatD0=    1 NMtDS0=    0 NMtDT0=    0
 Symmetry not used in FoFCou.
 Requested convergence on RMS density matrix=1.00D-08 within 128 cycles.
 Requested convergence on MAX density matrix=1.00D-06.
 Requested convergence on             energy=1.00D-06.
 No special actions if energy rises.
 Inv3:  Mode=1 IEnd=    92141292.
 Iteration    1 A*A^-1 deviation from unit magnitude is 8.88D-15 for   5518.
 Iteration    1 A*A^-1 deviation from orthogonality  is 6.66D-15 for   5525   2574.
 Iteration    1 A^-1*A deviation from unit magnitude is 8.88D-15 for   5518.
 Iteration    1 A^-1*A deviation from orthogonality  is 5.06D-15 for   2554   2526.
 Error on total polarization charges =  0.07468
 SCF Done:  E(RwB97XD) =  -2091.38614078     A.U. after   16 cycles
            NFock= 16  Conv=0.46D-08     -V/T= 2.0040
 SMD-CDS (non-electrostatic) energy       (kcal/mol) =      -4.63
 (included in total energy above)

 **********************************************************************

            Population analysis using the SCF Density.

 **********************************************************************

 Alpha  occ. eigenvalues --  -77.31827 -19.30260 -19.26020 -19.25937 -19.21745
 Alpha  occ. eigenvalues --  -19.19611 -19.17286 -14.48541 -10.32362 -10.32328
 Alpha  occ. eigenvalues --  -10.32141 -10.31877 -10.31418 -10.31325 -10.31139
 Alpha  occ. eigenvalues --  -10.30857 -10.30835 -10.30812 -10.30769 -10.30371
 Alpha  occ. eigenvalues --  -10.30289 -10.30257 -10.30016 -10.30006 -10.29982
 Alpha  occ. eigenvalues --  -10.29768 -10.27609 -10.27562 -10.27540 -10.27378
 Alpha  occ. eigenvalues --  -10.25649 -10.25289 -10.24913 -10.24669 -10.24644
 Alpha  occ. eigenvalues --  -10.24626 -10.24143 -10.22617 -10.20784  -6.80191
 Alpha  occ. eigenvalues --   -6.76319  -4.91179  -4.90917  -4.90872  -1.99828
 Alpha  occ. eigenvalues --   -1.19551  -1.15235  -1.15042  -1.09948  -1.08791
 Alpha  occ. eigenvalues --   -1.03215  -0.97794  -0.97329  -0.92731  -0.87657
 Alpha  occ. eigenvalues --   -0.87494  -0.87340  -0.87298  -0.86298  -0.86192
 Alpha  occ. eigenvalues --   -0.86006  -0.85894  -0.83595  -0.83212  -0.81837
 Alpha  occ. eigenvalues --   -0.79262  -0.77828  -0.75290  -0.75103  -0.74666
 Alpha  occ. eigenvalues --   -0.71969  -0.71688  -0.71281  -0.70710  -0.69285
 Alpha  occ. eigenvalues --   -0.69023  -0.68261  -0.68117  -0.67866  -0.67458
 Alpha  occ. eigenvalues --   -0.63148  -0.62619  -0.60826  -0.60520  -0.60053
 Alpha  occ. eigenvalues --   -0.59495  -0.59163  -0.58470  -0.57918  -0.57804
 Alpha  occ. eigenvalues --   -0.56891  -0.56229  -0.55755  -0.55097  -0.54306
 Alpha  occ. eigenvalues --   -0.53932  -0.53851  -0.53722  -0.53545  -0.52501
 Alpha  occ. eigenvalues --   -0.52445  -0.52072  -0.51616  -0.51398  -0.50395
 Alpha  occ. eigenvalues --   -0.50318  -0.50218  -0.50136  -0.49110  -0.48634
 Alpha  occ. eigenvalues --   -0.48252  -0.47883  -0.47492  -0.47448  -0.47135
 Alpha  occ. eigenvalues --   -0.46472  -0.46222  -0.45921  -0.45693  -0.45329
 Alpha  occ. eigenvalues --   -0.44991  -0.44501  -0.44327  -0.44065  -0.43926
 Alpha  occ. eigenvalues --   -0.43831  -0.43739  -0.43482  -0.43056  -0.42956
 Alpha  occ. eigenvalues --   -0.42775  -0.42516  -0.42210  -0.41818  -0.41699
 Alpha  occ. eigenvalues --   -0.41414  -0.41235  -0.40594  -0.40137  -0.40018
 Alpha  occ. eigenvalues --   -0.39920  -0.39607  -0.38462  -0.38245  -0.36896
 Alpha  occ. eigenvalues --   -0.36416  -0.35574  -0.35358  -0.35138  -0.34988
 Alpha  occ. eigenvalues --   -0.34764  -0.34428  -0.34245  -0.33829  -0.30983
 Alpha  occ. eigenvalues --   -0.28005  -0.27157
 Alpha virt. eigenvalues --    0.01442   0.02264   0.02411   0.02513   0.02635
 Alpha virt. eigenvalues --    0.02728   0.03833   0.04623   0.05321   0.05533
 Alpha virt. eigenvalues --    0.05770   0.05923   0.06222   0.06797   0.06947
 Alpha virt. eigenvalues --    0.06984   0.07387   0.07483   0.07503   0.07588
 Alpha virt. eigenvalues --    0.07682   0.07954   0.07997   0.08051   0.08800
 Alpha virt. eigenvalues --    0.08958   0.09203   0.09267   0.09539   0.09849
 Alpha virt. eigenvalues --    0.10107   0.10432   0.10771   0.10822   0.11181
 Alpha virt. eigenvalues --    0.11365   0.11446   0.11789   0.12076   0.12336
 Alpha virt. eigenvalues --    0.12476   0.12596   0.12927   0.13170   0.13330
 Alpha virt. eigenvalues --    0.13452   0.13577   0.13877   0.14143   0.14173
 Alpha virt. eigenvalues --    0.14299   0.14524   0.14570   0.14905   0.15255
 Alpha virt. eigenvalues --    0.15344   0.15484   0.15604   0.15630   0.15843
 Alpha virt. eigenvalues --    0.15996   0.16317   0.16486   0.16612   0.16796
 Alpha virt. eigenvalues --    0.16900   0.16970   0.17139   0.17220   0.17441
 Alpha virt. eigenvalues --    0.17706   0.17782   0.17990   0.18042   0.18186
 Alpha virt. eigenvalues --    0.18375   0.18517   0.18739   0.18767   0.18867
 Alpha virt. eigenvalues --    0.19043   0.19361   0.19466   0.19599   0.19729
 Alpha virt. eigenvalues --    0.19769   0.19827   0.20014   0.20112   0.20201
 Alpha virt. eigenvalues --    0.20402   0.20604   0.20735   0.20817   0.20911
 Alpha virt. eigenvalues --    0.20939   0.21118   0.21270   0.21550   0.21564
 Alpha virt. eigenvalues --    0.21585   0.21826   0.22111   0.22261   0.22378
 Alpha virt. eigenvalues --    0.22464   0.22528   0.22704   0.22780   0.22919
 Alpha virt. eigenvalues --    0.23134   0.23221   0.23273   0.23499   0.23562
 Alpha virt. eigenvalues --    0.23717   0.23957   0.24086   0.24119   0.24280
 Alpha virt. eigenvalues --    0.24383   0.24504   0.24699   0.24782   0.25014
 Alpha virt. eigenvalues --    0.25155   0.25253   0.25415   0.25576   0.25662
 Alpha virt. eigenvalues --    0.25857   0.26004   0.26101   0.26277   0.26303
 Alpha virt. eigenvalues --    0.26454   0.26609   0.26821   0.26873   0.27045
 Alpha virt. eigenvalues --    0.27078   0.27289   0.27478   0.27633   0.27762
 Alpha virt. eigenvalues --    0.27857   0.27933   0.28201   0.28401   0.28498
 Alpha virt. eigenvalues --    0.28553   0.28765   0.28893   0.29066   0.29372
 Alpha virt. eigenvalues --    0.29479   0.29604   0.29652   0.29816   0.29964
 Alpha virt. eigenvalues --    0.30172   0.30325   0.30505   0.30641   0.30713
 Alpha virt. eigenvalues --    0.30918   0.30995   0.31265   0.31449   0.31636
 Alpha virt. eigenvalues --    0.31877   0.32037   0.32346   0.32478   0.32614
 Alpha virt. eigenvalues --    0.32619   0.32806   0.32873   0.33050   0.33276
 Alpha virt. eigenvalues --    0.33367   0.33581   0.33840   0.34034   0.34146
 Alpha virt. eigenvalues --    0.34338   0.34390   0.34596   0.34770   0.34791
 Alpha virt. eigenvalues --    0.35154   0.35184   0.35289   0.35556   0.35749
 Alpha virt. eigenvalues --    0.36034   0.36154   0.36453   0.36608   0.36647
 Alpha virt. eigenvalues --    0.36773   0.36861   0.37018   0.37159   0.37341
 Alpha virt. eigenvalues --    0.37401   0.37587   0.37947   0.38042   0.38181
 Alpha virt. eigenvalues --    0.38226   0.38588   0.38671   0.38882   0.39032
 Alpha virt. eigenvalues --    0.39233   0.39442   0.39487   0.39719   0.39982
 Alpha virt. eigenvalues --    0.40112   0.40313   0.40418   0.40477   0.40721
 Alpha virt. eigenvalues --    0.40759   0.41074   0.41321   0.41467   0.41595
 Alpha virt. eigenvalues --    0.41719   0.41872   0.42085   0.42293   0.42442
 Alpha virt. eigenvalues --    0.42663   0.42900   0.43058   0.43101   0.43283
 Alpha virt. eigenvalues --    0.43620   0.43685   0.44054   0.44278   0.44406
 Alpha virt. eigenvalues --    0.44718   0.44791   0.44973   0.45064   0.45332
 Alpha virt. eigenvalues --    0.45611   0.45756   0.45845   0.46177   0.46371
 Alpha virt. eigenvalues --    0.46581   0.46666   0.46867   0.47118   0.47488
 Alpha virt. eigenvalues --    0.47694   0.47875   0.48105   0.48573   0.48678
 Alpha virt. eigenvalues --    0.48878   0.49015   0.49236   0.49658   0.50214
 Alpha virt. eigenvalues --    0.50475   0.50848   0.51106   0.51296   0.51678
 Alpha virt. eigenvalues --    0.52194   0.52329   0.52534   0.52580   0.52957
 Alpha virt. eigenvalues --    0.53632   0.53720   0.54077   0.54535   0.54649
 Alpha virt. eigenvalues --    0.54879   0.55256   0.55879   0.55953   0.56810
 Alpha virt. eigenvalues --    0.56965   0.57449   0.57852   0.58131   0.58336
 Alpha virt. eigenvalues --    0.58502   0.59066   0.59220   0.59679   0.59956
 Alpha virt. eigenvalues --    0.60830   0.61016   0.61193   0.61805   0.61857
 Alpha virt. eigenvalues --    0.62142   0.62231   0.62595   0.62690   0.63453
 Alpha virt. eigenvalues --    0.63623   0.64037   0.64062   0.64300   0.64637
 Alpha virt. eigenvalues --    0.64948   0.64951   0.65482   0.65668   0.66140
 Alpha virt. eigenvalues --    0.66442   0.66514   0.66960   0.67247   0.67476
 Alpha virt. eigenvalues --    0.67652   0.68040   0.68099   0.68677   0.68712
 Alpha virt. eigenvalues --    0.69223   0.69544   0.69779   0.70165   0.70348
 Alpha virt. eigenvalues --    0.70571   0.70914   0.71340   0.71455   0.72071
 Alpha virt. eigenvalues --    0.72245   0.72340   0.72724   0.72924   0.73300
 Alpha virt. eigenvalues --    0.73382   0.73652   0.73907   0.74618   0.74694
 Alpha virt. eigenvalues --    0.74868   0.75243   0.75462   0.76056   0.76263
 Alpha virt. eigenvalues --    0.76493   0.76643   0.77205   0.77347   0.77519
 Alpha virt. eigenvalues --    0.77734   0.78076   0.78491   0.78663   0.78781
 Alpha virt. eigenvalues --    0.79111   0.79153   0.79353   0.79753   0.80017
 Alpha virt. eigenvalues --    0.80223   0.80663   0.80864   0.81303   0.81475
 Alpha virt. eigenvalues --    0.81676   0.81893   0.82335   0.82569   0.82645
 Alpha virt. eigenvalues --    0.82929   0.83165   0.83279   0.83546   0.83578
 Alpha virt. eigenvalues --    0.83921   0.84043   0.84601   0.84778   0.84814
 Alpha virt. eigenvalues --    0.85283   0.85479   0.85604   0.85807   0.85853
 Alpha virt. eigenvalues --    0.86175   0.86217   0.86692   0.86782   0.86994
 Alpha virt. eigenvalues --    0.87182   0.87371   0.87912   0.88136   0.88592
 Alpha virt. eigenvalues --    0.88861   0.88890   0.89246   0.89394   0.89839
 Alpha virt. eigenvalues --    0.89896   0.90034   0.90393   0.90473   0.90753
 Alpha virt. eigenvalues --    0.91013   0.91198   0.91311   0.91492   0.91679
 Alpha virt. eigenvalues --    0.92066   0.92223   0.92556   0.92625   0.92999
 Alpha virt. eigenvalues --    0.93593   0.93883   0.94199   0.94656   0.94876
 Alpha virt. eigenvalues --    0.95027   0.95316   0.95551   0.95875   0.96223
 Alpha virt. eigenvalues --    0.96630   0.96784   0.96990   0.97318   0.97509
 Alpha virt. eigenvalues --    0.97833   0.97970   0.98459   0.98969   0.99227
 Alpha virt. eigenvalues --    0.99597   0.99861   1.00177   1.00657   1.00815
 Alpha virt. eigenvalues --    1.01408   1.01571   1.01988   1.02347   1.02720
 Alpha virt. eigenvalues --    1.03239   1.03411   1.03736   1.04334   1.04773
 Alpha virt. eigenvalues --    1.05526   1.05966   1.06671   1.06844   1.07317
 Alpha virt. eigenvalues --    1.07511   1.08111   1.08741   1.09160   1.09476
 Alpha virt. eigenvalues --    1.10204   1.10577   1.11495   1.12016   1.12910
 Alpha virt. eigenvalues --    1.13276   1.13424   1.13660   1.13971   1.14376
 Alpha virt. eigenvalues --    1.15425   1.15750   1.16384   1.16612   1.17141
 Alpha virt. eigenvalues --    1.17686   1.17801   1.18459   1.18840   1.19348
 Alpha virt. eigenvalues --    1.19569   1.20301   1.20814   1.21101   1.21557
 Alpha virt. eigenvalues --    1.22266   1.22435   1.23137   1.23508   1.23999
 Alpha virt. eigenvalues --    1.24584   1.25052   1.25589   1.26060   1.26802
 Alpha virt. eigenvalues --    1.26941   1.27399   1.27905   1.28276   1.29323
 Alpha virt. eigenvalues --    1.29810   1.30403   1.30694   1.31464   1.32314
 Alpha virt. eigenvalues --    1.32438   1.32542   1.33075   1.33721   1.34501
 Alpha virt. eigenvalues --    1.35364   1.35771   1.36409   1.37010   1.37438
 Alpha virt. eigenvalues --    1.37756   1.38281   1.39299   1.39648   1.39876
 Alpha virt. eigenvalues --    1.40627   1.40984   1.41277   1.41596   1.42997
 Alpha virt. eigenvalues --    1.43455   1.43954   1.44342   1.44609   1.44657
 Alpha virt. eigenvalues --    1.45913   1.46522   1.46996   1.47712   1.48686
 Alpha virt. eigenvalues --    1.49519   1.50361   1.50633   1.50738   1.52235
 Alpha virt. eigenvalues --    1.52694   1.53076   1.54184   1.54813   1.55171
 Alpha virt. eigenvalues --    1.55609   1.56044   1.56739   1.57211   1.57908
 Alpha virt. eigenvalues --    1.58109   1.58262   1.58735   1.58781   1.59414
 Alpha virt. eigenvalues --    1.59925   1.60104   1.60737   1.61091   1.61658
 Alpha virt. eigenvalues --    1.62137   1.62469   1.62689   1.62966   1.63346
 Alpha virt. eigenvalues --    1.63591   1.63983   1.64175   1.64802   1.65115
 Alpha virt. eigenvalues --    1.65521   1.65641   1.65743   1.66269   1.66449
 Alpha virt. eigenvalues --    1.67044   1.67369   1.67715   1.67968   1.68521
 Alpha virt. eigenvalues --    1.68746   1.69105   1.69521   1.70087   1.70313
 Alpha virt. eigenvalues --    1.70468   1.70740   1.71084   1.71343   1.71673
 Alpha virt. eigenvalues --    1.72170   1.72529   1.72650   1.73071   1.73312
 Alpha virt. eigenvalues --    1.73513   1.73888   1.74200   1.74667   1.74992
 Alpha virt. eigenvalues --    1.75254   1.75675   1.75869   1.76496   1.76568
 Alpha virt. eigenvalues --    1.77041   1.77163   1.77198   1.77535   1.78011
 Alpha virt. eigenvalues --    1.78606   1.78636   1.78696   1.79249   1.79495
 Alpha virt. eigenvalues --    1.79863   1.80256   1.80679   1.80959   1.81107
 Alpha virt. eigenvalues --    1.81293   1.81581   1.81925   1.83070   1.83382
 Alpha virt. eigenvalues --    1.83776   1.84345   1.84524   1.84794   1.84881
 Alpha virt. eigenvalues --    1.85305   1.85616   1.86091   1.86574   1.86769
 Alpha virt. eigenvalues --    1.87412   1.87921   1.88230   1.88678   1.88980
 Alpha virt. eigenvalues --    1.89125   1.89530   1.90379   1.90500   1.90662
 Alpha virt. eigenvalues --    1.91280   1.91667   1.92222   1.92365   1.92691
 Alpha virt. eigenvalues --    1.93463   1.93521   1.94580   1.94976   1.95096
 Alpha virt. eigenvalues --    1.95319   1.95770   1.96028   1.96316   1.96978
 Alpha virt. eigenvalues --    1.97097   1.97507   1.98068   1.98246   1.99185
 Alpha virt. eigenvalues --    1.99401   1.99743   2.00152   2.00728   2.00856
 Alpha virt. eigenvalues --    2.01210   2.01725   2.01961   2.02045   2.02273
 Alpha virt. eigenvalues --    2.02775   2.03109   2.03402   2.04061   2.04488
 Alpha virt. eigenvalues --    2.05285   2.05655   2.06016   2.06367   2.06579
 Alpha virt. eigenvalues --    2.07024   2.07363   2.07543   2.07795   2.08422
 Alpha virt. eigenvalues --    2.08569   2.09284   2.09598   2.09957   2.10120
 Alpha virt. eigenvalues --    2.10746   2.11469   2.11600   2.12035   2.12103
 Alpha virt. eigenvalues --    2.12769   2.13471   2.13625   2.14019   2.14120
 Alpha virt. eigenvalues --    2.14875   2.15596   2.15971   2.16346   2.17017
 Alpha virt. eigenvalues --    2.17709   2.17833   2.18085   2.18865   2.18929
 Alpha virt. eigenvalues --    2.20035   2.21066   2.21233   2.21582   2.21815
 Alpha virt. eigenvalues --    2.22227   2.23223   2.23586   2.23940   2.24785
 Alpha virt. eigenvalues --    2.25166   2.25954   2.26119   2.26956   2.27272
 Alpha virt. eigenvalues --    2.28133   2.28900   2.29313   2.29449   2.30470
 Alpha virt. eigenvalues --    2.30917   2.31627   2.32054   2.33028   2.33534
 Alpha virt. eigenvalues --    2.34615   2.35401   2.35665   2.36315   2.37213
 Alpha virt. eigenvalues --    2.38015   2.38896   2.39472   2.39592   2.40047
 Alpha virt. eigenvalues --    2.41076   2.41637   2.41735   2.42122   2.42575
 Alpha virt. eigenvalues --    2.43014   2.43613   2.43912   2.44449   2.45263
 Alpha virt. eigenvalues --    2.45725   2.46149   2.47936   2.48105   2.48781
 Alpha virt. eigenvalues --    2.49775   2.50270   2.52355   2.52449   2.52694
 Alpha virt. eigenvalues --    2.53033   2.53358   2.55695   2.56068   2.56669
 Alpha virt. eigenvalues --    2.58367   2.59168   2.59354   2.59933   2.60483
 Alpha virt. eigenvalues --    2.60631   2.60765   2.62040   2.62356   2.62890
 Alpha virt. eigenvalues --    2.63201   2.63617   2.63803   2.64191   2.64431
 Alpha virt. eigenvalues --    2.64679   2.64685   2.65799   2.66994   2.67482
 Alpha virt. eigenvalues --    2.67764   2.68334   2.68735   2.69277   2.69514
 Alpha virt. eigenvalues --    2.69578   2.70071   2.70889   2.71198   2.71475
 Alpha virt. eigenvalues --    2.72034   2.72220   2.72633   2.73010   2.73295
 Alpha virt. eigenvalues --    2.74189   2.74774   2.74985   2.75131   2.75445
 Alpha virt. eigenvalues --    2.75972   2.76313   2.77245   2.77996   2.78580
 Alpha virt. eigenvalues --    2.79118   2.79301   2.79781   2.80509   2.81578
 Alpha virt. eigenvalues --    2.82015   2.82755   2.83487   2.83826   2.84303
 Alpha virt. eigenvalues --    2.84684   2.84784   2.85397   2.85938   2.86097
 Alpha virt. eigenvalues --    2.86313   2.86790   2.87294   2.87972   2.88087
 Alpha virt. eigenvalues --    2.88350   2.88453   2.88590   2.89218   2.89616
 Alpha virt. eigenvalues --    2.90612   2.91100   2.91298   2.91750   2.92363
 Alpha virt. eigenvalues --    2.92969   2.93070   2.93485   2.93779   2.94054
 Alpha virt. eigenvalues --    2.94241   2.94938   2.95800   2.96632   2.97087
 Alpha virt. eigenvalues --    2.97343   2.97456   2.98162   2.98426   2.99037
 Alpha virt. eigenvalues --    2.99453   2.99818   3.00400   3.01023   3.01232
 Alpha virt. eigenvalues --    3.01486   3.02670   3.02941   3.03012   3.03817
 Alpha virt. eigenvalues --    3.03887   3.04250   3.04634   3.05089   3.05656
 Alpha virt. eigenvalues --    3.06473   3.06658   3.07427   3.08284   3.08453
 Alpha virt. eigenvalues --    3.08689   3.08882   3.09831   3.10918   3.11919
 Alpha virt. eigenvalues --    3.12058   3.12617   3.13005   3.13497   3.14013
 Alpha virt. eigenvalues --    3.15312   3.15650   3.16668   3.17172   3.17667
 Alpha virt. eigenvalues --    3.18850   3.19183   3.19661   3.20154   3.20880
 Alpha virt. eigenvalues --    3.21164   3.21926   3.22411   3.24027   3.24383
 Alpha virt. eigenvalues --    3.24875   3.25347   3.26506   3.26861   3.27701
 Alpha virt. eigenvalues --    3.28235   3.29135   3.29681   3.30043   3.30910
 Alpha virt. eigenvalues --    3.31500   3.32796   3.33153   3.33886   3.34414
 Alpha virt. eigenvalues --    3.35044   3.35745   3.36848   3.37306   3.39124
 Alpha virt. eigenvalues --    3.39370   3.40594   3.41535   3.42679   3.42940
 Alpha virt. eigenvalues --    3.43930   3.45914   3.46725   3.47240   3.47999
 Alpha virt. eigenvalues --    3.48172   3.49631   3.50462   3.51385   3.52483
 Alpha virt. eigenvalues --    3.53105   3.54219   3.54550   3.55616   3.57996
 Alpha virt. eigenvalues --    3.58541   3.64420   3.65309   3.67341   3.68020
 Alpha virt. eigenvalues --    3.68801   3.70045   3.73249   3.74119   3.75416
 Alpha virt. eigenvalues --    3.75928   3.76445   3.83124   3.85331   3.87440
 Alpha virt. eigenvalues --    3.88791   3.90157   3.91358   3.91678   3.91930
 Alpha virt. eigenvalues --    3.93596   3.93783   3.94479   3.94808   3.95653
 Alpha virt. eigenvalues --    3.96789   3.97415   3.98365   3.98725   3.99786
 Alpha virt. eigenvalues --    4.01654   4.01832   4.03603   4.04055   4.06577
 Alpha virt. eigenvalues --    4.08985   4.10594   4.12878   4.14484   4.14830
 Alpha virt. eigenvalues --    4.15062   4.16139   4.18468   4.18973   4.21389
 Alpha virt. eigenvalues --    4.22460   4.22871   4.25100   4.26640   4.27009
 Alpha virt. eigenvalues --    4.27834   4.28132   4.28821   4.29487   4.34981
 Alpha virt. eigenvalues --    4.35949   4.39881   4.41668   4.42071   4.45671
 Alpha virt. eigenvalues --    4.46692   4.49652   4.50530   4.53698   4.56200
 Alpha virt. eigenvalues --    4.59698   4.77954   4.79901   4.94479   4.95794
 Alpha virt. eigenvalues --    5.24078   5.26813   5.41117   5.43250   5.43602
 Alpha virt. eigenvalues --    5.46661   5.47347   5.58991   5.61615   5.63254
 Alpha virt. eigenvalues --    5.68078   5.70174   5.70912   5.73424   5.79267
 Alpha virt. eigenvalues --    5.80942   5.83522   5.88954   7.60735  14.30677
 Alpha virt. eigenvalues --   14.36324  14.42295  14.97555  23.79904  23.84325
 Alpha virt. eigenvalues --   23.95104  23.98213  24.02815  24.03370  24.03752
 Alpha virt. eigenvalues --   24.04562  24.07009  24.10487  24.11106  24.11894
 Alpha virt. eigenvalues --   24.12089  24.12695  24.13371  24.14257  24.14574
 Alpha virt. eigenvalues --   24.15012  24.15684  24.16762  24.19678  24.19906
 Alpha virt. eigenvalues --   24.20510  24.21581  24.22161  24.22953  24.23695
 Alpha virt. eigenvalues --   24.25912  24.31465  24.32024  24.43551  35.66891
 Alpha virt. eigenvalues --   50.08312  50.15264  50.16365  50.18815  50.26110
 Alpha virt. eigenvalues --   50.27919 163.86266
          Condensed to atoms (all electrons):
 Mulliken charges:
               1
     1  C    0.047695
     2  C    0.335747
     3  H   -0.458155
     4  C   -0.489281
     5  H    0.190447
     6  H    0.196050
     7  H    0.145535
     8  C   -0.814194
     9  H    0.134463
    10  H    0.187626
    11  H    0.186068
    12  B    0.719416
    13  C   -0.698870
    14  H    0.170005
    15  H   -0.092594
    16  H    0.227027
    17  O    0.027533
    18  O   -0.037280
    19  C   -0.112387
    20  C   -0.242940
    21  C   -0.382711
    22  H   -0.032668
    23  H    0.214177
    24  H    0.208624
    25  C   -0.802103
    26  H    0.188239
    27  H    0.191499
    28  H    0.182862
    29  C   -1.113026
    30  H    0.081151
    31  H    0.291114
    32  H    0.233786
    33  C   -0.201129
    34  H    0.202947
    35  H    0.214499
    36  H    0.164790
    37  P    0.281240
    38  O   -0.132952
    39  O    0.260593
    40  N   -0.546400
    41  H    0.354222
    42  H    0.333956
    43  Li  -0.348368
    44  C   -0.486543
    45  O    0.240454
    46  C    0.072001
    47  C   -0.656242
    48  C   -0.399753
    49  H    0.142262
    50  H    0.108507
    51  H   -0.010941
    52  H    0.229832
    53  H    0.263563
    54  H    0.226910
    55  H    0.213688
    56  H    0.250746
    57  C    0.046105
    58  O    0.135629
    59  C   -0.130614
    60  C   -0.476327
    61  C   -0.629406
    62  H    0.219379
    63  H    0.105461
    64  H    0.096208
    65  H    0.240962
    66  H    0.182221
    67  H    0.253124
    68  H    0.214076
    69  H    0.231213
    70  C   -0.227665
    71  C    0.503041
    72  C   -0.015891
    73  C   -0.014537
    74  H   -0.265671
    75  C   -0.515590
    76  H    0.328339
    77  C   -0.654691
    78  H    0.330097
    79  H    0.281315
    80  H    0.287423
    81  C   -0.560259
    82  C   -0.018215
    83  C    0.289910
    84  C   -0.345178
    85  H    0.271995
    86  C   -0.461716
    87  H    0.363355
    88  C   -0.589769
    89  H    0.300497
    90  H    0.296026
    91  H    0.268419
 Sum of Mulliken charges =  -0.00000
 Mulliken charges with hydrogens summed into heavy atoms:
               1
     1  C    0.047695
     2  C   -0.122407
     4  C    0.042751
     8  C   -0.306038
    12  B    0.719416
    13  C   -0.394432
    17  O    0.027533
    18  O   -0.037280
    19  C   -0.112387
    20  C   -0.242940
    21  C    0.007422
    25  C   -0.239503
    29  C   -0.506975
    33  C    0.381107
    37  P    0.281240
    38  O   -0.132952
    39  O    0.260593
    40  N    0.141778
    43  Li  -0.348368
    44  C   -0.235774
    45  O    0.240454
    46  C    0.290892
    47  C   -0.165769
    48  C    0.064681
    57  C    0.370945
    58  O    0.135629
    59  C    0.206556
    60  C   -0.040982
    61  C   -0.184117
    70  C   -0.227665
    71  C    0.237370
    72  C    0.312448
    73  C    0.315560
    75  C   -0.234275
    77  C   -0.367268
    81  C   -0.560259
    82  C    0.253780
    83  C    0.653265
    84  C   -0.044681
    86  C   -0.165690
    88  C   -0.321350
 Electronic spatial extent (au):  <R**2>=          19453.8421
 Charge=             -0.0000 electrons
 Dipole moment (field-independent basis, Debye):
    X=             10.5663    Y=              5.2154    Z=             -5.6216  Tot=             13.0556
 Quadrupole moment (field-independent basis, Debye-Ang):
   XX=           -278.8108   YY=           -239.5500   ZZ=           -233.3127
   XY=             11.4371   XZ=             34.4999   YZ=            -10.7968
 Traceless Quadrupole moment (field-independent basis, Debye-Ang):
   XX=            -28.2530   YY=             11.0079   ZZ=             17.2451
   XY=             11.4371   XZ=             34.4999   YZ=            -10.7968
 Octapole moment (field-independent basis, Debye-Ang**2):
  XXX=            250.5545  YYY=             79.0364  ZZZ=           -134.0292  XYY=             50.2204
  XXY=             98.8155  XXZ=            -18.5474  XZZ=             75.3286  YZZ=             34.1480
  YYZ=            -41.0068  XYZ=            -56.6301
 Hexadecapole moment (field-independent basis, Debye-Ang**3):
 XXXX=         -12428.1913 YYYY=          -6128.3396 ZZZZ=          -7930.9011 XXXY=           -736.3770
 XXXZ=           1184.8119 YYYX=           -633.4659 YYYZ=            347.7619 ZZZX=            842.7023
 ZZZY=            288.7510 XXYY=          -3032.3649 XXZZ=          -3324.5139 YYZZ=          -2464.6988
 XXYZ=            -16.7770 YYXZ=            172.7204 ZZXY=           -228.8743
 N-N= 5.746904622514D+03 E-N=-1.638595050765D+04  KE= 2.083047579663D+03
 Unable to Open any file for archive entry.
 1\1\GINC-NODE10\SP\RwB97XD\6-311++G(d,p)\C31H50B1Li1N1O6P1\WHUGHES2\08
 -Oct-2025\0\\# wb97xd/6-311++g** nosymm int=ultrafine scrf=(smd,solven
 t=tetrahydrofuran)\\r1-phosphine-2thf-full-c9_tzpop-sp\\0,1\C,0,-2.960
 6,0.4974,2.6603\C,0,-1.879,0.5367,3.4559\H,0,-0.9871,0.0316,3.084\C,0,
 -1.6966,1.1878,4.8026\H,0,-1.4276,0.4486,5.5713\H,0,-0.8737,1.917,4.77
 27\H,0,-2.5888,1.7182,5.1511\C,0,-4.2711,1.1444,3.0623\H,0,-4.3925,1.2
 755,4.1446\H,0,-4.3781,2.1372,2.6012\H,0,-5.1165,0.543,2.7046\B,0,-2.9
 504,-0.2002,1.1808\C,0,-3.2396,0.9239,0.0223\H,0,-4.1307,1.5263,0.255\
 H,0,-2.4116,1.6358,-0.1062\H,0,-3.4273,0.4545,-0.9517\O,0,-1.6385,-0.9
 204,0.8539\O,0,-3.9505,-1.3132,1.1345\C,0,-3.3563,-2.4615,0.5753\C,0,-
 1.8575,-2.3247,0.9982\C,0,-3.5055,-2.445,-0.9573\H,0,-2.9215,-1.635,-1
 .4032\H,0,-3.1869,-3.3917,-1.4112\H,0,-4.5593,-2.2808,-1.2101\C,0,-4.0
 513,-3.7053,1.1253\H,0,-4.0942,-3.6848,2.2182\H,0,-5.0808,-3.7498,0.74
 98\H,0,-3.5381,-4.6231,0.8112\C,0,-0.8845,-3.1056,0.1213\H,0,-0.8882,-
 2.7544,-0.9123\H,0,0.1376,-2.9997,0.5006\H,0,-1.1432,-4.1717,0.127\C,0
 ,-1.6331,-2.7458,2.4564\H,0,-2.3645,-2.2847,3.1243\H,0,-1.6932,-3.8353
 ,2.5659\H,0,-0.6331,-2.431,2.7759\P,0,2.4156,-0.6115,-0.6926\O,0,1.010
 7,-0.9617,-1.0798\O,0,3.4817,-1.7094,-1.292\N,0,3.1668,-3.0779,-0.9923
 \H,0,3.2299,-3.1705,0.0244\H,0,2.1831,-3.2043,-1.241\Li,0,-0.6994,-0.0
 559,-0.6326\C,0,0.2421,2.7904,-1.1702\O,0,0.1569,1.7499,-0.1971\C,0,0.
 1124,2.4028,1.073\C,0,-0.7142,3.6812,0.8593\C,0,-0.7245,3.8678,-0.6766
 \H,0,1.2732,3.1688,-1.2013\H,0,-0.0068,2.3591,-2.1403\H,0,-0.3338,1.70
 85,1.7851\H,0,1.1408,2.6353,1.3848\H,0,-1.7289,3.5543,1.2477\H,0,-0.25
 89,4.531,1.3758\H,0,-1.7273,3.695,-1.0794\H,0,-0.403,4.8668,-0.9846\C,
 0,-1.0518,-0.9548,-3.4818\O,0,-1.2606,0.1388,-2.5851\C,0,-2.1022,1.057
 5,-3.2782\C,0,-3.1521,0.1762,-3.9486\C,0,-2.3684,-1.1174,-4.265\H,0,-0
 .2152,-0.7095,-4.1502\H,0,-0.7744,-1.8246,-2.8857\H,0,-2.502,1.7662,-2
 .5515\H,0,-1.5032,1.6029,-4.024\H,0,-3.9671,-0.0276,-3.2468\H,0,-3.575
 9,0.6476,-4.8396\H,0,-2.9194,-2.0033,-3.9377\H,0,-2.1694,-1.222,-5.335
 6\C,0,2.6835,-0.625,1.0884\C,0,1.583,-0.6308,1.9508\C,0,3.9853,-0.6534
 ,1.6077\C,0,1.7891,-0.6508,3.3292\H,0,0.5693,-0.6358,1.5535\C,0,4.1831
 ,-0.6712,2.9845\H,0,4.8424,-0.6628,0.9388\C,0,3.0837,-0.6673,3.8445\H,
 0,0.9363,-0.659,4.0021\H,0,5.1921,-0.6925,3.3858\H,0,3.2382,-0.6831,4.
 9198\C,0,3.0638,0.8932,-1.4361\C,0,3.7163,1.8779,-0.69\C,0,2.852,1.080
 1,-2.8077\C,0,4.1651,3.0393,-1.3163\H,0,3.8687,1.7537,0.3779\C,0,3.300
 7,2.2415,-3.4277\H,0,2.3295,0.3244,-3.3881\C,0,3.9587,3.2208,-2.6823\H
 ,0,4.6704,3.8039,-0.7334\H,0,3.1345,2.3845,-4.4916\H,0,4.307,4.1283,-3
 .1677\\Version=AS64L-G16RevC.01\HF=-2091.3861408\RMSD=4.643e-09\Dipole
 =4.1571118,2.0518973,-2.211705\Quadrupole=-21.0054029,8.1840805,12.821
 3224,8.5031919,25.6498573,-8.0271217\PG=C01 [X(C31H50B1Li1N1O6P1)]\\@
 The archive entry for this job was punched.


 BLESSED ARE THOSE WHO NOUGHT EXPECT,
 FOR THEY SHALL NOT BE DISAPPOINTED..  WALCOT - ODE TO PITT
 Job cpu time:       0 days  9 hours 34 minutes 33.8 seconds.
 Elapsed time:       0 days  2 hours 24 minutes 47.9 seconds.
 File lengths (MBytes):  RWF=   1337 Int=      0 D2E=      0 Chk=     95 Scr=      1
 Normal termination of Gaussian 16 at Wed Oct  8 19:05:14 2025.
