Job Start Time: Fri Sep 19 16:05:49 MDT 2025
SLURM Job ID: 766564
SLURM Job Name: r1-phosphine-2thf-full-tzpop
 Entering Gaussian System, Link 0=/opt/apps/Gaussian/G16C/g16/g16
 Initial command:
 /opt/apps/Gaussian/G16C/g16/l1.exe "/tmp/766564/Gau-1249061.inp" -scrdir="/tmp/766564/"
 Entering Link 1 = /opt/apps/Gaussian/G16C/g16/l1.exe PID=   1249062.
  
 Copyright (c) 1988-2019, Gaussian, Inc.  All Rights Reserved.
  
 This is part of the Gaussian(R) 16 program.  It is based on
 the Gaussian(R) 09 system (copyright 2009, Gaussian, Inc.),
 the Gaussian(R) 03 system (copyright 2003, Gaussian, Inc.),
 the Gaussian(R) 98 system (copyright 1998, Gaussian, Inc.),
 the Gaussian(R) 94 system (copyright 1995, Gaussian, Inc.),
 the Gaussian 92(TM) system (copyright 1992, Gaussian, Inc.),
 the Gaussian 90(TM) system (copyright 1990, Gaussian, Inc.),
 the Gaussian 88(TM) system (copyright 1988, Gaussian, Inc.),
 the Gaussian 86(TM) system (copyright 1986, Carnegie Mellon
 University), and the Gaussian 82(TM) system (copyright 1983,
 Carnegie Mellon University). Gaussian is a federally registered
 trademark of Gaussian, Inc.
  
 This software contains proprietary and confidential information,
 including trade secrets, belonging to Gaussian, Inc.
  
 This software is provided under written license and may be
 used, copied, transmitted, or stored only in accord with that
 written license.
  
 The following legend is applicable only to US Government
 contracts under FAR:
  
                    RESTRICTED RIGHTS LEGEND
  
 Use, reproduction and disclosure by the US Government is
 subject to restrictions as set forth in subparagraphs (a)
 and (c) of the Commercial Computer Software - Restricted
 Rights clause in FAR 52.227-19.
  
 Gaussian, Inc.
 340 Quinnipiac St., Bldg. 40, Wallingford CT 06492
  
  
 ---------------------------------------------------------------
 Warning -- This program may not be used in any manner that
 competes with the business of Gaussian, Inc. or will provide
 assistance to any competitor of Gaussian, Inc.  The licensee
 of this program is prohibited from giving any competitor of
 Gaussian, Inc. access to this program.  By using this program,
 the user acknowledges that Gaussian, Inc. is engaged in the
 business of creating and licensing software in the field of
 computational chemistry and represents and warrants to the
 licensee that it is not a competitor of Gaussian, Inc. and that
 it will not use this program in any manner prohibited above.
 ---------------------------------------------------------------
  

 Cite this work as:
 Gaussian 16, Revision C.01,
 M. J. Frisch, G. W. Trucks, H. B. Schlegel, G. E. Scuseria, 
 M. A. Robb, J. R. Cheeseman, G. Scalmani, V. Barone, 
 G. A. Petersson, H. Nakatsuji, X. Li, M. Caricato, A. V. Marenich, 
 J. Bloino, B. G. Janesko, R. Gomperts, B. Mennucci, H. P. Hratchian, 
 J. V. Ortiz, A. F. Izmaylov, J. L. Sonnenberg, D. Williams-Young, 
 F. Ding, F. Lipparini, F. Egidi, J. Goings, B. Peng, A. Petrone, 
 T. Henderson, D. Ranasinghe, V. G. Zakrzewski, J. Gao, N. Rega, 
 G. Zheng, W. Liang, M. Hada, M. Ehara, K. Toyota, R. Fukuda, 
 J. Hasegawa, M. Ishida, T. Nakajima, Y. Honda, O. Kitao, H. Nakai, 
 T. Vreven, K. Throssell, J. A. Montgomery, Jr., J. E. Peralta, 
 F. Ogliaro, M. J. Bearpark, J. J. Heyd, E. N. Brothers, K. N. Kudin, 
 V. N. Staroverov, T. A. Keith, R. Kobayashi, J. Normand, 
 K. Raghavachari, A. P. Rendell, J. C. Burant, S. S. Iyengar, 
 J. Tomasi, M. Cossi, J. M. Millam, M. Klene, C. Adamo, R. Cammi, 
 J. W. Ochterski, R. L. Martin, K. Morokuma, O. Farkas, 
 J. B. Foresman, and D. J. Fox, Gaussian, Inc., Wallingford CT, 2019.
 
 ******************************************
 Gaussian 16:  AS64L-G16RevC.01  3-Jul-2019
                19-Sep-2025 
 ******************************************
 %nproc=16
 Will use up to   16 processors via shared memory.
 %mem=32gb
 %chk=r1-phosphine-2thf-full-tzpop.chk
 ----------------------------------------------------------------------
 #p wb97xd/6-311++g** nosymm int=ultrafine scrf=(smd,solvent=tetrahydro
 furan)
 ----------------------------------------------------------------------
 1/38=1,172=1/1;
 2/12=2,15=1,17=6,18=5,40=1/2;
 3/5=4,6=6,7=1111,11=2,25=1,30=1,70=32201,72=20,74=-58,75=-5/1,2,3;
 4//1;
 5/5=2,38=5,53=20/2;
 6/7=2,8=2,9=2,10=2,28=1/1;
 99/5=1,9=1/99;
 Leave Link    1 at Fri Sep 19 16:05:49 2025, MaxMem=  4294967296 cpu:               0.0 elap:               0.0
 (Enter /opt/apps/Gaussian/G16C/g16/l101.exe)
 ----------------------------
 r1-phosphine-2thf-full-tzpop
 ----------------------------
 Symbolic Z-matrix:
 Charge =  0 Multiplicity = 1
 6                    -4.95894  -0.47463   0.80376 
 6                    -5.27231  -0.93493   2.02618 
 1                    -4.47886  -1.44067   2.5788 
 6                    -6.57548  -0.88559   2.7808 
 1                    -6.46373  -0.35126   3.73553 
 1                    -7.3823   -0.39919   2.22304 
 1                    -6.91235  -1.90164   3.03118 
 6                    -5.94919   0.26654  -0.06531 
 1                    -6.8942    0.51708   0.43201 
 1                    -5.50912   1.20345  -0.43434 
 1                    -6.1852   -0.32225  -0.96128 
 5                    -3.44503  -0.61721   0.19576 
 6                    -2.53499   0.66112   0.66759 
 1                    -2.39443   0.71103   1.75713 
 1                    -1.54051   0.6616    0.19765 
 1                    -3.01909   1.60785   0.37926 
 8                    -2.81089  -1.95623   0.63902 
 8                    -3.41325  -0.72183  -1.28666 
 6                    -3.22682  -2.0658   -1.65858 
 6                    -2.30373  -2.61946  -0.52393 
 6                    -2.5951   -2.11965  -3.04817 
 1                    -3.31206  -1.75691  -3.79437 
 1                    -1.70497  -1.48595  -3.10386 
 1                    -2.31428  -3.14486  -3.32074 
 6                    -4.58408  -2.79022  -1.70153 
 1                    -4.49854  -3.80727  -2.1033 
 1                    -5.04113  -2.84404  -0.70726 
 1                    -5.25948  -2.22552  -2.35399 
 6                    -0.83439  -2.22431  -0.71666 
 1                    -0.27568  -2.47531   0.19216 
 1                    -0.37408  -2.76259  -1.55332 
 1                    -0.734    -1.15055  -0.89724 
 6                    -2.36968  -4.13484  -0.35336 
 1                    -3.38958  -4.49586  -0.19971 
 1                    -1.97521  -4.63261  -1.24764 
 1                    -1.76012  -4.43904   0.5031 
 15                   -2.19611  -4.33152   3.72186 
 8                    -1.30631  -3.44498   2.90319 
 8                    -3.79279  -4.02034   3.60806 
 7                    -4.37422  -4.10132   2.29327 
 1                    -3.90924  -3.37224   1.73383 
 1                    -4.09456  -5.00935   1.91509 
 3                    -1.6452   -1.62281   2.18342 
 6                    -3.22872  -0.81179   4.88042 
 8                    -2.20868  -0.58358   3.90719 
 6                    -1.54358   0.59817   4.35081 
 6                    -1.36887   0.39452   5.85733 
 6                    -2.57061  -0.50597   6.23361 
 1                    -4.06489  -0.12706   4.68134 
 1                    -3.58336  -1.83659   4.77146 
 1                    -0.61567   0.69447   3.78755 
 1                    -2.18036   1.46977   4.13859 
 1                    -0.4227   -0.11629   6.0644 
 1                    -1.36478   1.34646   6.39556 
 1                    -2.23489  -1.42549   6.72069 
 1                    -3.2729   -0.0054    6.9062 
 6                     1.02089  -1.43376   3.36473 
 8                     0.2656   -1.00108   2.23082 
 6                     1.15674  -0.26616   1.39709 
 6                     1.9889    0.56501   2.37041 
 6                     2.06549  -0.33226   3.62605 
 1                     0.31341  -1.58259   4.18187 
 1                     1.49556  -2.39532   3.13033 
 1                     1.78368  -0.96689   0.82559 
 1                     0.55751   0.32412   0.70291 
 1                     2.97314   0.80949   1.96174 
 1                     1.47123   1.50301   2.59446 
 1                     3.06075  -0.76739   3.75377 
 1                     1.83052   0.23369   4.53231 
 6                    -1.96029  -4.15266   5.49826 
 6                    -2.99541  -4.35139   6.41862 
 6                    -0.67617  -3.82771   5.94867 
 6                    -2.74336  -4.21633   7.78147 
 1                    -3.99637  -4.59581   6.07681 
 6                    -0.42883  -3.6993    7.31294 
 1                     0.1279   -3.67286   5.23484 
 6                    -1.46248  -3.892     8.22865 
 1                    -3.54963  -4.36158   8.49457 
 1                     0.56878  -3.44466   7.65906 
 1                    -1.27063  -3.78735   9.29291 
 6                    -2.00909  -6.06214   3.24611 
 6                    -0.94596  -6.43615   2.41912 
 6                    -2.90795  -7.02875   3.71335 
 6                    -0.78419  -7.77217   2.05896 
 1                    -0.25252  -5.68297   2.05631 
 6                    -2.74481  -8.36149   3.34769 
 1                    -3.73671  -6.74289   4.35634 
 6                    -1.68289  -8.73247   2.52142 
 1                     0.04109  -8.06153   1.41481 
 1                    -3.44559  -9.1098    3.70617 
 1                    -1.55705  -9.77351   2.23722 
 
 ITRead=  0  0  0  0  0  0  0  0  0  0  0  0  0  0  0  0  0  0  0  0
 ITRead=  0  0  0  0  0  0  0  0  0  0  0  0  0  0  0  0  0  0  0  0
 ITRead=  0  0  0  0  0  0  0  0  0  0  0  0  0  0  0  0  0  0  0  0
 ITRead=  0  0  0  0  0  0  0  0  0  0  0  0  0  0  0  0  0  0  0  0
 ITRead=  0  0  0  0  0  0  0  0  0  0  0
 MicOpt= -1 -1 -1 -1 -1 -1 -1 -1 -1 -1 -1 -1 -1 -1 -1 -1 -1 -1 -1 -1
 MicOpt= -1 -1 -1 -1 -1 -1 -1 -1 -1 -1 -1 -1 -1 -1 -1 -1 -1 -1 -1 -1
 MicOpt= -1 -1 -1 -1 -1 -1 -1 -1 -1 -1 -1 -1 -1 -1 -1 -1 -1 -1 -1 -1
 MicOpt= -1 -1 -1 -1 -1 -1 -1 -1 -1 -1 -1 -1 -1 -1 -1 -1 -1 -1 -1 -1
 MicOpt= -1 -1 -1 -1 -1 -1 -1 -1 -1 -1 -1
 NAtoms=     91 NQM=       91 NQMF=       0 NMMI=      0 NMMIF=      0
                NMic=       0 NMicF=      0.
                    Isotopes and Nuclear Properties:
 (Nuclear quadrupole moments (NQMom) in fm**2, nuclear magnetic moments (NMagM)
  in nuclear magnetons)

  Atom         1           2           3           4           5           6           7           8           9          10
 IAtWgt=          12          12           1          12           1           1           1          12           1           1
 AtmWgt=  12.0000000  12.0000000   1.0078250  12.0000000   1.0078250   1.0078250   1.0078250  12.0000000   1.0078250   1.0078250
 NucSpn=           0           0           1           0           1           1           1           0           1           1
 AtZEff=  -0.0000000  -0.0000000  -0.0000000  -0.0000000  -0.0000000  -0.0000000  -0.0000000  -0.0000000  -0.0000000  -0.0000000
 NQMom=    0.0000000   0.0000000   0.0000000   0.0000000   0.0000000   0.0000000   0.0000000   0.0000000   0.0000000   0.0000000
 NMagM=    0.0000000   0.0000000   2.7928460   0.0000000   2.7928460   2.7928460   2.7928460   0.0000000   2.7928460   2.7928460
 AtZNuc=   6.0000000   6.0000000   1.0000000   6.0000000   1.0000000   1.0000000   1.0000000   6.0000000   1.0000000   1.0000000

  Atom        11          12          13          14          15          16          17          18          19          20
 IAtWgt=           1          11          12           1           1           1          16          16          12          12
 AtmWgt=   1.0078250  11.0093053  12.0000000   1.0078250   1.0078250   1.0078250  15.9949146  15.9949146  12.0000000  12.0000000
 NucSpn=           1           3           0           1           1           1           0           0           0           0
 AtZEff=  -0.0000000  -0.0000000  -0.0000000  -0.0000000  -0.0000000  -0.0000000  -0.0000000  -0.0000000  -0.0000000  -0.0000000
 NQMom=    0.0000000   4.0590000   0.0000000   0.0000000   0.0000000   0.0000000   0.0000000   0.0000000   0.0000000   0.0000000
 NMagM=    2.7928460   2.6886370   0.0000000   2.7928460   2.7928460   2.7928460   0.0000000   0.0000000   0.0000000   0.0000000
 AtZNuc=   1.0000000   5.0000000   6.0000000   1.0000000   1.0000000   1.0000000   8.0000000   8.0000000   6.0000000   6.0000000

  Atom        21          22          23          24          25          26          27          28          29          30
 IAtWgt=          12           1           1           1          12           1           1           1          12           1
 AtmWgt=  12.0000000   1.0078250   1.0078250   1.0078250  12.0000000   1.0078250   1.0078250   1.0078250  12.0000000   1.0078250
 NucSpn=           0           1           1           1           0           1           1           1           0           1
 AtZEff=  -0.0000000  -0.0000000  -0.0000000  -0.0000000  -0.0000000  -0.0000000  -0.0000000  -0.0000000  -0.0000000  -0.0000000
 NQMom=    0.0000000   0.0000000   0.0000000   0.0000000   0.0000000   0.0000000   0.0000000   0.0000000   0.0000000   0.0000000
 NMagM=    0.0000000   2.7928460   2.7928460   2.7928460   0.0000000   2.7928460   2.7928460   2.7928460   0.0000000   2.7928460
 AtZNuc=   6.0000000   1.0000000   1.0000000   1.0000000   6.0000000   1.0000000   1.0000000   1.0000000   6.0000000   1.0000000

  Atom        31          32          33          34          35          36          37          38          39          40
 IAtWgt=           1           1          12           1           1           1          31          16          16          14
 AtmWgt=   1.0078250   1.0078250  12.0000000   1.0078250   1.0078250   1.0078250  30.9737634  15.9949146  15.9949146  14.0030740
 NucSpn=           1           1           0           1           1           1           1           0           0           2
 AtZEff=  -0.0000000  -0.0000000  -0.0000000  -0.0000000  -0.0000000  -0.0000000  -0.0000000  -0.0000000  -0.0000000  -0.0000000
 NQMom=    0.0000000   0.0000000   0.0000000   0.0000000   0.0000000   0.0000000   0.0000000   0.0000000   0.0000000   2.0440000
 NMagM=    2.7928460   2.7928460   0.0000000   2.7928460   2.7928460   2.7928460   1.1316000   0.0000000   0.0000000   0.4037610
 AtZNuc=   1.0000000   1.0000000   6.0000000   1.0000000   1.0000000   1.0000000  15.0000000   8.0000000   8.0000000   7.0000000

  Atom        41          42          43          44          45          46          47          48          49          50
 IAtWgt=           1           1           7          12          16          12          12          12           1           1
 AtmWgt=   1.0078250   1.0078250   7.0160045  12.0000000  15.9949146  12.0000000  12.0000000  12.0000000   1.0078250   1.0078250
 NucSpn=           1           1           3           0           0           0           0           0           1           1
 AtZEff=  -0.0000000  -0.0000000  -0.0000000  -0.0000000  -0.0000000  -0.0000000  -0.0000000  -0.0000000  -0.0000000  -0.0000000
 NQMom=    0.0000000   0.0000000  -4.0100000   0.0000000   0.0000000   0.0000000   0.0000000   0.0000000   0.0000000   0.0000000
 NMagM=    2.7928460   2.7928460   3.2564240   0.0000000   0.0000000   0.0000000   0.0000000   0.0000000   2.7928460   2.7928460
 AtZNuc=   1.0000000   1.0000000   3.0000000   6.0000000   8.0000000   6.0000000   6.0000000   6.0000000   1.0000000   1.0000000

  Atom        51          52          53          54          55          56          57          58          59          60
 IAtWgt=           1           1           1           1           1           1          12          16          12          12
 AtmWgt=   1.0078250   1.0078250   1.0078250   1.0078250   1.0078250   1.0078250  12.0000000  15.9949146  12.0000000  12.0000000
 NucSpn=           1           1           1           1           1           1           0           0           0           0
 AtZEff=  -0.0000000  -0.0000000  -0.0000000  -0.0000000  -0.0000000  -0.0000000  -0.0000000  -0.0000000  -0.0000000  -0.0000000
 NQMom=    0.0000000   0.0000000   0.0000000   0.0000000   0.0000000   0.0000000   0.0000000   0.0000000   0.0000000   0.0000000
 NMagM=    2.7928460   2.7928460   2.7928460   2.7928460   2.7928460   2.7928460   0.0000000   0.0000000   0.0000000   0.0000000
 AtZNuc=   1.0000000   1.0000000   1.0000000   1.0000000   1.0000000   1.0000000   6.0000000   8.0000000   6.0000000   6.0000000

  Atom        61          62          63          64          65          66          67          68          69          70
 IAtWgt=          12           1           1           1           1           1           1           1           1          12
 AtmWgt=  12.0000000   1.0078250   1.0078250   1.0078250   1.0078250   1.0078250   1.0078250   1.0078250   1.0078250  12.0000000
 NucSpn=           0           1           1           1           1           1           1           1           1           0
 AtZEff=  -0.0000000  -0.0000000  -0.0000000  -0.0000000  -0.0000000  -0.0000000  -0.0000000  -0.0000000  -0.0000000  -0.0000000
 NQMom=    0.0000000   0.0000000   0.0000000   0.0000000   0.0000000   0.0000000   0.0000000   0.0000000   0.0000000   0.0000000
 NMagM=    0.0000000   2.7928460   2.7928460   2.7928460   2.7928460   2.7928460   2.7928460   2.7928460   2.7928460   0.0000000
 AtZNuc=   6.0000000   1.0000000   1.0000000   1.0000000   1.0000000   1.0000000   1.0000000   1.0000000   1.0000000   6.0000000

  Atom        71          72          73          74          75          76          77          78          79          80
 IAtWgt=          12          12          12           1          12           1          12           1           1           1
 AtmWgt=  12.0000000  12.0000000  12.0000000   1.0078250  12.0000000   1.0078250  12.0000000   1.0078250   1.0078250   1.0078250
 NucSpn=           0           0           0           1           0           1           0           1           1           1
 AtZEff=  -0.0000000  -0.0000000  -0.0000000  -0.0000000  -0.0000000  -0.0000000  -0.0000000  -0.0000000  -0.0000000  -0.0000000
 NQMom=    0.0000000   0.0000000   0.0000000   0.0000000   0.0000000   0.0000000   0.0000000   0.0000000   0.0000000   0.0000000
 NMagM=    0.0000000   0.0000000   0.0000000   2.7928460   0.0000000   2.7928460   0.0000000   2.7928460   2.7928460   2.7928460
 AtZNuc=   6.0000000   6.0000000   6.0000000   1.0000000   6.0000000   1.0000000   6.0000000   1.0000000   1.0000000   1.0000000

  Atom        81          82          83          84          85          86          87          88          89          90
 IAtWgt=          12          12          12          12           1          12           1          12           1           1
 AtmWgt=  12.0000000  12.0000000  12.0000000  12.0000000   1.0078250  12.0000000   1.0078250  12.0000000   1.0078250   1.0078250
 NucSpn=           0           0           0           0           1           0           1           0           1           1
 AtZEff=  -0.0000000  -0.0000000  -0.0000000  -0.0000000  -0.0000000  -0.0000000  -0.0000000  -0.0000000  -0.0000000  -0.0000000
 NQMom=    0.0000000   0.0000000   0.0000000   0.0000000   0.0000000   0.0000000   0.0000000   0.0000000   0.0000000   0.0000000
 NMagM=    0.0000000   0.0000000   0.0000000   0.0000000   2.7928460   0.0000000   2.7928460   0.0000000   2.7928460   2.7928460
 AtZNuc=   6.0000000   6.0000000   6.0000000   6.0000000   1.0000000   6.0000000   1.0000000   6.0000000   1.0000000   1.0000000

  Atom        91
 IAtWgt=           1
 AtmWgt=   1.0078250
 NucSpn=           1
 AtZEff=  -0.0000000
 NQMom=    0.0000000
 NMagM=    2.7928460
 AtZNuc=   1.0000000
 Leave Link  101 at Fri Sep 19 16:05:49 2025, MaxMem=  4294967296 cpu:               0.1 elap:               0.1
 (Enter /opt/apps/Gaussian/G16C/g16/l202.exe)
 Symmetry turned off by external request.
 Stoichiometry    C31H50BLiNO6P
 Framework group  C1[X(C31H50BLiNO6P)]
 Deg. of freedom   267
 Full point group                 C1      NOp   1
                          Input orientation:                          
 ---------------------------------------------------------------------
 Center     Atomic      Atomic             Coordinates (Angstroms)
 Number     Number       Type             X           Y           Z
 ---------------------------------------------------------------------
      1          6           0       -4.958935   -0.474625    0.803756
      2          6           0       -5.272313   -0.934929    2.026184
      3          1           0       -4.478859   -1.440665    2.578800
      4          6           0       -6.575479   -0.885592    2.780802
      5          1           0       -6.463735   -0.351261    3.735529
      6          1           0       -7.382301   -0.399189    2.223042
      7          1           0       -6.912352   -1.901641    3.031177
      8          6           0       -5.949186    0.266541   -0.065308
      9          1           0       -6.894201    0.517079    0.432013
     10          1           0       -5.509121    1.203451   -0.434342
     11          1           0       -6.185195   -0.322245   -0.961279
     12          5           0       -3.445032   -0.617205    0.195759
     13          6           0       -2.534992    0.661115    0.667591
     14          1           0       -2.394431    0.711030    1.757134
     15          1           0       -1.540505    0.661603    0.197652
     16          1           0       -3.019092    1.607845    0.379261
     17          8           0       -2.810888   -1.956232    0.639016
     18          8           0       -3.413251   -0.721825   -1.286658
     19          6           0       -3.226823   -2.065800   -1.658580
     20          6           0       -2.303730   -2.619460   -0.523926
     21          6           0       -2.595101   -2.119652   -3.048167
     22          1           0       -3.312063   -1.756913   -3.794365
     23          1           0       -1.704971   -1.485946   -3.103855
     24          1           0       -2.314283   -3.144858   -3.320738
     25          6           0       -4.584085   -2.790220   -1.701529
     26          1           0       -4.498543   -3.807265   -2.103303
     27          1           0       -5.041127   -2.844043   -0.707260
     28          1           0       -5.259475   -2.225521   -2.353985
     29          6           0       -0.834393   -2.224314   -0.716664
     30          1           0       -0.275677   -2.475306    0.192159
     31          1           0       -0.374075   -2.762589   -1.553319
     32          1           0       -0.733997   -1.150548   -0.897244
     33          6           0       -2.369680   -4.134840   -0.353363
     34          1           0       -3.389583   -4.495863   -0.199705
     35          1           0       -1.975206   -4.632609   -1.247638
     36          1           0       -1.760119   -4.439041    0.503104
     37         15           0       -2.196108   -4.331520    3.721856
     38          8           0       -1.306310   -3.444976    2.903193
     39          8           0       -3.792789   -4.020342    3.608064
     40          7           0       -4.374220   -4.101323    2.293269
     41          1           0       -3.909243   -3.372243    1.733830
     42          1           0       -4.094559   -5.009347    1.915085
     43          3           0       -1.645200   -1.622813    2.183420
     44          6           0       -3.228720   -0.811794    4.880419
     45          8           0       -2.208682   -0.583577    3.907187
     46          6           0       -1.543582    0.598170    4.350812
     47          6           0       -1.368870    0.394516    5.857328
     48          6           0       -2.570610   -0.505969    6.233609
     49          1           0       -4.064894   -0.127062    4.681336
     50          1           0       -3.583360   -1.836593    4.771462
     51          1           0       -0.615669    0.694469    3.787550
     52          1           0       -2.180364    1.469768    4.138593
     53          1           0       -0.422696   -0.116289    6.064396
     54          1           0       -1.364776    1.346456    6.395562
     55          1           0       -2.234889   -1.425489    6.720694
     56          1           0       -3.272899   -0.005403    6.906200
     57          6           0        1.020886   -1.433761    3.364730
     58          8           0        0.265598   -1.001084    2.230821
     59          6           0        1.156735   -0.266157    1.397094
     60          6           0        1.988900    0.565009    2.370408
     61          6           0        2.065492   -0.332263    3.626046
     62          1           0        0.313412   -1.582587    4.181867
     63          1           0        1.495563   -2.395322    3.130327
     64          1           0        1.783676   -0.966885    0.825594
     65          1           0        0.557509    0.324122    0.702905
     66          1           0        2.973142    0.809487    1.961739
     67          1           0        1.471233    1.503009    2.594457
     68          1           0        3.060752   -0.767392    3.753769
     69          1           0        1.830524    0.233694    4.532306
     70          6           0       -1.960290   -4.152664    5.498255
     71          6           0       -2.995405   -4.351392    6.418622
     72          6           0       -0.676171   -3.827706    5.948665
     73          6           0       -2.743360   -4.216326    7.781472
     74          1           0       -3.996367   -4.595808    6.076809
     75          6           0       -0.428834   -3.699300    7.312938
     76          1           0        0.127897   -3.672860    5.234836
     77          6           0       -1.462477   -3.892000    8.228653
     78          1           0       -3.549628   -4.361582    8.494571
     79          1           0        0.568775   -3.444657    7.659056
     80          1           0       -1.270628   -3.787354    9.292914
     81          6           0       -2.009091   -6.062139    3.246107
     82          6           0       -0.945958   -6.436148    2.419116
     83          6           0       -2.907950   -7.028750    3.713346
     84          6           0       -0.784194   -7.772173    2.058961
     85          1           0       -0.252524   -5.682969    2.056309
     86          6           0       -2.744806   -8.361490    3.347691
     87          1           0       -3.736710   -6.742889    4.356336
     88          6           0       -1.682885   -8.732465    2.521418
     89          1           0        0.041092   -8.061526    1.414806
     90          1           0       -3.445588   -9.109795    3.706173
     91          1           0       -1.557047   -9.773512    2.237223
 ---------------------------------------------------------------------
 Rotational constants (GHZ):           0.0974017           0.0758797           0.0633267
 Leave Link  202 at Fri Sep 19 16:05:49 2025, MaxMem=  4294967296 cpu:               0.0 elap:               0.0
 (Enter /opt/apps/Gaussian/G16C/g16/l301.exe)
 Standard basis: 6-311++G(d,p) (5D, 7F)
 Ernie: Thresh=  0.10000D-02 Tol=  0.10000D-05 Strict=F.
  1260 basis functions,  1940 primitive gaussians,  1301 cartesian basis functions
   157 alpha electrons      157 beta electrons
       nuclear repulsion energy      5691.1735438096 Hartrees.
 IExCor= 4639 DFT=T Ex+Corr=wB97XD ExCW=0 ScaHFX=  1.000000
 ScaDFX=  1.000000  1.000000  1.000000  1.000000 ScalE2=  1.000000  1.000000
 IRadAn=      5 IRanWt=     -1 IRanGd=            0 ICorTp=0 IEmpDi=121
 HFx  wShort=  0.000000 wLong=  0.200000 cFull=  0.222036 cShort=  0.000000 cLong=  0.777964
 DFx  wShort=  0.000000 wLong=  0.200000 cFull=  0.000000 cShort=  0.000000 cLong=  1.000000
 NAtoms=   91 NActive=   91 NUniq=   91 SFac= 1.00D+00 NAtFMM=   60 NAOKFM=T Big=T
 Integral buffers will be    131072 words long.
 Raffenetti 2 integral format.
 Two-electron integral symmetry is turned off.
 R6Disp:  Grimme-D2 Dispersion energy=       -0.1157637842 Hartrees.
 Nuclear repulsion after empirical dispersion term =     5691.0577800254 Hartrees.
 ------------------------------------------------------------------------------
 Polarizable Continuum Model (PCM)
 =================================
 Model                : PCM.
 Atomic radii         : SMD-Coulomb.
 Polarization charges : Total charges.
 Charge compensation  : None.
 Solution method      : On-the-fly selection.
 Cavity type          : VdW (van der Waals Surface) (Alpha=1.000).
 Cavity algorithm     : GePol (No added spheres)
                        Default sphere list used, NSphG=   91.
                        Lebedev-Laikov grids with approx.  5.0 points / Ang**2.
                        Smoothing algorithm: York/Karplus (Gamma=1.0000).
                        Polarization charges: spherical gaussians, with
                                              point-specific exponents (IZeta= 3).
                        Self-potential: point-specific (ISelfS= 7).
                        Self-field    : sphere-specific E.n sum rule (ISelfD= 2).
 Solvent              : TetraHydroFuran, Eps=   7.425700 Eps(inf)=   1.974025
 ------------------------------------------------------------------------------
 GePol: Number of generator spheres                  =      91
 GePol: Total number of spheres                      =      91
 GePol: Number of exposed spheres                    =      90 ( 98.90%)
 GePol: Number of points                             =    5510
 GePol: Average weight of points                     =       0.11
 GePol: Minimum weight of points                     =   0.51D-11
 GePol: Maximum weight of points                     =    0.19445
 GePol: Number of points with low weight             =     353
 GePol: Fraction of low-weight points (<1% of avg)   =       6.41%
 GePol: Cavity surface area                          =    590.834 Ang**2
 GePol: Cavity volume                                =    659.861 Ang**3
 ------------------------------------------------------------------------------
 Atomic radii for non-electrostatic terms: SMD-CDS.
 ------------------------------------------------------------------------------
 PCM non-electrostatic energy =        -0.0079744359 Hartrees.
 Nuclear repulsion after PCM non-electrostatic terms =     5691.0498055894 Hartrees.
 Leave Link  301 at Fri Sep 19 16:05:49 2025, MaxMem=  4294967296 cpu:               0.1 elap:               0.1
 (Enter /opt/apps/Gaussian/G16C/g16/l302.exe)
 NPDir=0 NMtPBC=     1 NCelOv=     1 NCel=       1 NClECP=     1 NCelD=      1
         NCelK=      1 NCelE2=     1 NClLst=     1 CellRange=     0.0.
 One-electron integrals computed using PRISM.
 NBasis=  1260 RedAO= T EigKep=  1.03D-06  NBF=  1260
 NBsUse=  1251 1.00D-06 EigRej=  8.53D-07 NBFU=  1251
 Precomputing XC quadrature grid using
 IXCGrd= 4 IRadAn=           5 IRanWt=          -1 IRanGd=           0 AccXCQ= 0.00D+00.
 Generated NRdTot=       0 NPtTot=           0 NUsed=           0 NTot=          32
 NSgBfM=  1255  1250  1250  1252  1255 MxSgAt=    91 MxSgA2=    91.
 Leave Link  302 at Fri Sep 19 16:05:53 2025, MaxMem=  4294967296 cpu:              23.2 elap:               3.4
 (Enter /opt/apps/Gaussian/G16C/g16/l303.exe)
 DipDrv:  MaxL=1.
 Leave Link  303 at Fri Sep 19 16:05:53 2025, MaxMem=  4294967296 cpu:               0.3 elap:               0.2
 (Enter /opt/apps/Gaussian/G16C/g16/l401.exe)
 ExpMin= 7.40D-03 ExpMax= 7.75D+04 ExpMxC= 2.65D+03 IAcc=3 IRadAn=         5 AccDes= 0.00D+00
 Harris functional with IExCor= 4639 and IRadAn=       5 diagonalized for initial guess.
 HarFok:  IExCor= 4639 AccDes= 0.00D+00 IRadAn=         5 IDoV= 1 UseB2=F ITyADJ=14
 ICtDFT=  3500011 ScaDFX=  1.000000  1.000000  1.000000  1.000000
 FoFCou: FMM=F IPFlag=           0 FMFlag=      100000 FMFlg1=        2001
         NFxFlg=           0 DoJE=T BraDBF=F KetDBF=T FulRan=T
         wScrn=  0.000000 ICntrl=       500 IOpCl=  0 I1Cent=   200000004 NGrid=           0
         NMat0=    1 NMatS0=      1 NMatT0=    0 NMatD0=    1 NMtDS0=    0 NMtDT0=    0
 Symmetry not used in FoFCou.
 Harris En= -2007.31176254197    
 JPrj=0 DoOrth=F DoCkMO=F.
 Leave Link  401 at Fri Sep 19 16:06:08 2025, MaxMem=  4294967296 cpu:             223.6 elap:              15.2
 (Enter /opt/apps/Gaussian/G16C/g16/l502.exe)
 Two-electron integral symmetry not used.
 Closed shell SCF:
 Using DIIS extrapolation, IDIIS=  1040.
 NGot=  4294967296 LenX=  4291549693 LenY=  4289855791
 Requested convergence on RMS density matrix=1.00D-08 within 128 cycles.
 Requested convergence on MAX density matrix=1.00D-06.
 Requested convergence on             energy=1.00D-06.
 No special actions if energy rises.
 Fock matrices will be formed incrementally for  20 cycles.

 Cycle   1  Pass 1  IDiag  1:
 FoFJK:  IHMeth= 1 ICntrl=       0 DoSepK=T KAlg= 0 I1Cent=           0 FoldK=F
 IRaf=         1 NMat=       1 IRICut=       1 DoRegI=T DoRafI=F ISym2E= 0 IDoP0=0 IntGTp=1.
 FoFCou: FMM=T IPFlag=           0 FMFlag=      100000 FMFlg1=        2001
         NFxFlg=           0 DoJE=T BraDBF=F KetDBF=F FulRan=T
         wScrn=  0.000000 ICntrl=       500 IOpCl=  0 I1Cent=           0 NGrid=           0
         NMat0=    1 NMatS0=      1 NMatT0=    0 NMatD0=    1 NMtDS0=    0 NMtDT0=    0
 Symmetry not used in FoFCou.
 FMM levels:  10  Number of levels for PrismC:   9
 Inv3:  Mode=1 IEnd=    91080300.
 Iteration    1 A*A^-1 deviation from unit magnitude is 9.21D-15 for   5489.
 Iteration    1 A*A^-1 deviation from orthogonality  is 1.99D-15 for   3451   2578.
 Iteration    1 A^-1*A deviation from unit magnitude is 9.21D-15 for   5489.
 Iteration    1 A^-1*A deviation from orthogonality  is 9.37D-14 for   4587   4518.
 E= -2090.67714466889    
 DIIS: error= 4.89D-02 at cycle   1 NSaved=   1.
 NSaved= 1 IEnMin= 1 EnMin= -2090.67714466889     IErMin= 1 ErrMin= 4.89D-02
 ErrMax= 4.89D-02  0.00D+00 EMaxC= 1.00D-01 BMatC= 4.77D+00 BMatP= 4.77D+00
 IDIUse=3 WtCom= 5.11D-01 WtEn= 4.89D-01
 Coeff-Com:  0.100D+01
 Coeff-En:   0.100D+01
 Coeff:      0.100D+01
 Gap=     0.452 Goal=   None    Shift=    0.000
 GapD=    0.452 DampG=2.000 DampE=0.500 DampFc=1.0000 IDamp=-1.
 RMSDP=2.16D-02 MaxDP=3.50D+00              OVMax= 9.09D-02

 Cycle   2  Pass 1  IDiag  1:
 RMSU=  2.02D-02    CP:  8.59D-01
 E= -2091.02681198582     Delta-E=       -0.349667316926 Rises=F Damp=F
 DIIS: error= 1.28D-02 at cycle   2 NSaved=   2.
 NSaved= 2 IEnMin= 2 EnMin= -2091.02681198582     IErMin= 2 ErrMin= 1.28D-02
 ErrMax= 1.28D-02  0.00D+00 EMaxC= 1.00D-01 BMatC= 5.89D-01 BMatP= 4.77D+00
 IDIUse=3 WtCom= 8.72D-01 WtEn= 1.28D-01
 Coeff-Com:  0.201D+00 0.799D+00
 Coeff-En:   0.252D+00 0.748D+00
 Coeff:      0.208D+00 0.792D+00
 Gap=     0.404 Goal=   None    Shift=    0.000
 RMSDP=1.89D-02 MaxDP=5.00D+00 DE=-3.50D-01 OVMax= 1.14D-01

 Cycle   3  Pass 1  IDiag  1:
 RMSU=  8.75D-03    CP:  6.97D-01  2.89D-01
 E= -2091.19777127278     Delta-E=       -0.170959286962 Rises=F Damp=F
 DIIS: error= 1.14D-02 at cycle   3 NSaved=   3.
 NSaved= 3 IEnMin= 3 EnMin= -2091.19777127278     IErMin= 3 ErrMin= 1.14D-02
 ErrMax= 1.14D-02  0.00D+00 EMaxC= 1.00D-01 BMatC= 2.67D-01 BMatP= 5.89D-01
 IDIUse=3 WtCom= 8.86D-01 WtEn= 1.14D-01
 Coeff-Com:  0.392D-01 0.409D+00 0.551D+00
 Coeff-En:   0.000D+00 0.344D+00 0.656D+00
 Coeff:      0.347D-01 0.402D+00 0.563D+00
 Gap=     0.298 Goal=   None    Shift=    0.000
 RMSDP=6.86D-03 MaxDP=9.12D-01 DE=-1.71D-01 OVMax= 5.21D-02

 Cycle   4  Pass 1  IDiag  1:
 RMSU=  3.10D-03    CP:  7.13D-01  5.33D-01  5.97D-01
 E= -2091.37682195810     Delta-E=       -0.179050685315 Rises=F Damp=F
 DIIS: error= 1.76D-03 at cycle   4 NSaved=   4.
 NSaved= 4 IEnMin= 4 EnMin= -2091.37682195810     IErMin= 4 ErrMin= 1.76D-03
 ErrMax= 1.76D-03  0.00D+00 EMaxC= 1.00D-01 BMatC= 1.10D-02 BMatP= 2.67D-01
 IDIUse=3 WtCom= 9.82D-01 WtEn= 1.76D-02
 Coeff-Com:  0.801D-02 0.141D+00 0.261D+00 0.590D+00
 Coeff-En:   0.000D+00 0.000D+00 0.000D+00 0.100D+01
 Coeff:      0.787D-02 0.139D+00 0.257D+00 0.597D+00
 Gap=     0.277 Goal=   None    Shift=    0.000
 RMSDP=1.25D-03 MaxDP=1.77D-01 DE=-1.79D-01 OVMax= 1.13D-02

 Cycle   5  Pass 1  IDiag  1:
 RMSU=  7.23D-04    CP:  7.14D-01  5.18D-01  6.41D-01  7.11D-01
 E= -2091.38358429343     Delta-E=       -0.006762335337 Rises=F Damp=F
 DIIS: error= 2.72D-04 at cycle   5 NSaved=   5.
 NSaved= 5 IEnMin= 5 EnMin= -2091.38358429343     IErMin= 5 ErrMin= 2.72D-04
 ErrMax= 2.72D-04  0.00D+00 EMaxC= 1.00D-01 BMatC= 3.89D-04 BMatP= 1.10D-02
 IDIUse=3 WtCom= 9.97D-01 WtEn= 2.72D-03
 Coeff-Com:  0.646D-03 0.238D-01 0.603D-01 0.214D+00 0.701D+00
 Coeff-En:   0.000D+00 0.000D+00 0.000D+00 0.000D+00 0.100D+01
 Coeff:      0.644D-03 0.238D-01 0.602D-01 0.213D+00 0.702D+00
 Gap=     0.277 Goal=   None    Shift=    0.000
 RMSDP=4.46D-04 MaxDP=7.88D-02 DE=-6.76D-03 OVMax= 2.76D-03

 Cycle   6  Pass 1  IDiag  1:
 RMSU=  2.36D-04    CP:  7.13D-01  5.22D-01  6.54D-01  8.06D-01  7.49D-01
 E= -2091.38385430612     Delta-E=       -0.000270012686 Rises=F Damp=F
 DIIS: error= 1.74D-04 at cycle   6 NSaved=   6.
 NSaved= 6 IEnMin= 6 EnMin= -2091.38385430612     IErMin= 6 ErrMin= 1.74D-04
 ErrMax= 1.74D-04  0.00D+00 EMaxC= 1.00D-01 BMatC= 7.40D-05 BMatP= 3.89D-04
 IDIUse=3 WtCom= 9.98D-01 WtEn= 1.74D-03
 EnCoef did     1 forward-backward iterations
 Coeff-Com: -0.611D-03-0.569D-02-0.233D-02 0.272D-01 0.334D+00 0.647D+00
 Coeff-En:   0.000D+00 0.000D+00 0.000D+00 0.000D+00 0.524D-03 0.999D+00
 Coeff:     -0.610D-03-0.568D-02-0.232D-02 0.271D-01 0.334D+00 0.648D+00
 Gap=     0.278 Goal=   None    Shift=    0.000
 RMSDP=2.19D-04 MaxDP=5.51D-02 DE=-2.70D-04 OVMax= 1.12D-03

 Cycle   7  Pass 1  IDiag  1:
 RMSU=  6.66D-05    CP:  7.11D-01  5.15D-01  6.59D-01  8.07D-01  8.46D-01
                    CP:  9.34D-01
 E= -2091.38390741488     Delta-E=       -0.000053108765 Rises=F Damp=F
 DIIS: error= 3.82D-05 at cycle   7 NSaved=   7.
 NSaved= 7 IEnMin= 7 EnMin= -2091.38390741488     IErMin= 7 ErrMin= 3.82D-05
 ErrMax= 3.82D-05  0.00D+00 EMaxC= 1.00D-01 BMatC= 5.56D-06 BMatP= 7.40D-05
 IDIUse=1 WtCom= 1.00D+00 WtEn= 0.00D+00
 Coeff-Com: -0.305D-03-0.528D-02-0.825D-02-0.138D-01 0.621D-01 0.267D+00
 Coeff-Com:  0.698D+00
 Coeff:     -0.305D-03-0.528D-02-0.825D-02-0.138D-01 0.621D-01 0.267D+00
 Coeff:      0.698D+00
 Gap=     0.278 Goal=   None    Shift=    0.000
 RMSDP=5.05D-05 MaxDP=7.54D-03 DE=-5.31D-05 OVMax= 2.89D-04

 Cycle   8  Pass 1  IDiag  1:
 RMSU=  2.12D-05    CP:  7.11D-01  5.17D-01  6.60D-01  8.14D-01  8.55D-01
                    CP:  1.03D+00  1.15D+00
 E= -2091.38391231616     Delta-E=       -0.000004901276 Rises=F Damp=F
 DIIS: error= 7.59D-06 at cycle   8 NSaved=   8.
 NSaved= 8 IEnMin= 8 EnMin= -2091.38391231616     IErMin= 8 ErrMin= 7.59D-06
 ErrMax= 7.59D-06  0.00D+00 EMaxC= 1.00D-01 BMatC= 2.95D-07 BMatP= 5.56D-06
 IDIUse=1 WtCom= 1.00D+00 WtEn= 0.00D+00
 Coeff-Com: -0.302D-04-0.910D-03-0.206D-02-0.647D-02-0.170D-01 0.118D-01
 Coeff-Com:  0.194D+00 0.821D+00
 Coeff:     -0.302D-04-0.910D-03-0.206D-02-0.647D-02-0.170D-01 0.118D-01
 Coeff:      0.194D+00 0.821D+00
 Gap=     0.278 Goal=   None    Shift=    0.000
 RMSDP=1.62D-05 MaxDP=3.41D-03 DE=-4.90D-06 OVMax= 1.17D-04

 Cycle   9  Pass 1  IDiag  1:
 RMSU=  8.64D-06    CP:  7.11D-01  5.16D-01  6.60D-01  8.17D-01  8.56D-01
                    CP:  1.06D+00  1.25D+00  1.03D+00
 E= -2091.38391270995     Delta-E=       -0.000000393788 Rises=F Damp=F
 DIIS: error= 2.90D-06 at cycle   9 NSaved=   9.
 NSaved= 9 IEnMin= 9 EnMin= -2091.38391270995     IErMin= 9 ErrMin= 2.90D-06
 ErrMax= 2.90D-06  0.00D+00 EMaxC= 1.00D-01 BMatC= 4.76D-08 BMatP= 2.95D-07
 IDIUse=1 WtCom= 1.00D+00 WtEn= 0.00D+00
 Coeff-Com:  0.139D-04 0.157D-03 0.440D-04-0.102D-02-0.134D-01-0.239D-01
 Coeff-Com: -0.213D-02 0.316D+00 0.724D+00
 Coeff:      0.139D-04 0.157D-03 0.440D-04-0.102D-02-0.134D-01-0.239D-01
 Coeff:     -0.213D-02 0.316D+00 0.724D+00
 Gap=     0.278 Goal=   None    Shift=    0.000
 RMSDP=7.26D-06 MaxDP=1.48D-03 DE=-3.94D-07 OVMax= 5.95D-05

 Cycle  10  Pass 1  IDiag  1:
 RMSU=  3.26D-06    CP:  7.11D-01  5.16D-01  6.61D-01  8.17D-01  8.55D-01
                    CP:  1.07D+00  1.28D+00  1.13D+00  1.04D+00
 E= -2091.38391276654     Delta-E=       -0.000000056596 Rises=F Damp=F
 DIIS: error= 1.94D-06 at cycle  10 NSaved=  10.
 NSaved=10 IEnMin=10 EnMin= -2091.38391276654     IErMin=10 ErrMin= 1.94D-06
 ErrMax= 1.94D-06  0.00D+00 EMaxC= 1.00D-01 BMatC= 5.71D-09 BMatP= 4.76D-08
 IDIUse=1 WtCom= 1.00D+00 WtEn= 0.00D+00
 Coeff-Com:  0.791D-05 0.144D-03 0.230D-03 0.291D-03-0.299D-02-0.925D-02
 Coeff-Com: -0.209D-01 0.277D-01 0.274D+00 0.731D+00
 Coeff:      0.791D-05 0.144D-03 0.230D-03 0.291D-03-0.299D-02-0.925D-02
 Coeff:     -0.209D-01 0.277D-01 0.274D+00 0.731D+00
 Gap=     0.278 Goal=   None    Shift=    0.000
 RMSDP=1.97D-06 MaxDP=2.58D-04 DE=-5.66D-08 OVMax= 1.82D-05

 Cycle  11  Pass 1  IDiag  1:
 RMSU=  1.16D-06    CP:  7.11D-01  5.16D-01  6.61D-01  8.18D-01  8.55D-01
                    CP:  1.07D+00  1.29D+00  1.16D+00  1.14D+00  1.11D+00
 E= -2091.38391277377     Delta-E=       -0.000000007224 Rises=F Damp=F
 DIIS: error= 5.62D-07 at cycle  11 NSaved=  11.
 NSaved=11 IEnMin=11 EnMin= -2091.38391277377     IErMin=11 ErrMin= 5.62D-07
 ErrMax= 5.62D-07  0.00D+00 EMaxC= 1.00D-01 BMatC= 8.07D-10 BMatP= 5.71D-09
 IDIUse=1 WtCom= 1.00D+00 WtEn= 0.00D+00
 Coeff-Com:  0.515D-06 0.197D-04 0.648D-04 0.242D-03 0.126D-02 0.120D-02
 Coeff-Com: -0.703D-02-0.479D-01-0.238D-01 0.263D+00 0.813D+00
 Coeff:      0.515D-06 0.197D-04 0.648D-04 0.242D-03 0.126D-02 0.120D-02
 Coeff:     -0.703D-02-0.479D-01-0.238D-01 0.263D+00 0.813D+00
 Gap=     0.278 Goal=   None    Shift=    0.000
 RMSDP=1.06D-06 MaxDP=1.57D-04 DE=-7.22D-09 OVMax= 8.69D-06

 Cycle  12  Pass 1  IDiag  1:
 RMSU=  3.51D-07    CP:  7.11D-01  5.16D-01  6.61D-01  8.18D-01  8.55D-01
                    CP:  1.07D+00  1.30D+00  1.17D+00  1.21D+00  1.20D+00
                    CP:  9.28D-01
 E= -2091.38391277537     Delta-E=       -0.000000001598 Rises=F Damp=F
 DIIS: error= 2.16D-07 at cycle  12 NSaved=  12.
 NSaved=12 IEnMin=12 EnMin= -2091.38391277537     IErMin=12 ErrMin= 2.16D-07
 ErrMax= 2.16D-07  0.00D+00 EMaxC= 1.00D-01 BMatC= 8.67D-11 BMatP= 8.07D-10
 IDIUse=1 WtCom= 1.00D+00 WtEn= 0.00D+00
 Coeff-Com: -0.554D-06-0.423D-05 0.472D-05 0.722D-04 0.750D-03 0.131D-02
 Coeff-Com: -0.338D-03-0.194D-01-0.340D-01 0.121D-01 0.282D+00 0.758D+00
 Coeff:     -0.554D-06-0.423D-05 0.472D-05 0.722D-04 0.750D-03 0.131D-02
 Coeff:     -0.338D-03-0.194D-01-0.340D-01 0.121D-01 0.282D+00 0.758D+00
 Gap=     0.278 Goal=   None    Shift=    0.000
 RMSDP=2.25D-07 MaxDP=2.52D-05 DE=-1.60D-09 OVMax= 3.62D-06

 Cycle  13  Pass 1  IDiag  1:
 RMSU=  1.06D-07    CP:  7.11D-01  5.16D-01  6.61D-01  8.18D-01  8.55D-01
                    CP:  1.07D+00  1.30D+00  1.17D+00  1.21D+00  1.23D+00
                    CP:  1.03D+00  1.13D+00
 E= -2091.38391277472     Delta-E=        0.000000000651 Rises=F Damp=F
 DIIS: error= 1.40D-07 at cycle  13 NSaved=  13.
 NSaved=13 IEnMin=12 EnMin= -2091.38391277537     IErMin=13 ErrMin= 1.40D-07
 ErrMax= 1.40D-07  0.00D+00 EMaxC= 1.00D-01 BMatC= 8.62D-12 BMatP= 8.67D-11
 IDIUse=1 WtCom= 1.00D+00 WtEn= 0.00D+00
 Coeff-Com: -0.115D-06-0.309D-05-0.772D-05-0.154D-04-0.279D-04 0.474D-04
 Coeff-Com:  0.927D-03 0.248D-02-0.283D-02-0.370D-01-0.538D-01 0.135D+00
 Coeff-Com:  0.956D+00
 Coeff:     -0.115D-06-0.309D-05-0.772D-05-0.154D-04-0.279D-04 0.474D-04
 Coeff:      0.927D-03 0.248D-02-0.283D-02-0.370D-01-0.538D-01 0.135D+00
 Coeff:      0.956D+00
 Gap=     0.278 Goal=   None    Shift=    0.000
 RMSDP=8.83D-08 MaxDP=1.85D-05 DE= 6.51D-10 OVMax= 1.84D-06

 Cycle  14  Pass 1  IDiag  1:
 RMSU=  4.49D-08    CP:  7.11D-01  5.16D-01  6.61D-01  8.18D-01  8.55D-01
                    CP:  1.07D+00  1.30D+00  1.17D+00  1.22D+00  1.24D+00
                    CP:  1.06D+00  1.27D+00  1.27D+00
 E= -2091.38391277543     Delta-E=       -0.000000000713 Rises=F Damp=F
 DIIS: error= 3.28D-08 at cycle  14 NSaved=  14.
 NSaved=14 IEnMin=14 EnMin= -2091.38391277543     IErMin=14 ErrMin= 3.28D-08
 ErrMax= 3.28D-08  0.00D+00 EMaxC= 1.00D-01 BMatC= 2.03D-12 BMatP= 8.62D-12
 IDIUse=1 WtCom= 1.00D+00 WtEn= 0.00D+00
 Coeff-Com:  0.123D-07-0.103D-05-0.398D-05-0.152D-04-0.963D-04-0.120D-03
 Coeff-Com:  0.430D-03 0.317D-02 0.291D-02-0.159D-01-0.535D-01-0.334D-01
 Coeff-Com:  0.397D+00 0.700D+00
 Coeff:      0.123D-07-0.103D-05-0.398D-05-0.152D-04-0.963D-04-0.120D-03
 Coeff:      0.430D-03 0.317D-02 0.291D-02-0.159D-01-0.535D-01-0.334D-01
 Coeff:      0.397D+00 0.700D+00
 Gap=     0.278 Goal=   None    Shift=    0.000
 RMSDP=2.88D-08 MaxDP=3.79D-06 DE=-7.13D-10 OVMax= 5.99D-07

 Cycle  15  Pass 1  IDiag  1:
 RMSU=  1.54D-08    CP:  7.11D-01  5.16D-01  6.61D-01  8.18D-01  8.55D-01
                    CP:  1.07D+00  1.30D+00  1.17D+00  1.22D+00  1.24D+00
                    CP:  1.06D+00  1.30D+00  1.40D+00  1.06D+00
 E= -2091.38391277500     Delta-E=        0.000000000426 Rises=F Damp=F
 DIIS: error= 1.34D-08 at cycle  15 NSaved=  15.
 NSaved=15 IEnMin=14 EnMin= -2091.38391277543     IErMin=15 ErrMin= 1.34D-08
 ErrMax= 1.34D-08  0.00D+00 EMaxC= 1.00D-01 BMatC= 1.92D-13 BMatP= 2.03D-12
 IDIUse=1 WtCom= 1.00D+00 WtEn= 0.00D+00
 Coeff-Com:  0.949D-08 0.165D-06 0.179D-06-0.209D-05-0.210D-04-0.289D-04
 Coeff-Com: -0.387D-04 0.375D-03 0.103D-02 0.171D-02-0.686D-02-0.271D-01
 Coeff-Com: -0.560D-01 0.148D+00 0.938D+00
 Coeff:      0.949D-08 0.165D-06 0.179D-06-0.209D-05-0.210D-04-0.289D-04
 Coeff:     -0.387D-04 0.375D-03 0.103D-02 0.171D-02-0.686D-02-0.271D-01
 Coeff:     -0.560D-01 0.148D+00 0.938D+00
 Gap=     0.278 Goal=   None    Shift=    0.000
 RMSDP=1.21D-08 MaxDP=2.12D-06 DE= 4.26D-10 OVMax= 2.96D-07

 Cycle  16  Pass 1  IDiag  1:
 RMSU=  6.17D-09    CP:  7.11D-01  5.16D-01  6.61D-01  8.18D-01  8.55D-01
                    CP:  1.07D+00  1.30D+00  1.17D+00  1.22D+00  1.24D+00
                    CP:  1.06D+00  1.30D+00  1.45D+00  1.16D+00  1.25D+00
 E= -2091.38391277492     Delta-E=        0.000000000083 Rises=F Damp=F
 DIIS: error= 4.64D-09 at cycle  16 NSaved=  16.
 NSaved=16 IEnMin=14 EnMin= -2091.38391277543     IErMin=16 ErrMin= 4.64D-09
 ErrMax= 4.64D-09  0.00D+00 EMaxC= 1.00D-01 BMatC= 2.63D-14 BMatP= 1.92D-13
 IDIUse=1 WtCom= 1.00D+00 WtEn= 0.00D+00
 Coeff-Com:  0.959D-09 0.180D-06 0.549D-06 0.116D-05 0.513D-05 0.561D-05
 Coeff-Com: -0.617D-04-0.268D-03-0.251D-04 0.249D-02 0.448D-02-0.215D-02
 Coeff-Com: -0.602D-01-0.493D-01 0.270D+00 0.835D+00
 Coeff:      0.959D-09 0.180D-06 0.549D-06 0.116D-05 0.513D-05 0.561D-05
 Coeff:     -0.617D-04-0.268D-03-0.251D-04 0.249D-02 0.448D-02-0.215D-02
 Coeff:     -0.602D-01-0.493D-01 0.270D+00 0.835D+00
 Gap=     0.278 Goal=   None    Shift=    0.000
 RMSDP=5.42D-09 MaxDP=1.39D-06 DE= 8.28D-11 OVMax= 1.05D-07

 Cycle  17  Pass 1  IDiag  1:
 RMSU=  2.26D-09    CP:  7.11D-01  5.16D-01  6.61D-01  8.18D-01  8.55D-01
                    CP:  1.07D+00  1.30D+00  1.17D+00  1.22D+00  1.23D+00
                    CP:  1.06D+00  1.30D+00  1.45D+00  1.21D+00  1.40D+00
                    CP:  1.16D+00
 E= -2091.38391277562     Delta-E=       -0.000000000703 Rises=F Damp=F
 DIIS: error= 2.30D-09 at cycle  17 NSaved=  17.
 NSaved=17 IEnMin=17 EnMin= -2091.38391277562     IErMin=17 ErrMin= 2.30D-09
 ErrMax= 2.30D-09  0.00D+00 EMaxC= 1.00D-01 BMatC= 4.65D-15 BMatP= 2.63D-14
 IDIUse=1 WtCom= 1.00D+00 WtEn= 0.00D+00
 Coeff-Com: -0.843D-11 0.371D-07 0.155D-06 0.721D-06 0.475D-05 0.502D-05
 Coeff-Com: -0.133D-04-0.139D-03-0.147D-03 0.532D-03 0.239D-02 0.281D-02
 Coeff-Com: -0.114D-01-0.407D-01-0.421D-01 0.255D+00 0.834D+00
 Coeff:     -0.843D-11 0.371D-07 0.155D-06 0.721D-06 0.475D-05 0.502D-05
 Coeff:     -0.133D-04-0.139D-03-0.147D-03 0.532D-03 0.239D-02 0.281D-02
 Coeff:     -0.114D-01-0.407D-01-0.421D-01 0.255D+00 0.834D+00
 Gap=     0.278 Goal=   None    Shift=    0.000
 RMSDP=2.20D-09 MaxDP=2.14D-07 DE=-7.03D-10 OVMax= 4.79D-08

 Error on total polarization charges =  0.07896
 SCF Done:  E(RwB97XD) =  -2091.38391278     A.U. after   17 cycles
            NFock= 17  Conv=0.22D-08     -V/T= 2.0040
 KE= 2.083037983060D+03 PE=-1.627500837717D+04 EE= 6.409536675744D+03
 SMD-CDS (non-electrostatic) energy       (kcal/mol) =      -5.00
 (included in total energy above)
 Leave Link  502 at Fri Sep 19 16:44:01 2025, MaxMem=  4294967296 cpu:           35172.5 elap:            2272.9
 (Enter /opt/apps/Gaussian/G16C/g16/l601.exe)
 Copying SCF densities to generalized density rwf, IOpCl= 0 IROHF=0.

 **********************************************************************

            Population analysis using the SCF Density.

 **********************************************************************

 Alpha  occ. eigenvalues --  -77.31951 -19.30455 -19.26011 -19.25882 -19.22094
 Alpha  occ. eigenvalues --  -19.19792 -19.17342 -14.47547 -10.32380 -10.32366
 Alpha  occ. eigenvalues --  -10.32138 -10.31994 -10.31617 -10.31338 -10.31171
 Alpha  occ. eigenvalues --  -10.30872 -10.30842 -10.30800 -10.30768 -10.30676
 Alpha  occ. eigenvalues --  -10.30296 -10.30289 -10.30045 -10.30017 -10.30005
 Alpha  occ. eigenvalues --  -10.29959 -10.27883 -10.27776 -10.27677 -10.27437
 Alpha  occ. eigenvalues --  -10.25386 -10.25320 -10.24966 -10.24952 -10.24491
 Alpha  occ. eigenvalues --  -10.24413 -10.24030 -10.22382 -10.20841  -6.80208
 Alpha  occ. eigenvalues --   -6.76436  -4.91313  -4.91040  -4.90970  -1.99996
 Alpha  occ. eigenvalues --   -1.19515  -1.15335  -1.14986  -1.10014  -1.09079
 Alpha  occ. eigenvalues --   -1.03450  -0.97768  -0.97400  -0.92447  -0.87862
 Alpha  occ. eigenvalues --   -0.87511  -0.87379  -0.87229  -0.86225  -0.86182
 Alpha  occ. eigenvalues --   -0.86070  -0.85801  -0.83760  -0.83179  -0.81907
 Alpha  occ. eigenvalues --   -0.79015  -0.77910  -0.75331  -0.75040  -0.74656
 Alpha  occ. eigenvalues --   -0.71626  -0.71587  -0.71241  -0.70949  -0.69350
 Alpha  occ. eigenvalues --   -0.69118  -0.68543  -0.68083  -0.68039  -0.67452
 Alpha  occ. eigenvalues --   -0.63169  -0.62603  -0.60983  -0.60528  -0.60129
 Alpha  occ. eigenvalues --   -0.59590  -0.58812  -0.58569  -0.58113  -0.57696
 Alpha  occ. eigenvalues --   -0.56758  -0.55969  -0.55543  -0.55269  -0.54160
 Alpha  occ. eigenvalues --   -0.54024  -0.53896  -0.53870  -0.53566  -0.52791
 Alpha  occ. eigenvalues --   -0.52091  -0.51951  -0.51556  -0.51443  -0.50712
 Alpha  occ. eigenvalues --   -0.50573  -0.50152  -0.49874  -0.49112  -0.48573
 Alpha  occ. eigenvalues --   -0.48237  -0.47838  -0.47652  -0.47251  -0.46944
 Alpha  occ. eigenvalues --   -0.46407  -0.46214  -0.46132  -0.45635  -0.45220
 Alpha  occ. eigenvalues --   -0.44884  -0.44705  -0.44533  -0.44228  -0.44047
 Alpha  occ. eigenvalues --   -0.43902  -0.43648  -0.43521  -0.43203  -0.42992
 Alpha  occ. eigenvalues --   -0.42910  -0.42577  -0.42226  -0.42078  -0.41667
 Alpha  occ. eigenvalues --   -0.41470  -0.41403  -0.40629  -0.40587  -0.40302
 Alpha  occ. eigenvalues --   -0.39964  -0.39696  -0.38403  -0.38150  -0.37249
 Alpha  occ. eigenvalues --   -0.36211  -0.35850  -0.35330  -0.35098  -0.34821
 Alpha  occ. eigenvalues --   -0.34658  -0.34419  -0.33965  -0.33815  -0.30836
 Alpha  occ. eigenvalues --   -0.28072  -0.27011
 Alpha virt. eigenvalues --    0.00804   0.02306   0.02545   0.02688   0.02763
 Alpha virt. eigenvalues --    0.03342   0.04069   0.04602   0.05153   0.05477
 Alpha virt. eigenvalues --    0.05674   0.05830   0.06273   0.06785   0.06962
 Alpha virt. eigenvalues --    0.07144   0.07158   0.07316   0.07555   0.07593
 Alpha virt. eigenvalues --    0.07811   0.07920   0.07979   0.08354   0.08584
 Alpha virt. eigenvalues --    0.08742   0.08985   0.09111   0.09481   0.09723
 Alpha virt. eigenvalues --    0.10005   0.10037   0.10322   0.10450   0.10692
 Alpha virt. eigenvalues --    0.11245   0.11345   0.11596   0.11775   0.11975
 Alpha virt. eigenvalues --    0.12080   0.12456   0.12767   0.12959   0.13147
 Alpha virt. eigenvalues --    0.13280   0.13562   0.13597   0.13854   0.14003
 Alpha virt. eigenvalues --    0.14210   0.14460   0.14619   0.14748   0.15155
 Alpha virt. eigenvalues --    0.15236   0.15604   0.15670   0.15781   0.15891
 Alpha virt. eigenvalues --    0.15998   0.16084   0.16284   0.16491   0.16595
 Alpha virt. eigenvalues --    0.16909   0.16929   0.17154   0.17210   0.17326
 Alpha virt. eigenvalues --    0.17534   0.17625   0.17742   0.18026   0.18059
 Alpha virt. eigenvalues --    0.18321   0.18549   0.18644   0.18663   0.18721
 Alpha virt. eigenvalues --    0.18973   0.19048   0.19352   0.19482   0.19550
 Alpha virt. eigenvalues --    0.19750   0.19801   0.19956   0.20024   0.20179
 Alpha virt. eigenvalues --    0.20260   0.20467   0.20597   0.20638   0.20810
 Alpha virt. eigenvalues --    0.20889   0.21004   0.21194   0.21413   0.21521
 Alpha virt. eigenvalues --    0.21567   0.21773   0.21878   0.22014   0.22056
 Alpha virt. eigenvalues --    0.22230   0.22353   0.22515   0.22648   0.22679
 Alpha virt. eigenvalues --    0.22933   0.22946   0.23131   0.23219   0.23369
 Alpha virt. eigenvalues --    0.23528   0.23753   0.23945   0.24021   0.24031
 Alpha virt. eigenvalues --    0.24099   0.24310   0.24388   0.24478   0.24618
 Alpha virt. eigenvalues --    0.24720   0.24875   0.25006   0.25041   0.25193
 Alpha virt. eigenvalues --    0.25463   0.25559   0.25794   0.25904   0.25971
 Alpha virt. eigenvalues --    0.26166   0.26280   0.26421   0.26540   0.26768
 Alpha virt. eigenvalues --    0.26893   0.27099   0.27168   0.27360   0.27393
 Alpha virt. eigenvalues --    0.27435   0.27668   0.27871   0.27980   0.28135
 Alpha virt. eigenvalues --    0.28281   0.28356   0.28515   0.28684   0.28865
 Alpha virt. eigenvalues --    0.29015   0.29213   0.29293   0.29414   0.29709
 Alpha virt. eigenvalues --    0.29862   0.29883   0.30080   0.30244   0.30320
 Alpha virt. eigenvalues --    0.30444   0.30601   0.30658   0.30889   0.30969
 Alpha virt. eigenvalues --    0.31227   0.31357   0.31453   0.31642   0.31870
 Alpha virt. eigenvalues --    0.32129   0.32236   0.32297   0.32459   0.32737
 Alpha virt. eigenvalues --    0.32825   0.32966   0.33287   0.33531   0.33704
 Alpha virt. eigenvalues --    0.33875   0.34083   0.34164   0.34315   0.34464
 Alpha virt. eigenvalues --    0.34585   0.34707   0.34782   0.34864   0.35314
 Alpha virt. eigenvalues --    0.35486   0.35627   0.35704   0.35908   0.36080
 Alpha virt. eigenvalues --    0.36168   0.36408   0.36550   0.36704   0.36763
 Alpha virt. eigenvalues --    0.37059   0.37127   0.37267   0.37430   0.37824
 Alpha virt. eigenvalues --    0.38021   0.38157   0.38397   0.38557   0.38647
 Alpha virt. eigenvalues --    0.38715   0.38799   0.39090   0.39169   0.39462
 Alpha virt. eigenvalues --    0.39615   0.39788   0.39857   0.40016   0.40227
 Alpha virt. eigenvalues --    0.40479   0.40644   0.40783   0.40969   0.41181
 Alpha virt. eigenvalues --    0.41403   0.41462   0.41826   0.41910   0.41992
 Alpha virt. eigenvalues --    0.42195   0.42269   0.42427   0.42658   0.42717
 Alpha virt. eigenvalues --    0.43111   0.43390   0.43528   0.43737   0.43935
 Alpha virt. eigenvalues --    0.44255   0.44419   0.44470   0.44571   0.44754
 Alpha virt. eigenvalues --    0.44937   0.45153   0.45292   0.45566   0.45713
 Alpha virt. eigenvalues --    0.46137   0.46428   0.46585   0.47004   0.47070
 Alpha virt. eigenvalues --    0.47515   0.47743   0.47874   0.47989   0.48190
 Alpha virt. eigenvalues --    0.48539   0.48781   0.48988   0.49117   0.49385
 Alpha virt. eigenvalues --    0.49519   0.49983   0.50286   0.50656   0.51016
 Alpha virt. eigenvalues --    0.51442   0.51542   0.51769   0.51953   0.52159
 Alpha virt. eigenvalues --    0.52403   0.53148   0.53365   0.53655   0.53738
 Alpha virt. eigenvalues --    0.54128   0.54377   0.55163   0.55238   0.55857
 Alpha virt. eigenvalues --    0.56168   0.56547   0.56752   0.57212   0.57728
 Alpha virt. eigenvalues --    0.58143   0.58340   0.58812   0.59263   0.59426
 Alpha virt. eigenvalues --    0.59617   0.59946   0.60213   0.60364   0.60557
 Alpha virt. eigenvalues --    0.60923   0.61494   0.61811   0.62329   0.62785
 Alpha virt. eigenvalues --    0.63175   0.63449   0.63574   0.63744   0.63977
 Alpha virt. eigenvalues --    0.64263   0.64674   0.64957   0.65014   0.65221
 Alpha virt. eigenvalues --    0.65362   0.65580   0.65727   0.65914   0.66734
 Alpha virt. eigenvalues --    0.66857   0.67315   0.67413   0.67636   0.67989
 Alpha virt. eigenvalues --    0.68364   0.69032   0.69207   0.69503   0.69841
 Alpha virt. eigenvalues --    0.70062   0.70195   0.70359   0.70670   0.70984
 Alpha virt. eigenvalues --    0.71191   0.71629   0.71915   0.72353   0.72460
 Alpha virt. eigenvalues --    0.72936   0.73114   0.73538   0.73589   0.73753
 Alpha virt. eigenvalues --    0.74173   0.74324   0.74616   0.74733   0.75197
 Alpha virt. eigenvalues --    0.75217   0.75750   0.75866   0.76089   0.76154
 Alpha virt. eigenvalues --    0.76906   0.77160   0.77431   0.77679   0.77858
 Alpha virt. eigenvalues --    0.78149   0.78584   0.78611   0.79091   0.79245
 Alpha virt. eigenvalues --    0.79608   0.79655   0.79800   0.80404   0.80492
 Alpha virt. eigenvalues --    0.80739   0.80902   0.81313   0.81462   0.81815
 Alpha virt. eigenvalues --    0.82020   0.82237   0.82561   0.82624   0.82846
 Alpha virt. eigenvalues --    0.83170   0.83403   0.83532   0.83662   0.84100
 Alpha virt. eigenvalues --    0.84389   0.84546   0.84806   0.84837   0.85157
 Alpha virt. eigenvalues --    0.85286   0.85724   0.85739   0.85981   0.86304
 Alpha virt. eigenvalues --    0.86388   0.86631   0.86963   0.87080   0.87211
 Alpha virt. eigenvalues --    0.87561   0.87893   0.88300   0.88357   0.88539
 Alpha virt. eigenvalues --    0.88618   0.88933   0.89473   0.89501   0.89616
 Alpha virt. eigenvalues --    0.89950   0.90119   0.90642   0.90854   0.90986
 Alpha virt. eigenvalues --    0.91306   0.91475   0.91684   0.92226   0.92523
 Alpha virt. eigenvalues --    0.92736   0.92793   0.92891   0.93435   0.93664
 Alpha virt. eigenvalues --    0.93864   0.94103   0.94666   0.94945   0.95197
 Alpha virt. eigenvalues --    0.95294   0.95502   0.95733   0.96192   0.96622
 Alpha virt. eigenvalues --    0.96792   0.96925   0.97432   0.97476   0.97961
 Alpha virt. eigenvalues --    0.98185   0.98336   0.98769   0.99257   0.99693
 Alpha virt. eigenvalues --    0.99733   1.00397   1.00909   1.01210   1.01873
 Alpha virt. eigenvalues --    1.01995   1.02606   1.02727   1.03210   1.03810
 Alpha virt. eigenvalues --    1.04124   1.04187   1.04892   1.05424   1.05915
 Alpha virt. eigenvalues --    1.06873   1.07040   1.07319   1.07814   1.08404
 Alpha virt. eigenvalues --    1.08720   1.09170   1.09543   1.09820   1.10922
 Alpha virt. eigenvalues --    1.11470   1.12023   1.12341   1.12721   1.13063
 Alpha virt. eigenvalues --    1.13309   1.13915   1.14294   1.15135   1.15245
 Alpha virt. eigenvalues --    1.15722   1.16213   1.16493   1.17200   1.17645
 Alpha virt. eigenvalues --    1.17798   1.18205   1.18810   1.19797   1.19892
 Alpha virt. eigenvalues --    1.20155   1.20809   1.21516   1.21752   1.22354
 Alpha virt. eigenvalues --    1.22441   1.23170   1.23491   1.24178   1.24970
 Alpha virt. eigenvalues --    1.25147   1.25714   1.26077   1.26562   1.26701
 Alpha virt. eigenvalues --    1.27275   1.27578   1.28334   1.28681   1.29557
 Alpha virt. eigenvalues --    1.30139   1.30686   1.31210   1.31845   1.32499
 Alpha virt. eigenvalues --    1.32895   1.33340   1.34428   1.35071   1.35300
 Alpha virt. eigenvalues --    1.36383   1.37372   1.37743   1.38279   1.38685
 Alpha virt. eigenvalues --    1.39231   1.39288   1.40288   1.40647   1.40977
 Alpha virt. eigenvalues --    1.41459   1.42507   1.42774   1.44075   1.44177
 Alpha virt. eigenvalues --    1.44608   1.45428   1.46046   1.46534   1.47004
 Alpha virt. eigenvalues --    1.48023   1.48532   1.49712   1.50303   1.50829
 Alpha virt. eigenvalues --    1.51110   1.51878   1.52070   1.52552   1.53516
 Alpha virt. eigenvalues --    1.53948   1.55027   1.55506   1.56096   1.56293
 Alpha virt. eigenvalues --    1.56990   1.57168   1.58052   1.58376   1.58826
 Alpha virt. eigenvalues --    1.59113   1.59807   1.60279   1.60611   1.60899
 Alpha virt. eigenvalues --    1.61492   1.61657   1.61951   1.62248   1.62675
 Alpha virt. eigenvalues --    1.62905   1.63301   1.63605   1.64127   1.64319
 Alpha virt. eigenvalues --    1.64473   1.64626   1.65119   1.65268   1.65664
 Alpha virt. eigenvalues --    1.66247   1.66329   1.66824   1.66854   1.67558
 Alpha virt. eigenvalues --    1.67783   1.68251   1.68424   1.68563   1.68915
 Alpha virt. eigenvalues --    1.69603   1.70153   1.70290   1.70458   1.70930
 Alpha virt. eigenvalues --    1.71158   1.71423   1.71887   1.72395   1.72605
 Alpha virt. eigenvalues --    1.72832   1.73469   1.73582   1.73887   1.74003
 Alpha virt. eigenvalues --    1.74241   1.74602   1.74789   1.75246   1.75521
 Alpha virt. eigenvalues --    1.75989   1.76282   1.76657   1.76755   1.76956
 Alpha virt. eigenvalues --    1.77155   1.77362   1.77803   1.78045   1.78176
 Alpha virt. eigenvalues --    1.78354   1.78924   1.79622   1.80031   1.80290
 Alpha virt. eigenvalues --    1.80707   1.81390   1.81619   1.82155   1.82298
 Alpha virt. eigenvalues --    1.82821   1.82955   1.83738   1.84089   1.84360
 Alpha virt. eigenvalues --    1.84721   1.85021   1.85433   1.85700   1.85974
 Alpha virt. eigenvalues --    1.86610   1.87128   1.87288   1.87451   1.88298
 Alpha virt. eigenvalues --    1.88404   1.88648   1.88927   1.89346   1.89568
 Alpha virt. eigenvalues --    1.89974   1.90503   1.90924   1.91253   1.91503
 Alpha virt. eigenvalues --    1.91862   1.92490   1.93053   1.93121   1.93672
 Alpha virt. eigenvalues --    1.93926   1.94119   1.94700   1.94828   1.95690
 Alpha virt. eigenvalues --    1.95792   1.96208   1.96736   1.97273   1.97576
 Alpha virt. eigenvalues --    1.98258   1.98648   1.99130   1.99819   2.00027
 Alpha virt. eigenvalues --    2.00351   2.00572   2.00813   2.01252   2.01410
 Alpha virt. eigenvalues --    2.01631   2.02251   2.02853   2.02947   2.03461
 Alpha virt. eigenvalues --    2.03631   2.04209   2.04478   2.04765   2.05448
 Alpha virt. eigenvalues --    2.05993   2.06639   2.07017   2.07065   2.07639
 Alpha virt. eigenvalues --    2.08046   2.08335   2.08522   2.09071   2.09223
 Alpha virt. eigenvalues --    2.09485   2.10164   2.10437   2.10547   2.10932
 Alpha virt. eigenvalues --    2.11316   2.11837   2.12018   2.13099   2.13356
 Alpha virt. eigenvalues --    2.13865   2.15058   2.15357   2.15711   2.16085
 Alpha virt. eigenvalues --    2.16594   2.16730   2.17311   2.17422   2.18284
 Alpha virt. eigenvalues --    2.18994   2.19707   2.20173   2.20284   2.20850
 Alpha virt. eigenvalues --    2.21142   2.21175   2.22351   2.22603   2.23434
 Alpha virt. eigenvalues --    2.23861   2.24379   2.24854   2.25570   2.25651
 Alpha virt. eigenvalues --    2.26190   2.26554   2.27111   2.27326   2.28433
 Alpha virt. eigenvalues --    2.28940   2.29381   2.30111   2.31416   2.32751
 Alpha virt. eigenvalues --    2.32929   2.34163   2.34663   2.35401   2.36025
 Alpha virt. eigenvalues --    2.36232   2.37063   2.37520   2.38023   2.39213
 Alpha virt. eigenvalues --    2.39558   2.40057   2.40823   2.41468   2.41667
 Alpha virt. eigenvalues --    2.41697   2.42219   2.42648   2.43053   2.43199
 Alpha virt. eigenvalues --    2.44096   2.44377   2.44856   2.45223   2.45694
 Alpha virt. eigenvalues --    2.46986   2.48170   2.48702   2.49056   2.50543
 Alpha virt. eigenvalues --    2.51266   2.51879   2.52309   2.53160   2.55093
 Alpha virt. eigenvalues --    2.56462   2.57382   2.57982   2.58103   2.59127
 Alpha virt. eigenvalues --    2.59352   2.59481   2.60360   2.60695   2.60765
 Alpha virt. eigenvalues --    2.61265   2.61577   2.61663   2.63076   2.63473
 Alpha virt. eigenvalues --    2.63515   2.64182   2.64303   2.64798   2.65348
 Alpha virt. eigenvalues --    2.66584   2.66845   2.67752   2.68116   2.68164
 Alpha virt. eigenvalues --    2.68325   2.68763   2.69176   2.69591   2.70449
 Alpha virt. eigenvalues --    2.70782   2.71432   2.71915   2.72185   2.72894
 Alpha virt. eigenvalues --    2.73121   2.73152   2.73465   2.73671   2.74316
 Alpha virt. eigenvalues --    2.74889   2.75172   2.75598   2.76061   2.76405
 Alpha virt. eigenvalues --    2.77076   2.77719   2.78063   2.78610   2.79614
 Alpha virt. eigenvalues --    2.80157   2.81033   2.81596   2.82026   2.82683
 Alpha virt. eigenvalues --    2.83291   2.83455   2.83815   2.84216   2.84502
 Alpha virt. eigenvalues --    2.84620   2.85735   2.85939   2.86148   2.86901
 Alpha virt. eigenvalues --    2.86951   2.87128   2.87608   2.88315   2.88574
 Alpha virt. eigenvalues --    2.88851   2.89376   2.90152   2.90762   2.91128
 Alpha virt. eigenvalues --    2.91169   2.91918   2.92404   2.92682   2.92890
 Alpha virt. eigenvalues --    2.93185   2.93727   2.94407   2.94881   2.95416
 Alpha virt. eigenvalues --    2.95922   2.96331   2.96875   2.96974   2.97090
 Alpha virt. eigenvalues --    2.97810   2.98174   2.98541   2.98755   2.99308
 Alpha virt. eigenvalues --    2.99478   3.00356   3.00465   3.01775   3.02063
 Alpha virt. eigenvalues --    3.02637   3.03053   3.03527   3.03693   3.04222
 Alpha virt. eigenvalues --    3.04777   3.05238   3.05547   3.06090   3.06311
 Alpha virt. eigenvalues --    3.06717   3.07048   3.07679   3.08478   3.09104
 Alpha virt. eigenvalues --    3.09636   3.10563   3.10944   3.11254   3.12108
 Alpha virt. eigenvalues --    3.12631   3.13354   3.14009   3.14091   3.14754
 Alpha virt. eigenvalues --    3.16123   3.17232   3.17584   3.18134   3.19033
 Alpha virt. eigenvalues --    3.19576   3.20185   3.20866   3.21626   3.22192
 Alpha virt. eigenvalues --    3.22628   3.24105   3.24407   3.24743   3.25665
 Alpha virt. eigenvalues --    3.25696   3.26928   3.27598   3.28796   3.29231
 Alpha virt. eigenvalues --    3.30503   3.31376   3.31705   3.32284   3.32802
 Alpha virt. eigenvalues --    3.33451   3.33813   3.34278   3.35676   3.36548
 Alpha virt. eigenvalues --    3.37933   3.38253   3.39825   3.40652   3.40892
 Alpha virt. eigenvalues --    3.41876   3.42912   3.44288   3.45782   3.46416
 Alpha virt. eigenvalues --    3.46689   3.47460   3.47831   3.49201   3.49599
 Alpha virt. eigenvalues --    3.50797   3.51884   3.52799   3.53353   3.54268
 Alpha virt. eigenvalues --    3.54401   3.55960   3.60502   3.62600   3.65052
 Alpha virt. eigenvalues --    3.66927   3.67583   3.67798   3.68882   3.72555
 Alpha virt. eigenvalues --    3.74053   3.74237   3.75748   3.75936   3.82786
 Alpha virt. eigenvalues --    3.85077   3.87192   3.89198   3.90399   3.91392
 Alpha virt. eigenvalues --    3.91494   3.92769   3.92919   3.93765   3.94023
 Alpha virt. eigenvalues --    3.94178   3.94987   3.95903   3.96783   3.98077
 Alpha virt. eigenvalues --    3.98312   3.98748   3.99792   4.01270   4.02957
 Alpha virt. eigenvalues --    4.03550   4.04448   4.05278   4.10270   4.10972
 Alpha virt. eigenvalues --    4.14334   4.14399   4.14829   4.15213   4.19133
 Alpha virt. eigenvalues --    4.19958   4.20651   4.21592   4.23367   4.24947
 Alpha virt. eigenvalues --    4.25394   4.27190   4.27722   4.27899   4.28427
 Alpha virt. eigenvalues --    4.29340   4.35271   4.36385   4.38365   4.41559
 Alpha virt. eigenvalues --    4.42841   4.44736   4.46282   4.49319   4.51297
 Alpha virt. eigenvalues --    4.53318   4.57049   4.64468   4.74698   4.84958
 Alpha virt. eigenvalues --    4.94217   4.94566   5.30237   5.34349   5.35007
 Alpha virt. eigenvalues --    5.40887   5.44525   5.47665   5.49979   5.58198
 Alpha virt. eigenvalues --    5.60019   5.61949   5.67006   5.72653   5.73036
 Alpha virt. eigenvalues --    5.74915   5.79651   5.81099   5.83249   5.89629
 Alpha virt. eigenvalues --    7.62657  14.30722  14.37715  14.43873  14.97731
 Alpha virt. eigenvalues --   23.78044  23.81657  23.94611  23.99285  24.01560
 Alpha virt. eigenvalues --   24.02400  24.02930  24.04848  24.05829  24.09645
 Alpha virt. eigenvalues --   24.10281  24.10864  24.11322  24.12199  24.12832
 Alpha virt. eigenvalues --   24.13867  24.14528  24.14912  24.15034  24.17174
 Alpha virt. eigenvalues --   24.18842  24.19155  24.19838  24.20056  24.21241
 Alpha virt. eigenvalues --   24.22156  24.22250  24.23281  24.31437  24.31668
 Alpha virt. eigenvalues --   24.44738  35.72689  50.10894  50.14687  50.16765
 Alpha virt. eigenvalues --   50.19288  50.25464  50.26981 163.88812
          Condensed to atoms (all electrons):
 Mulliken charges:
               1
     1  C    0.218226
     2  C    0.178602
     3  H   -0.414075
     4  C   -0.480452
     5  H    0.169624
     6  H    0.151865
     7  H    0.214663
     8  C   -0.754739
     9  H    0.113991
    10  H    0.177547
    11  H    0.182256
    12  B    0.609816
    13  C   -0.819509
    14  H    0.226000
    15  H    0.172022
    16  H    0.173735
    17  O    0.041892
    18  O   -0.045601
    19  C   -0.048577
    20  C   -0.400298
    21  C   -0.899779
    22  H    0.188224
    23  H    0.184332
    24  H    0.183410
    25  C   -0.441858
    26  H    0.191259
    27  H    0.178314
    28  H    0.220149
    29  C   -0.275899
    30  H    0.062656
    31  H    0.220183
    32  H    0.253007
    33  C   -0.767450
    34  H    0.164812
    35  H    0.254650
    36  H    0.041653
    37  P   -0.602646
    38  O   -0.024278
    39  O    0.245499
    40  N   -0.639711
    41  H    0.124134
    42  H    0.387476
    43  Li  -0.145877
    44  C    0.013939
    45  O    0.115465
    46  C   -0.117189
    47  C   -0.624717
    48  C   -0.593900
    49  H    0.283244
    50  H    0.299649
    51  H    0.077532
    52  H    0.231831
    53  H    0.141549
    54  H    0.244032
    55  H    0.122748
    56  H    0.242768
    57  C    0.156210
    58  O    0.001035
    59  C   -0.133409
    60  C   -0.529168
    61  C   -0.702934
    62  H   -0.020649
    63  H    0.222134
    64  H    0.182446
    65  H    0.114136
    66  H    0.233264
    67  H    0.205546
    68  H    0.218227
    69  H    0.192424
    70  C    0.028453
    71  C    0.031315
    72  C   -0.036442
    73  C   -0.534606
    74  H    0.327975
    75  C   -0.418776
    76  H    0.323331
    77  C   -0.482769
    78  H    0.291996
    79  H    0.296046
    80  H    0.272221
    81  C   -0.278351
    82  C    0.510997
    83  C   -0.087247
    84  C   -0.271817
    85  H    0.350928
    86  C   -0.220576
    87  H    0.281093
    88  C   -0.587522
    89  H    0.296091
    90  H    0.292529
    91  H    0.269673
 Sum of Mulliken charges =  -0.00000
 Mulliken charges with hydrogens summed into heavy atoms:
               1
     1  C    0.218226
     2  C   -0.235472
     4  C    0.055700
     8  C   -0.280946
    12  B    0.609816
    13  C   -0.247752
    17  O    0.041892
    18  O   -0.045601
    19  C   -0.048577
    20  C   -0.400298
    21  C   -0.343814
    25  C    0.147864
    29  C    0.259947
    33  C   -0.306335
    37  P   -0.602646
    38  O   -0.024278
    39  O    0.245499
    40  N   -0.128101
    43  Li  -0.145877
    44  C    0.596833
    45  O    0.115465
    46  C    0.192174
    47  C   -0.239136
    48  C   -0.228384
    57  C    0.357695
    58  O    0.001035
    59  C    0.163173
    60  C   -0.090358
    61  C   -0.292284
    70  C    0.028453
    71  C    0.359289
    72  C    0.286889
    73  C   -0.242609
    75  C   -0.122730
    77  C   -0.210549
    81  C   -0.278351
    82  C    0.861926
    83  C    0.193845
    84  C    0.024274
    86  C    0.071953
    88  C   -0.317850
 Electronic spatial extent (au):  <R**2>=          41228.5954
 Charge=              0.0000 electrons
 Dipole moment (field-independent basis, Debye):
    X=             10.1830    Y=             -7.8223    Z=             12.0115  Tot=             17.5829
 Quadrupole moment (field-independent basis, Debye-Ang):
   XX=           -294.2657   YY=           -192.5442   ZZ=           -184.6695
   XY=              9.9835   XZ=            -13.4151   YZ=            -29.1111
 Traceless Quadrupole moment (field-independent basis, Debye-Ang):
   XX=            -70.4392   YY=             31.2823   ZZ=             39.1570
   XY=              9.9835   XZ=            -13.4151   YZ=            -29.1111
 Octapole moment (field-independent basis, Debye-Ang**2):
  XXX=           1962.3530  YYY=           1495.4008  ZZZ=          -1433.7265  XYY=            436.1845
  XXY=            656.7030  XXZ=           -607.6818  XZZ=            457.2826  YZZ=            484.0841
  YYZ=           -485.7485  XYZ=             78.6679
 Hexadecapole moment (field-independent basis, Debye-Ang**3):
 XXXX=         -15450.9239 YYYY=         -16082.0234 ZZZZ=         -17644.4475 XXXY=          -4635.4889
 XXXZ=           3522.4868 YYYX=          -3211.0711 YYYZ=           4953.1497 ZZZX=           2448.2652
 ZZZY=           4627.6231 XXYY=          -5417.9976 XXZZ=          -5534.3027 YYZZ=          -6370.6713
 XXYZ=           1731.9394 YYXZ=            479.5288 ZZXY=           -933.6167
 N-N= 5.691049805589D+03 E-N=-1.627500837684D+04  KE= 2.083037983060D+03
 No NMR shielding tensors so no spin-rotation constants.
 Leave Link  601 at Fri Sep 19 16:44:01 2025, MaxMem=  4294967296 cpu:               2.6 elap:               0.5
 (Enter /opt/apps/Gaussian/G16C/g16/l9999.exe)
 Unable to Open any file for archive entry.
 1\1\GINC-NODE01\SP\RwB97XD\6-311++G(d,p)\C31H50B1Li1N1O6P1\WHUGHES2\19
 -Sep-2025\0\\#p wb97xd/6-311++g** nosymm int=ultrafine scrf=(smd,solve
 nt=tetrahydrofuran)\\r1-phosphine-2thf-full-tzpop\\0,1\C,0,-4.958935,-
 0.474625,0.803756\C,0,-5.272313,-0.934929,2.026184\H,0,-4.478859,-1.44
 0665,2.5788\C,0,-6.575479,-0.885592,2.780802\H,0,-6.463735,-0.351261,3
 .735529\H,0,-7.382301,-0.399189,2.223042\H,0,-6.912352,-1.901641,3.031
 177\C,0,-5.949186,0.266541,-0.065308\H,0,-6.894201,0.517079,0.432013\H
 ,0,-5.509121,1.203451,-0.434342\H,0,-6.185195,-0.322245,-0.961279\B,0,
 -3.445032,-0.617205,0.195759\C,0,-2.534992,0.661115,0.667591\H,0,-2.39
 4431,0.71103,1.757134\H,0,-1.540505,0.661603,0.197652\H,0,-3.019092,1.
 607845,0.379261\O,0,-2.810888,-1.956232,0.639016\O,0,-3.413251,-0.7218
 25,-1.286658\C,0,-3.226823,-2.0658,-1.65858\C,0,-2.30373,-2.61946,-0.5
 23926\C,0,-2.595101,-2.119652,-3.048167\H,0,-3.312063,-1.756913,-3.794
 365\H,0,-1.704971,-1.485946,-3.103855\H,0,-2.314283,-3.144858,-3.32073
 8\C,0,-4.584085,-2.79022,-1.701529\H,0,-4.498543,-3.807265,-2.103303\H
 ,0,-5.041127,-2.844043,-0.70726\H,0,-5.259475,-2.225521,-2.353985\C,0,
 -0.834393,-2.224314,-0.716664\H,0,-0.275677,-2.475306,0.192159\H,0,-0.
 374075,-2.762589,-1.553319\H,0,-0.733997,-1.150548,-0.897244\C,0,-2.36
 968,-4.13484,-0.353363\H,0,-3.389583,-4.495863,-0.199705\H,0,-1.975206
 ,-4.632609,-1.247638\H,0,-1.760119,-4.439041,0.503104\P,0,-2.196108,-4
 .33152,3.721856\O,0,-1.30631,-3.444976,2.903193\O,0,-3.792789,-4.02034
 2,3.608064\N,0,-4.37422,-4.101323,2.293269\H,0,-3.909243,-3.372243,1.7
 3383\H,0,-4.094559,-5.009347,1.915085\Li,0,-1.6452,-1.622813,2.18342\C
 ,0,-3.22872,-0.811794,4.880419\O,0,-2.208682,-0.583577,3.907187\C,0,-1
 .543582,0.59817,4.350812\C,0,-1.36887,0.394516,5.857328\C,0,-2.57061,-
 0.505969,6.233609\H,0,-4.064894,-0.127062,4.681336\H,0,-3.58336,-1.836
 593,4.771462\H,0,-0.615669,0.694469,3.78755\H,0,-2.180364,1.469768,4.1
 38593\H,0,-0.422696,-0.116289,6.064396\H,0,-1.364776,1.346456,6.395562
 \H,0,-2.234889,-1.425489,6.720694\H,0,-3.272899,-0.005403,6.9062\C,0,1
 .020886,-1.433761,3.36473\O,0,0.265598,-1.001084,2.230821\C,0,1.156735
 ,-0.266157,1.397094\C,0,1.9889,0.565009,2.370408\C,0,2.065492,-0.33226
 3,3.626046\H,0,0.313412,-1.582587,4.181867\H,0,1.495563,-2.395322,3.13
 0327\H,0,1.783676,-0.966885,0.825594\H,0,0.557509,0.324122,0.702905\H,
 0,2.973142,0.809487,1.961739\H,0,1.471233,1.503009,2.594457\H,0,3.0607
 52,-0.767392,3.753769\H,0,1.830524,0.233694,4.532306\C,0,-1.96029,-4.1
 52664,5.498255\C,0,-2.995405,-4.351392,6.418622\C,0,-0.676171,-3.82770
 6,5.948665\C,0,-2.74336,-4.216326,7.781472\H,0,-3.996367,-4.595808,6.0
 76809\C,0,-0.428834,-3.6993,7.312938\H,0,0.127897,-3.67286,5.234836\C,
 0,-1.462477,-3.892,8.228653\H,0,-3.549628,-4.361582,8.494571\H,0,0.568
 775,-3.444657,7.659056\H,0,-1.270628,-3.787354,9.292914\C,0,-2.009091,
 -6.062139,3.246107\C,0,-0.945958,-6.436148,2.419116\C,0,-2.90795,-7.02
 875,3.713346\C,0,-0.784194,-7.772173,2.058961\H,0,-0.252524,-5.682969,
 2.056309\C,0,-2.744806,-8.36149,3.347691\H,0,-3.73671,-6.742889,4.3563
 36\C,0,-1.682885,-8.732465,2.521418\H,0,0.041092,-8.061526,1.414806\H,
 0,-3.445588,-9.109795,3.706173\H,0,-1.557047,-9.773512,2.237223\\Versi
 on=AS64L-G16RevC.01\HF=-2091.3839128\RMSD=2.204e-09\Dipole=4.006316,-3
 .0775262,4.7257032\Quadrupole=-52.3698453,23.257593,29.1122524,7.42252
 34,-9.9737699,-21.6433842\PG=C01 [X(C31H50B1Li1N1O6P1)]\\@
 The archive entry for this job was punched.


 TIME IS IN FACT THE HERO OF THE PLOT. THE TIME
 WITH WHICH WE HAVE TO DEAL IS OF THE ORDER OF TWO
 BILLION YEARS...GIVEN SO MUCH TIME, THE "IMPOSSIBLE"
 BECOMES POSSIBLE, THE POSSIBLE PROBABLE, THE PROBABLE
 VIRTUALLY CERTAIN.  ONE HAS ONLY TO WAIT, TIME
 ITSELF PERFORMS THE MIRACLES.
 "ORIGIN OF LIFE" LECTURES, GEORGE WALD, 1954
 Job cpu time:       0 days  9 hours 50 minutes 22.6 seconds.
 Elapsed time:       0 days  0 hours 38 minutes 12.4 seconds.
 File lengths (MBytes):  RWF=   1331 Int=      0 D2E=      0 Chk=     95 Scr=      1
 Normal termination of Gaussian 16 at Fri Sep 19 16:44:02 2025.
