Job Start Time: Wed Oct  8 17:17:51 MDT 2025
SLURM Job ID: 768216
SLURM Job Name: syn-product-phos-full-c7_tzpop-sp
 Entering Gaussian System, Link 0=/opt/apps/Gaussian/G16C/g16/g16
 Initial command:
 /opt/apps/Gaussian/G16C/g16/l1.exe "/tmp/768216/Gau-2210318.inp" -scrdir="/tmp/768216/"
 Entering Link 1 = /opt/apps/Gaussian/G16C/g16/l1.exe PID=   2210319.
  
 Copyright (c) 1988-2019, Gaussian, Inc.  All Rights Reserved.
  
 This is part of the Gaussian(R) 16 program.  It is based on
 the Gaussian(R) 09 system (copyright 2009, Gaussian, Inc.),
 the Gaussian(R) 03 system (copyright 2003, Gaussian, Inc.),
 the Gaussian(R) 98 system (copyright 1998, Gaussian, Inc.),
 the Gaussian(R) 94 system (copyright 1995, Gaussian, Inc.),
 the Gaussian 92(TM) system (copyright 1992, Gaussian, Inc.),
 the Gaussian 90(TM) system (copyright 1990, Gaussian, Inc.),
 the Gaussian 88(TM) system (copyright 1988, Gaussian, Inc.),
 the Gaussian 86(TM) system (copyright 1986, Carnegie Mellon
 University), and the Gaussian 82(TM) system (copyright 1983,
 Carnegie Mellon University). Gaussian is a federally registered
 trademark of Gaussian, Inc.
  
 This software contains proprietary and confidential information,
 including trade secrets, belonging to Gaussian, Inc.
  
 This software is provided under written license and may be
 used, copied, transmitted, or stored only in accord with that
 written license.
  
 The following legend is applicable only to US Government
 contracts under FAR:
  
                    RESTRICTED RIGHTS LEGEND
  
 Use, reproduction and disclosure by the US Government is
 subject to restrictions as set forth in subparagraphs (a)
 and (c) of the Commercial Computer Software - Restricted
 Rights clause in FAR 52.227-19.
  
 Gaussian, Inc.
 340 Quinnipiac St., Bldg. 40, Wallingford CT 06492
  
  
 ---------------------------------------------------------------
 Warning -- This program may not be used in any manner that
 competes with the business of Gaussian, Inc. or will provide
 assistance to any competitor of Gaussian, Inc.  The licensee
 of this program is prohibited from giving any competitor of
 Gaussian, Inc. access to this program.  By using this program,
 the user acknowledges that Gaussian, Inc. is engaged in the
 business of creating and licensing software in the field of
 computational chemistry and represents and warrants to the
 licensee that it is not a competitor of Gaussian, Inc. and that
 it will not use this program in any manner prohibited above.
 ---------------------------------------------------------------
  

 Cite this work as:
 Gaussian 16, Revision C.01,
 M. J. Frisch, G. W. Trucks, H. B. Schlegel, G. E. Scuseria, 
 M. A. Robb, J. R. Cheeseman, G. Scalmani, V. Barone, 
 G. A. Petersson, H. Nakatsuji, X. Li, M. Caricato, A. V. Marenich, 
 J. Bloino, B. G. Janesko, R. Gomperts, B. Mennucci, H. P. Hratchian, 
 J. V. Ortiz, A. F. Izmaylov, J. L. Sonnenberg, D. Williams-Young, 
 F. Ding, F. Lipparini, F. Egidi, J. Goings, B. Peng, A. Petrone, 
 T. Henderson, D. Ranasinghe, V. G. Zakrzewski, J. Gao, N. Rega, 
 G. Zheng, W. Liang, M. Hada, M. Ehara, K. Toyota, R. Fukuda, 
 J. Hasegawa, M. Ishida, T. Nakajima, Y. Honda, O. Kitao, H. Nakai, 
 T. Vreven, K. Throssell, J. A. Montgomery, Jr., J. E. Peralta, 
 F. Ogliaro, M. J. Bearpark, J. J. Heyd, E. N. Brothers, K. N. Kudin, 
 V. N. Staroverov, T. A. Keith, R. Kobayashi, J. Normand, 
 K. Raghavachari, A. P. Rendell, J. C. Burant, S. S. Iyengar, 
 J. Tomasi, M. Cossi, J. M. Millam, M. Klene, C. Adamo, R. Cammi, 
 J. W. Ochterski, R. L. Martin, K. Morokuma, O. Farkas, 
 J. B. Foresman, and D. J. Fox, Gaussian, Inc., Wallingford CT, 2019.
 
 ******************************************
 Gaussian 16:  AS64L-G16RevC.01  3-Jul-2019
                 8-Oct-2025 
 ******************************************
 %chk=syn-product-phos-full-c7_tzpop-sp.chk
 %nprocshared=4
 Will use up to    4 processors via shared memory.
 %mem=8GB
 ----------------------------------------------------------------------
 # wb97xd/6-311++g** nosymm int=ultrafine scrf=(smd,solvent=tetrahydrof
 uran)
 ----------------------------------------------------------------------
 1/38=1,172=1/1;
 2/12=2,15=1,17=6,18=5,40=1/2;
 3/5=4,6=6,7=1111,11=2,25=1,30=1,70=32201,72=20,74=-58,75=-5/1,2,3;
 4//1;
 5/5=2,38=5,53=20/2;
 6/7=2,8=2,9=2,10=2,28=1/1;
 99/5=1,9=1/99;
 ---------------------------------
 syn-product-phos-full-c7_tzpop-sp
 ---------------------------------
 Symbolic Z-matrix:
 Charge =  0 Multiplicity = 1
 C                    -1.9896   -0.8685    2.5732 
 C                    -1.5288   -2.2679    2.0336 
 H                    -0.7778   -2.6314    2.7521 
 C                    -2.6624   -3.293     1.9816 
 H                    -2.2843   -4.2385    1.5783 
 H                    -3.0864   -3.4922    2.9694 
 H                    -3.4778   -2.9516    1.3286 
 C                    -2.6812   -1.0382    3.9382 
 H                    -2.8499   -0.0627    4.4101 
 H                    -3.654    -1.5331    3.8652 
 H                    -2.0488   -1.6284    4.6171 
 B                    -2.9694   -0.1747    1.5452 
 C                    -0.752     0.0257    2.787 
 H                    -1.0376    1.0005    3.2027 
 H                    -0.0691   -0.4479    3.5077 
 H                    -0.1884    0.2082    1.8681 
 O                    -2.5841    0.3346    0.3119 
 O                    -4.3082   -0.0094    1.7648 
 C                    -4.8462    0.826     0.7113 
 C                    -3.8089    0.6194   -0.4395 
 C                    -4.8773    2.2558    1.2495 
 H                    -5.3348    2.9409    0.5288 
 H                    -5.4718    2.2768    2.1685 
 H                    -3.8722    2.6211    1.4861 
 C                    -6.2546    0.358     0.3813 
 H                    -6.6459    0.9065   -0.4828 
 H                    -6.2846   -0.7118    0.1594 
 H                    -6.9155    0.5491    1.2331 
 C                    -3.6017    1.8369   -1.3224 
 H                    -4.5494    2.1032   -1.8039 
 H                    -3.2395    2.6987   -0.7596 
 H                    -2.874     1.6123   -2.1066 
 C                    -4.0906   -0.612    -1.2967 
 H                    -4.2396   -1.5084   -0.6849 
 H                    -4.9825   -0.4628   -1.9137 
 H                    -3.2375   -0.7775   -1.9596 
 P                     2.3688    0.0692   -0.6104 
 O                     0.9506    0.0303   -0.0273 
 O                     2.6558    0.9286   -1.82 
 N                    -0.8791   -2.2615    0.7197 
 H                    -1.5626   -2.039    -0.0017 
 H                    -0.1472   -1.5533    0.6464 
 Li                   -0.7088    0.6889   -0.611 
 C                    -0.851     3.1833    0.8331 
 O                    -0.6115    2.6802   -0.4816 
 C                     0.5715    3.3306   -0.9788 
 C                     1.3933    3.7544    0.2545 
 C                     0.5356    3.3008    1.4494 
 H                    -1.3497    4.1623    0.7659 
 H                    -1.5143    2.4803    1.3406 
 H                     1.1019    2.6117   -1.6071 
 H                     0.2636    4.1967   -1.5787 
 H                     2.3776    3.2783    0.2606 
 H                     1.5417    4.8388    0.2642 
 H                     0.8645    2.3191    1.8031 
 H                     0.5621    4.0032    2.2875 
 C                    -0.6385    0.7146   -3.5796 
 O                    -0.9724   -0.08     -2.4317 
 C                    -0.5437   -1.4426   -2.6356 
 C                     0.0808   -1.4919   -4.0299 
 C                     0.4937   -0.0352   -4.2634 
 H                    -1.5233    0.7952   -4.2271 
 H                    -0.363     1.7126   -3.2292 
 H                     0.1782   -1.6865   -1.8513 
 H                    -1.4139   -2.1003   -2.5339 
 H                     0.9234   -2.1879   -4.0674 
 H                    -0.6602   -1.8056   -4.7741 
 H                     1.4352    0.1884   -3.7511 
 H                     0.5819    0.2218   -5.3231 
 C                     3.4764    0.5507    0.7641 
 C                     4.744     1.0772    0.4925 
 C                     3.0746    0.4028    2.0955 
 C                     5.5936    1.4512    1.5323 
 H                     5.0602    1.2042   -0.5399 
 C                     3.9215    0.7765    3.1383 
 H                     2.0877    0.0047    2.3134 
 C                     5.1828    1.3014    2.8576 
 H                     6.5744    1.8634    1.3093 
 H                     3.5956    0.6612    4.169 
 H                     5.8435    1.5952    3.6691 
 C                     2.8285   -1.6617   -0.994 
 C                     3.3744   -1.9802   -2.2402 
 C                     2.6111   -2.6866   -0.0654 
 C                     3.6913   -3.3011   -2.5592 
 H                     3.542    -1.1855   -2.9624 
 C                     2.9293   -4.0056   -0.3787 
 H                     2.1839   -2.4558    0.9077 
 C                     3.4682   -4.3152   -1.629 
 H                     4.1111   -3.5378   -3.5337 
 H                     2.7519   -4.7932    0.349 
 H                     3.7135   -5.3451   -1.8755 
 
 Symmetry turned off by external request.
 Stoichiometry    C31H50BLiNO6P
 Framework group  C1[X(C31H50BLiNO6P)]
 Deg. of freedom   267
 Full point group                 C1      NOp   1
                          Input orientation:                          
 ---------------------------------------------------------------------
 Center     Atomic      Atomic             Coordinates (Angstroms)
 Number     Number       Type             X           Y           Z
 ---------------------------------------------------------------------
      1          6           0       -1.989600   -0.868500    2.573200
      2          6           0       -1.528800   -2.267900    2.033600
      3          1           0       -0.777800   -2.631400    2.752100
      4          6           0       -2.662400   -3.293000    1.981600
      5          1           0       -2.284300   -4.238500    1.578300
      6          1           0       -3.086400   -3.492200    2.969400
      7          1           0       -3.477800   -2.951600    1.328600
      8          6           0       -2.681200   -1.038200    3.938200
      9          1           0       -2.849900   -0.062700    4.410100
     10          1           0       -3.654000   -1.533100    3.865200
     11          1           0       -2.048800   -1.628400    4.617100
     12          5           0       -2.969400   -0.174700    1.545200
     13          6           0       -0.752000    0.025700    2.787000
     14          1           0       -1.037600    1.000500    3.202700
     15          1           0       -0.069100   -0.447900    3.507700
     16          1           0       -0.188400    0.208200    1.868100
     17          8           0       -2.584100    0.334600    0.311900
     18          8           0       -4.308200   -0.009400    1.764800
     19          6           0       -4.846200    0.826000    0.711300
     20          6           0       -3.808900    0.619400   -0.439500
     21          6           0       -4.877300    2.255800    1.249500
     22          1           0       -5.334800    2.940900    0.528800
     23          1           0       -5.471800    2.276800    2.168500
     24          1           0       -3.872200    2.621100    1.486100
     25          6           0       -6.254600    0.358000    0.381300
     26          1           0       -6.645900    0.906500   -0.482800
     27          1           0       -6.284600   -0.711800    0.159400
     28          1           0       -6.915500    0.549100    1.233100
     29          6           0       -3.601700    1.836900   -1.322400
     30          1           0       -4.549400    2.103200   -1.803900
     31          1           0       -3.239500    2.698700   -0.759600
     32          1           0       -2.874000    1.612300   -2.106600
     33          6           0       -4.090600   -0.612000   -1.296700
     34          1           0       -4.239600   -1.508400   -0.684900
     35          1           0       -4.982500   -0.462800   -1.913700
     36          1           0       -3.237500   -0.777500   -1.959600
     37         15           0        2.368800    0.069200   -0.610400
     38          8           0        0.950600    0.030300   -0.027300
     39          8           0        2.655800    0.928600   -1.820000
     40          7           0       -0.879100   -2.261500    0.719700
     41          1           0       -1.562600   -2.039000   -0.001700
     42          1           0       -0.147200   -1.553300    0.646400
     43          3           0       -0.708800    0.688900   -0.611000
     44          6           0       -0.851000    3.183300    0.833100
     45          8           0       -0.611500    2.680200   -0.481600
     46          6           0        0.571500    3.330600   -0.978800
     47          6           0        1.393300    3.754400    0.254500
     48          6           0        0.535600    3.300800    1.449400
     49          1           0       -1.349700    4.162300    0.765900
     50          1           0       -1.514300    2.480300    1.340600
     51          1           0        1.101900    2.611700   -1.607100
     52          1           0        0.263600    4.196700   -1.578700
     53          1           0        2.377600    3.278300    0.260600
     54          1           0        1.541700    4.838800    0.264200
     55          1           0        0.864500    2.319100    1.803100
     56          1           0        0.562100    4.003200    2.287500
     57          6           0       -0.638500    0.714600   -3.579600
     58          8           0       -0.972400   -0.080000   -2.431700
     59          6           0       -0.543700   -1.442600   -2.635600
     60          6           0        0.080800   -1.491900   -4.029900
     61          6           0        0.493700   -0.035200   -4.263400
     62          1           0       -1.523300    0.795200   -4.227100
     63          1           0       -0.363000    1.712600   -3.229200
     64          1           0        0.178200   -1.686500   -1.851300
     65          1           0       -1.413900   -2.100300   -2.533900
     66          1           0        0.923400   -2.187900   -4.067400
     67          1           0       -0.660200   -1.805600   -4.774100
     68          1           0        1.435200    0.188400   -3.751100
     69          1           0        0.581900    0.221800   -5.323100
     70          6           0        3.476400    0.550700    0.764100
     71          6           0        4.744000    1.077200    0.492500
     72          6           0        3.074600    0.402800    2.095500
     73          6           0        5.593600    1.451200    1.532300
     74          1           0        5.060200    1.204200   -0.539900
     75          6           0        3.921500    0.776500    3.138300
     76          1           0        2.087700    0.004700    2.313400
     77          6           0        5.182800    1.301400    2.857600
     78          1           0        6.574400    1.863400    1.309300
     79          1           0        3.595600    0.661200    4.169000
     80          1           0        5.843500    1.595200    3.669100
     81          6           0        2.828500   -1.661700   -0.994000
     82          6           0        3.374400   -1.980200   -2.240200
     83          6           0        2.611100   -2.686600   -0.065400
     84          6           0        3.691300   -3.301100   -2.559200
     85          1           0        3.542000   -1.185500   -2.962400
     86          6           0        2.929300   -4.005600   -0.378700
     87          1           0        2.183900   -2.455800    0.907700
     88          6           0        3.468200   -4.315200   -1.629000
     89          1           0        4.111100   -3.537800   -3.533700
     90          1           0        2.751900   -4.793200    0.349000
     91          1           0        3.713500   -5.345100   -1.875500
 ---------------------------------------------------------------------
 Rotational constants (GHZ):           0.1137338           0.0678652           0.0633082
 Standard basis: 6-311++G(d,p) (5D, 7F)
  1260 basis functions,  1940 primitive gaussians,  1301 cartesian basis functions
   157 alpha electrons      157 beta electrons
       nuclear repulsion energy      5710.2167166137 Hartrees.
 NAtoms=   91 NActive=   91 NUniq=   91 SFac= 1.00D+00 NAtFMM=   60 NAOKFM=T Big=T
 Integral buffers will be    131072 words long.
 Raffenetti 2 integral format.
 Two-electron integral symmetry is turned off.
 Nuclear repulsion after empirical dispersion term =     5710.0987301427 Hartrees.
 ------------------------------------------------------------------------------
 Polarizable Continuum Model (PCM)
 =================================
 Model                : PCM.
 Atomic radii         : SMD-Coulomb.
 Polarization charges : Total charges.
 Charge compensation  : None.
 Solution method      : On-the-fly selection.
 Cavity type          : VdW (van der Waals Surface) (Alpha=1.000).
 Cavity algorithm     : GePol (No added spheres)
                        Default sphere list used, NSphG=   91.
                        Lebedev-Laikov grids with approx.  5.0 points / Ang**2.
                        Smoothing algorithm: York/Karplus (Gamma=1.0000).
                        Polarization charges: spherical gaussians, with
                                              point-specific exponents (IZeta= 3).
                        Self-potential: point-specific (ISelfS= 7).
                        Self-field    : sphere-specific E.n sum rule (ISelfD= 2).
 Solvent              : TetraHydroFuran, Eps=   7.425700 Eps(inf)=   1.974025
 ------------------------------------------------------------------------------
 ------------------------------------------------------------------------------
 Atomic radii for non-electrostatic terms: SMD-CDS.
 ------------------------------------------------------------------------------
 Nuclear repulsion after PCM non-electrostatic terms =     5710.0890531168 Hartrees.
 One-electron integrals computed using PRISM.
 NBasis=  1260 RedAO= T EigKep=  1.01D-06  NBF=  1260
 NBsUse=  1251 1.00D-06 EigRej=  9.34D-07 NBFU=  1251
 ExpMin= 7.40D-03 ExpMax= 7.75D+04 ExpMxC= 2.65D+03 IAcc=3 IRadAn=         5 AccDes= 0.00D+00
 Harris functional with IExCor= 4639 and IRadAn=       5 diagonalized for initial guess.
 HarFok:  IExCor= 4639 AccDes= 0.00D+00 IRadAn=         5 IDoV= 1 UseB2=F ITyADJ=14
 ICtDFT=  3500011 ScaDFX=  1.000000  1.000000  1.000000  1.000000
 FoFCou: FMM=F IPFlag=           0 FMFlag=      100000 FMFlg1=        2001
         NFxFlg=           0 DoJE=T BraDBF=F KetDBF=T FulRan=T
         wScrn=  0.000000 ICntrl=       500 IOpCl=  0 I1Cent=   200000004 NGrid=           0
         NMat0=    1 NMatS0=      1 NMatT0=    0 NMatD0=    1 NMtDS0=    0 NMtDT0=    0
 Symmetry not used in FoFCou.
 Requested convergence on RMS density matrix=1.00D-08 within 128 cycles.
 Requested convergence on MAX density matrix=1.00D-06.
 Requested convergence on             energy=1.00D-06.
 No special actions if energy rises.
 Inv3:  Mode=1 IEnd=    90091200.
 Iteration    1 A*A^-1 deviation from unit magnitude is 7.22D-15 for   5476.
 Iteration    1 A*A^-1 deviation from orthogonality  is 2.72D-15 for   4172   3808.
 Iteration    1 A^-1*A deviation from unit magnitude is 7.22D-15 for   5476.
 Iteration    1 A^-1*A deviation from orthogonality  is 1.62D-10 for   4701   4657.
 Iteration    2 A*A^-1 deviation from unit magnitude is 2.22D-15 for   1747.
 Iteration    2 A*A^-1 deviation from orthogonality  is 3.10D-15 for   2184    828.
 Iteration    2 A^-1*A deviation from unit magnitude is 1.55D-15 for    243.
 Iteration    2 A^-1*A deviation from orthogonality  is 8.09D-16 for   4838   3560.
 Error on total polarization charges =  0.07671
 SCF Done:  E(RwB97XD) =  -2091.53669680     A.U. after   15 cycles
            NFock= 15  Conv=0.82D-08     -V/T= 2.0040
 SMD-CDS (non-electrostatic) energy       (kcal/mol) =      -6.07
 (included in total energy above)

 **********************************************************************

            Population analysis using the SCF Density.

 **********************************************************************

 Alpha  occ. eigenvalues --  -77.26267 -19.26542 -19.25652 -19.25625 -19.25447
 Alpha  occ. eigenvalues --  -19.18016 -19.16672 -14.39212 -10.35328 -10.34986
 Alpha  occ. eigenvalues --  -10.32288 -10.32270 -10.31960 -10.31385 -10.30351
 Alpha  occ. eigenvalues --  -10.28746 -10.28636 -10.28599 -10.28598 -10.28596
 Alpha  occ. eigenvalues --  -10.28529 -10.28510 -10.28454 -10.28412 -10.28397
 Alpha  occ. eigenvalues --  -10.28194 -10.28103 -10.27431 -10.27176 -10.27067
 Alpha  occ. eigenvalues --  -10.27063 -10.27008 -10.26949 -10.26875 -10.26869
 Alpha  occ. eigenvalues --  -10.26805 -10.25971 -10.25952 -10.25891  -6.87707
 Alpha  occ. eigenvalues --   -6.70583  -4.85307  -4.85269  -4.85262  -2.00059
 Alpha  occ. eigenvalues --   -1.17524  -1.14590  -1.14343  -1.10397  -1.06914
 Alpha  occ. eigenvalues --   -1.00850  -0.97623  -0.95507  -0.95352  -0.91279
 Alpha  occ. eigenvalues --   -0.87904  -0.87830  -0.87392  -0.85189  -0.84953
 Alpha  occ. eigenvalues --   -0.84310  -0.84193  -0.83985  -0.83493  -0.83121
 Alpha  occ. eigenvalues --   -0.81324  -0.80346  -0.77434  -0.76676  -0.72159
 Alpha  occ. eigenvalues --   -0.71325  -0.70367  -0.69546  -0.69229  -0.68762
 Alpha  occ. eigenvalues --   -0.68706  -0.68385  -0.68121  -0.67758  -0.65938
 Alpha  occ. eigenvalues --   -0.65154  -0.63428  -0.62357  -0.60688  -0.59585
 Alpha  occ. eigenvalues --   -0.58981  -0.58454  -0.58399  -0.57755  -0.56985
 Alpha  occ. eigenvalues --   -0.56651  -0.56042  -0.54329  -0.53924  -0.53611
 Alpha  occ. eigenvalues --   -0.53503  -0.53313  -0.53255  -0.53169  -0.52788
 Alpha  occ. eigenvalues --   -0.52497  -0.52139  -0.50958  -0.50494  -0.50309
 Alpha  occ. eigenvalues --   -0.50184  -0.49998  -0.49819  -0.49425  -0.48876
 Alpha  occ. eigenvalues --   -0.48786  -0.48548  -0.48273  -0.48228  -0.47705
 Alpha  occ. eigenvalues --   -0.47378  -0.46418  -0.46135  -0.45893  -0.45501
 Alpha  occ. eigenvalues --   -0.45383  -0.45067  -0.45012  -0.44560  -0.44167
 Alpha  occ. eigenvalues --   -0.43890  -0.43682  -0.43401  -0.43228  -0.42879
 Alpha  occ. eigenvalues --   -0.42845  -0.42771  -0.42432  -0.42041  -0.42030
 Alpha  occ. eigenvalues --   -0.41772  -0.41719  -0.41284  -0.41042  -0.40680
 Alpha  occ. eigenvalues --   -0.40372  -0.40047  -0.39300  -0.39076  -0.37317
 Alpha  occ. eigenvalues --   -0.37066  -0.36247  -0.35939  -0.34798  -0.34510
 Alpha  occ. eigenvalues --   -0.33861  -0.33459  -0.33024  -0.32778  -0.32462
 Alpha  occ. eigenvalues --   -0.31558  -0.30721
 Alpha virt. eigenvalues --    0.02204   0.02484   0.02592   0.02798   0.03423
 Alpha virt. eigenvalues --    0.05070   0.05432   0.05682   0.05747   0.05836
 Alpha virt. eigenvalues --    0.06067   0.06108   0.06301   0.06803   0.06965
 Alpha virt. eigenvalues --    0.07088   0.07153   0.07189   0.07439   0.07656
 Alpha virt. eigenvalues --    0.07691   0.07806   0.07999   0.08394   0.08594
 Alpha virt. eigenvalues --    0.08763   0.08946   0.09155   0.09630   0.09812
 Alpha virt. eigenvalues --    0.09865   0.10131   0.10416   0.10501   0.10728
 Alpha virt. eigenvalues --    0.11071   0.11293   0.11510   0.11868   0.12270
 Alpha virt. eigenvalues --    0.12332   0.12405   0.12758   0.12931   0.13176
 Alpha virt. eigenvalues --    0.13364   0.13785   0.13962   0.14011   0.14241
 Alpha virt. eigenvalues --    0.14525   0.14759   0.15028   0.15190   0.15257
 Alpha virt. eigenvalues --    0.15352   0.15530   0.15966   0.16061   0.16112
 Alpha virt. eigenvalues --    0.16303   0.16557   0.16755   0.16892   0.17013
 Alpha virt. eigenvalues --    0.17140   0.17222   0.17352   0.17509   0.17702
 Alpha virt. eigenvalues --    0.17888   0.17985   0.18098   0.18237   0.18362
 Alpha virt. eigenvalues --    0.18563   0.18672   0.18719   0.18814   0.18874
 Alpha virt. eigenvalues --    0.19118   0.19200   0.19365   0.19413   0.19541
 Alpha virt. eigenvalues --    0.19650   0.19731   0.19955   0.20016   0.20181
 Alpha virt. eigenvalues --    0.20311   0.20326   0.20690   0.20877   0.20968
 Alpha virt. eigenvalues --    0.21132   0.21362   0.21393   0.21501   0.21703
 Alpha virt. eigenvalues --    0.21810   0.21963   0.22075   0.22187   0.22300
 Alpha virt. eigenvalues --    0.22390   0.22540   0.22624   0.22783   0.22866
 Alpha virt. eigenvalues --    0.22937   0.23105   0.23236   0.23411   0.23541
 Alpha virt. eigenvalues --    0.23565   0.23802   0.23975   0.24153   0.24177
 Alpha virt. eigenvalues --    0.24356   0.24455   0.24637   0.24712   0.24765
 Alpha virt. eigenvalues --    0.25001   0.25084   0.25217   0.25330   0.25496
 Alpha virt. eigenvalues --    0.25679   0.25859   0.25972   0.26108   0.26243
 Alpha virt. eigenvalues --    0.26335   0.26429   0.26563   0.26816   0.26929
 Alpha virt. eigenvalues --    0.26964   0.27037   0.27412   0.27719   0.27823
 Alpha virt. eigenvalues --    0.27894   0.27964   0.28099   0.28244   0.28344
 Alpha virt. eigenvalues --    0.28586   0.28705   0.28858   0.29014   0.29094
 Alpha virt. eigenvalues --    0.29290   0.29338   0.29553   0.29845   0.29922
 Alpha virt. eigenvalues --    0.29978   0.30048   0.30198   0.30345   0.30610
 Alpha virt. eigenvalues --    0.30762   0.30937   0.31097   0.31247   0.31436
 Alpha virt. eigenvalues --    0.31559   0.31788   0.31992   0.32044   0.32178
 Alpha virt. eigenvalues --    0.32309   0.32410   0.32661   0.32902   0.33167
 Alpha virt. eigenvalues --    0.33326   0.33396   0.33535   0.33769   0.33835
 Alpha virt. eigenvalues --    0.34049   0.34133   0.34289   0.34532   0.34716
 Alpha virt. eigenvalues --    0.34826   0.35040   0.35245   0.35323   0.35586
 Alpha virt. eigenvalues --    0.35680   0.35726   0.35997   0.36073   0.36226
 Alpha virt. eigenvalues --    0.36354   0.36486   0.36723   0.36914   0.36963
 Alpha virt. eigenvalues --    0.37107   0.37393   0.37520   0.37699   0.37803
 Alpha virt. eigenvalues --    0.38118   0.38179   0.38435   0.38556   0.38687
 Alpha virt. eigenvalues --    0.38836   0.39187   0.39262   0.39526   0.39574
 Alpha virt. eigenvalues --    0.39870   0.39951   0.40135   0.40210   0.40310
 Alpha virt. eigenvalues --    0.40484   0.40675   0.40794   0.40988   0.41058
 Alpha virt. eigenvalues --    0.41433   0.41618   0.41762   0.41910   0.42098
 Alpha virt. eigenvalues --    0.42138   0.42268   0.42412   0.42604   0.42781
 Alpha virt. eigenvalues --    0.43279   0.43367   0.43474   0.43586   0.43760
 Alpha virt. eigenvalues --    0.43844   0.44119   0.44162   0.44511   0.44676
 Alpha virt. eigenvalues --    0.44820   0.45127   0.45244   0.45498   0.45747
 Alpha virt. eigenvalues --    0.45814   0.46427   0.46489   0.46747   0.46876
 Alpha virt. eigenvalues --    0.47015   0.47686   0.47770   0.47787   0.48451
 Alpha virt. eigenvalues --    0.48615   0.48857   0.49093   0.49173   0.49546
 Alpha virt. eigenvalues --    0.50046   0.50192   0.50239   0.50590   0.50693
 Alpha virt. eigenvalues --    0.51102   0.51619   0.51695   0.51988   0.52922
 Alpha virt. eigenvalues --    0.53069   0.53310   0.53735   0.53905   0.54121
 Alpha virt. eigenvalues --    0.54620   0.54922   0.55268   0.55475   0.56065
 Alpha virt. eigenvalues --    0.56444   0.56624   0.56927   0.57018   0.57711
 Alpha virt. eigenvalues --    0.58018   0.58835   0.58931   0.59213   0.59430
 Alpha virt. eigenvalues --    0.59488   0.59806   0.60446   0.60536   0.60715
 Alpha virt. eigenvalues --    0.61203   0.61754   0.62017   0.62244   0.62694
 Alpha virt. eigenvalues --    0.62956   0.63228   0.63412   0.63994   0.64542
 Alpha virt. eigenvalues --    0.64573   0.64946   0.65113   0.65483   0.65566
 Alpha virt. eigenvalues --    0.65907   0.66366   0.66443   0.66881   0.66966
 Alpha virt. eigenvalues --    0.67177   0.67610   0.67825   0.68175   0.68531
 Alpha virt. eigenvalues --    0.68818   0.69101   0.69446   0.69846   0.70247
 Alpha virt. eigenvalues --    0.70343   0.70575   0.70738   0.71363   0.71398
 Alpha virt. eigenvalues --    0.71835   0.71914   0.72315   0.72502   0.72716
 Alpha virt. eigenvalues --    0.72958   0.73154   0.73472   0.73746   0.74045
 Alpha virt. eigenvalues --    0.74333   0.74620   0.74707   0.74987   0.75326
 Alpha virt. eigenvalues --    0.75790   0.76108   0.76335   0.76463   0.76943
 Alpha virt. eigenvalues --    0.77020   0.77242   0.77532   0.77817   0.78077
 Alpha virt. eigenvalues --    0.78370   0.78604   0.79012   0.79314   0.79598
 Alpha virt. eigenvalues --    0.79665   0.79985   0.80099   0.80220   0.80250
 Alpha virt. eigenvalues --    0.80943   0.81016   0.81330   0.81558   0.81844
 Alpha virt. eigenvalues --    0.82062   0.82443   0.82498   0.82680   0.82849
 Alpha virt. eigenvalues --    0.83244   0.83319   0.83753   0.83996   0.84288
 Alpha virt. eigenvalues --    0.84445   0.84621   0.84748   0.85031   0.85159
 Alpha virt. eigenvalues --    0.85469   0.85679   0.85918   0.86307   0.86530
 Alpha virt. eigenvalues --    0.86676   0.86980   0.87273   0.87526   0.87788
 Alpha virt. eigenvalues --    0.87948   0.88016   0.88231   0.88563   0.88851
 Alpha virt. eigenvalues --    0.88942   0.89342   0.89439   0.89583   0.90101
 Alpha virt. eigenvalues --    0.90471   0.90876   0.91011   0.91098   0.91258
 Alpha virt. eigenvalues --    0.91752   0.91857   0.91946   0.92324   0.92871
 Alpha virt. eigenvalues --    0.93014   0.93201   0.93350   0.93708   0.94187
 Alpha virt. eigenvalues --    0.94446   0.94608   0.94873   0.95093   0.95587
 Alpha virt. eigenvalues --    0.95840   0.96031   0.96419   0.96721   0.96975
 Alpha virt. eigenvalues --    0.97143   0.97361   0.97538   0.97817   0.98440
 Alpha virt. eigenvalues --    0.98699   0.99172   0.99351   0.99612   0.99928
 Alpha virt. eigenvalues --    1.00180   1.00522   1.00910   1.01506   1.02106
 Alpha virt. eigenvalues --    1.02391   1.03302   1.03571   1.03784   1.04322
 Alpha virt. eigenvalues --    1.04378   1.05058   1.06196   1.06392   1.06944
 Alpha virt. eigenvalues --    1.07360   1.07648   1.08019   1.08545   1.08676
 Alpha virt. eigenvalues --    1.09716   1.10125   1.10753   1.11125   1.11722
 Alpha virt. eigenvalues --    1.12010   1.12185   1.12667   1.13137   1.13227
 Alpha virt. eigenvalues --    1.14159   1.14279   1.14506   1.14927   1.15051
 Alpha virt. eigenvalues --    1.15970   1.16110   1.16426   1.17109   1.17688
 Alpha virt. eigenvalues --    1.18150   1.18586   1.19187   1.19954   1.20076
 Alpha virt. eigenvalues --    1.20909   1.21155   1.21634   1.22125   1.22420
 Alpha virt. eigenvalues --    1.22860   1.23782   1.23972   1.24550   1.25560
 Alpha virt. eigenvalues --    1.25575   1.26078   1.26680   1.26942   1.27802
 Alpha virt. eigenvalues --    1.28182   1.28958   1.29223   1.29764   1.30179
 Alpha virt. eigenvalues --    1.30930   1.31367   1.31933   1.33074   1.33366
 Alpha virt. eigenvalues --    1.34122   1.34473   1.35162   1.35299   1.35528
 Alpha virt. eigenvalues --    1.36498   1.36855   1.37294   1.37719   1.38179
 Alpha virt. eigenvalues --    1.38403   1.39541   1.40117   1.40464   1.41294
 Alpha virt. eigenvalues --    1.41834   1.42212   1.43013   1.43573   1.43686
 Alpha virt. eigenvalues --    1.44644   1.44860   1.45100   1.45829   1.46650
 Alpha virt. eigenvalues --    1.47708   1.48576   1.48733   1.49129   1.49363
 Alpha virt. eigenvalues --    1.50079   1.50998   1.51531   1.52683   1.52948
 Alpha virt. eigenvalues --    1.53459   1.53818   1.54827   1.55497   1.55732
 Alpha virt. eigenvalues --    1.56774   1.56915   1.57265   1.57483   1.58547
 Alpha virt. eigenvalues --    1.59278   1.59524   1.60329   1.60723   1.61065
 Alpha virt. eigenvalues --    1.61705   1.62214   1.62405   1.63019   1.63258
 Alpha virt. eigenvalues --    1.63651   1.64150   1.64327   1.64647   1.64952
 Alpha virt. eigenvalues --    1.65159   1.65481   1.65572   1.65836   1.66448
 Alpha virt. eigenvalues --    1.66609   1.66957   1.67415   1.67553   1.67950
 Alpha virt. eigenvalues --    1.68243   1.68804   1.68966   1.69259   1.69412
 Alpha virt. eigenvalues --    1.69778   1.70376   1.70547   1.70951   1.70992
 Alpha virt. eigenvalues --    1.71599   1.71696   1.72363   1.72714   1.72905
 Alpha virt. eigenvalues --    1.73344   1.73547   1.73933   1.74270   1.74554
 Alpha virt. eigenvalues --    1.75057   1.75416   1.75507   1.75764   1.76262
 Alpha virt. eigenvalues --    1.76535   1.76737   1.77037   1.77752   1.77879
 Alpha virt. eigenvalues --    1.78213   1.78346   1.78728   1.79028   1.79386
 Alpha virt. eigenvalues --    1.79740   1.80047   1.80445   1.80587   1.81373
 Alpha virt. eigenvalues --    1.81701   1.82094   1.82191   1.82505   1.83154
 Alpha virt. eigenvalues --    1.83188   1.83480   1.83510   1.83828   1.84290
 Alpha virt. eigenvalues --    1.84447   1.85238   1.85544   1.85750   1.85925
 Alpha virt. eigenvalues --    1.86550   1.86912   1.87350   1.87957   1.88300
 Alpha virt. eigenvalues --    1.88515   1.88648   1.89391   1.89529   1.89762
 Alpha virt. eigenvalues --    1.90186   1.90394   1.90619   1.91261   1.91544
 Alpha virt. eigenvalues --    1.91898   1.92040   1.92530   1.92696   1.93371
 Alpha virt. eigenvalues --    1.93673   1.94083   1.94468   1.94951   1.95122
 Alpha virt. eigenvalues --    1.95951   1.96301   1.96647   1.97218   1.97468
 Alpha virt. eigenvalues --    1.97882   1.98620   1.98788   1.98841   1.99394
 Alpha virt. eigenvalues --    1.99516   2.00192   2.00721   2.00981   2.01299
 Alpha virt. eigenvalues --    2.01755   2.02317   2.02693   2.03010   2.03638
 Alpha virt. eigenvalues --    2.03823   2.03888   2.05056   2.05132   2.05953
 Alpha virt. eigenvalues --    2.06109   2.06478   2.06899   2.07221   2.07534
 Alpha virt. eigenvalues --    2.07623   2.08044   2.08246   2.08622   2.09398
 Alpha virt. eigenvalues --    2.09978   2.10500   2.10542   2.10914   2.11714
 Alpha virt. eigenvalues --    2.12024   2.12302   2.12581   2.12894   2.13616
 Alpha virt. eigenvalues --    2.13863   2.14586   2.15402   2.15533   2.16045
 Alpha virt. eigenvalues --    2.16455   2.17044   2.17222   2.17814   2.18250
 Alpha virt. eigenvalues --    2.18874   2.19624   2.19888   2.20425   2.20608
 Alpha virt. eigenvalues --    2.21058   2.21781   2.22512   2.22753   2.23027
 Alpha virt. eigenvalues --    2.23817   2.25035   2.25405   2.25922   2.26588
 Alpha virt. eigenvalues --    2.26952   2.27677   2.28460   2.28715   2.29764
 Alpha virt. eigenvalues --    2.30844   2.31402   2.31893   2.32341   2.32895
 Alpha virt. eigenvalues --    2.33949   2.34152   2.34760   2.35625   2.36286
 Alpha virt. eigenvalues --    2.36890   2.37636   2.38057   2.38656   2.39436
 Alpha virt. eigenvalues --    2.39599   2.40024   2.40807   2.41810   2.42007
 Alpha virt. eigenvalues --    2.42941   2.43208   2.43335   2.43616   2.43807
 Alpha virt. eigenvalues --    2.44578   2.45074   2.45628   2.46960   2.47803
 Alpha virt. eigenvalues --    2.48496   2.48945   2.49991   2.50571   2.51505
 Alpha virt. eigenvalues --    2.51897   2.52976   2.53815   2.54059   2.54647
 Alpha virt. eigenvalues --    2.54989   2.55770   2.57104   2.58431   2.59724
 Alpha virt. eigenvalues --    2.60155   2.60267   2.60357   2.61743   2.62274
 Alpha virt. eigenvalues --    2.62568   2.63251   2.63634   2.64210   2.64485
 Alpha virt. eigenvalues --    2.64891   2.65487   2.65653   2.65948   2.66668
 Alpha virt. eigenvalues --    2.66861   2.67284   2.67514   2.67701   2.67768
 Alpha virt. eigenvalues --    2.69044   2.69438   2.69802   2.70204   2.70432
 Alpha virt. eigenvalues --    2.70939   2.71361   2.71878   2.72300   2.73172
 Alpha virt. eigenvalues --    2.74202   2.74759   2.75082   2.75269   2.75742
 Alpha virt. eigenvalues --    2.75803   2.76205   2.77016   2.77436   2.77960
 Alpha virt. eigenvalues --    2.78958   2.79071   2.79379   2.80392   2.80866
 Alpha virt. eigenvalues --    2.81760   2.82131   2.82370   2.83333   2.83516
 Alpha virt. eigenvalues --    2.83703   2.84222   2.85010   2.86097   2.86352
 Alpha virt. eigenvalues --    2.86662   2.86956   2.87247   2.88001   2.88125
 Alpha virt. eigenvalues --    2.88601   2.89362   2.89753   2.89949   2.90854
 Alpha virt. eigenvalues --    2.90979   2.91292   2.91638   2.92432   2.92729
 Alpha virt. eigenvalues --    2.93166   2.93437   2.93737   2.94450   2.94604
 Alpha virt. eigenvalues --    2.94875   2.95523   2.95911   2.96100   2.96423
 Alpha virt. eigenvalues --    2.96886   2.97372   2.97489   2.98374   2.98529
 Alpha virt. eigenvalues --    2.99145   2.99569   3.00004   3.00201   3.00335
 Alpha virt. eigenvalues --    3.00831   3.01418   3.01823   3.02217   3.02778
 Alpha virt. eigenvalues --    3.03019   3.03431   3.04292   3.04913   3.05038
 Alpha virt. eigenvalues --    3.05572   3.06196   3.06650   3.06860   3.07359
 Alpha virt. eigenvalues --    3.07825   3.08013   3.08757   3.09577   3.09869
 Alpha virt. eigenvalues --    3.10313   3.11091   3.11643   3.12213   3.12860
 Alpha virt. eigenvalues --    3.13293   3.13890   3.14371   3.14784   3.15075
 Alpha virt. eigenvalues --    3.15925   3.16636   3.17292   3.17785   3.18355
 Alpha virt. eigenvalues --    3.19557   3.19925   3.21032   3.21369   3.21901
 Alpha virt. eigenvalues --    3.22435   3.23402   3.23812   3.24354   3.24928
 Alpha virt. eigenvalues --    3.25606   3.26897   3.26973   3.28288   3.28515
 Alpha virt. eigenvalues --    3.29274   3.30143   3.30802   3.31795   3.32238
 Alpha virt. eigenvalues --    3.32916   3.33495   3.34306   3.35472   3.35826
 Alpha virt. eigenvalues --    3.36907   3.37749   3.38530   3.39423   3.41528
 Alpha virt. eigenvalues --    3.42849   3.43278   3.45154   3.45608   3.46365
 Alpha virt. eigenvalues --    3.47131   3.48776   3.49635   3.50769   3.51221
 Alpha virt. eigenvalues --    3.51922   3.52697   3.53029   3.54627   3.55488
 Alpha virt. eigenvalues --    3.57714   3.64446   3.64790   3.65358   3.66303
 Alpha virt. eigenvalues --    3.66937   3.67484   3.69718   3.74434   3.75264
 Alpha virt. eigenvalues --    3.77401   3.78236   3.78512   3.79577   3.80184
 Alpha virt. eigenvalues --    3.82872   3.86692   3.89362   3.90013   3.90064
 Alpha virt. eigenvalues --    3.90455   3.92194   3.92672   3.93572   3.93722
 Alpha virt. eigenvalues --    3.94471   3.95349   3.95893   3.96554   3.96725
 Alpha virt. eigenvalues --    3.97080   3.97440   3.98568   3.99624   4.00623
 Alpha virt. eigenvalues --    4.01899   4.03682   4.10439   4.11768   4.12276
 Alpha virt. eigenvalues --    4.13012   4.15359   4.15924   4.16042   4.17493
 Alpha virt. eigenvalues --    4.20216   4.23929   4.25820   4.26299   4.27019
 Alpha virt. eigenvalues --    4.28459   4.29167   4.29648   4.30701   4.31450
 Alpha virt. eigenvalues --    4.31853   4.32776   4.34001   4.38347   4.40999
 Alpha virt. eigenvalues --    4.42122   4.43510   4.44909   4.46540   4.47166
 Alpha virt. eigenvalues --    4.48759   4.49584   4.66923   4.92853   4.96140
 Alpha virt. eigenvalues --    4.96247   5.04645   5.36677   5.38407   5.38821
 Alpha virt. eigenvalues --    5.40664   5.42501   5.45106   5.47102   5.51315
 Alpha virt. eigenvalues --    5.56209   5.57881   5.65394   5.68358   5.69033
 Alpha virt. eigenvalues --    5.71412   5.75738   5.77440   5.80338   5.88509
 Alpha virt. eigenvalues --    7.71586  14.37759  14.41587  14.50452  15.04123
 Alpha virt. eigenvalues --   23.78270  23.80984  23.92256  23.96857  24.00489
 Alpha virt. eigenvalues --   24.02002  24.03645  24.04590  24.05697  24.06212
 Alpha virt. eigenvalues --   24.11045  24.12074  24.12454  24.12673  24.13102
 Alpha virt. eigenvalues --   24.13594  24.13792  24.14359  24.14961  24.15025
 Alpha virt. eigenvalues --   24.15128  24.16615  24.18148  24.19699  24.21911
 Alpha virt. eigenvalues --   24.22274  24.22957  24.23825  24.23956  24.32992
 Alpha virt. eigenvalues --   24.33394  35.83664  50.14255  50.16018  50.16508
 Alpha virt. eigenvalues --   50.18535  50.20600  50.24639 163.97620
          Condensed to atoms (all electrons):
 Mulliken charges:
               1
     1  C   -0.144431
     2  C   -0.044876
     3  H    0.208468
     4  C   -0.798801
     5  H    0.219607
     6  H    0.194871
     7  H    0.178472
     8  C   -0.564536
     9  H    0.189700
    10  H    0.172736
    11  H    0.186404
    12  B    0.477813
    13  C   -0.614757
    14  H    0.247028
    15  H    0.243084
    16  H   -0.177872
    17  O   -0.024980
    18  O    0.135093
    19  C   -0.243891
    20  C   -0.479993
    21  C   -0.264326
    22  H    0.238147
    23  H    0.228361
    24  H    0.089667
    25  C   -0.739174
    26  H    0.215366
    27  H    0.204740
    28  H    0.213244
    29  C   -0.835038
    30  H    0.275344
    31  H    0.234501
    32  H    0.121285
    33  C   -0.066875
    34  H    0.190338
    35  H    0.251860
    36  H    0.193670
    37  P   -0.305668
    38  O   -0.126624
    39  O   -0.173213
    40  N   -0.354536
    41  H    0.365276
    42  H    0.134506
    43  Li  -0.519449
    44  C   -0.167416
    45  O    0.147537
    46  C   -0.392839
    47  C   -0.522535
    48  C   -0.283049
    49  H    0.237036
    50  H    0.384888
    51  H    0.035536
    52  H    0.182309
    53  H    0.179142
    54  H    0.255928
    55  H    0.144706
    56  H    0.252985
    57  C   -0.165935
    58  O    0.144234
    59  C    0.070847
    60  C   -0.702438
    61  C   -0.422953
    62  H    0.221084
    63  H    0.120853
    64  H   -0.088652
    65  H    0.250762
    66  H    0.217540
    67  H    0.232722
    68  H    0.199565
    69  H    0.262890
    70  C   -0.133734
    71  C    0.078724
    72  C    0.120925
    73  C   -0.360572
    74  H    0.308042
    75  C   -0.145279
    76  H    0.146866
    77  C   -0.632901
    78  H    0.274937
    79  H    0.284794
    80  H    0.257218
    81  C    0.601922
    82  C   -0.168104
    83  C   -0.063761
    84  C   -0.649082
    85  H    0.253083
    86  C   -0.593054
    87  H    0.303497
    88  C   -0.410518
    89  H    0.270042
    90  H    0.273006
    91  H    0.258664
 Sum of Mulliken charges =  -0.00000
 Mulliken charges with hydrogens summed into heavy atoms:
               1
     1  C   -0.144431
     2  C    0.163591
     4  C   -0.205850
     8  C   -0.015696
    12  B    0.477813
    13  C   -0.302517
    17  O   -0.024980
    18  O    0.135093
    19  C   -0.243891
    20  C   -0.479993
    21  C    0.291848
    25  C   -0.105824
    29  C   -0.203908
    33  C    0.568994
    37  P   -0.305668
    38  O   -0.126624
    39  O   -0.173213
    40  N    0.145246
    43  Li  -0.519449
    44  C    0.454507
    45  O    0.147537
    46  C   -0.174993
    47  C   -0.087465
    48  C    0.114642
    57  C    0.176001
    58  O    0.144234
    59  C    0.232957
    60  C   -0.252177
    61  C    0.039502
    70  C   -0.133734
    71  C    0.386766
    72  C    0.267791
    73  C   -0.085635
    75  C    0.139515
    77  C   -0.375683
    81  C    0.601922
    82  C    0.084979
    83  C    0.239736
    84  C   -0.379040
    86  C   -0.320048
    88  C   -0.151854
 Electronic spatial extent (au):  <R**2>=          20341.5335
 Charge=             -0.0000 electrons
 Dipole moment (field-independent basis, Debye):
    X=             -8.0425    Y=              3.2804    Z=             -0.7315  Tot=              8.7165
 Quadrupole moment (field-independent basis, Debye-Ang):
   XX=           -242.8670   YY=           -243.6528   ZZ=           -238.8572
   XY=             -9.7716   XZ=             15.2048   YZ=              8.9962
 Traceless Quadrupole moment (field-independent basis, Debye-Ang):
   XX=             -1.0747   YY=             -1.8605   ZZ=              2.9352
   XY=             -9.7716   XZ=             15.2048   YZ=              8.9962
 Octapole moment (field-independent basis, Debye-Ang**2):
  XXX=           -127.1597  YYY=             42.3190  ZZZ=            -60.1389  XYY=             -2.7214
  XXY=             56.6507  XXZ=            -19.9742  XZZ=             17.1067  YZZ=             -7.2566
  YYZ=            -12.2014  XYZ=             24.4076
 Hexadecapole moment (field-independent basis, Debye-Ang**3):
 XXXX=         -14106.0747 YYYY=          -6123.4372 ZZZZ=          -6314.5560 XXXY=            556.6712
 XXXZ=            746.8471 YYYX=            267.4225 YYYZ=           -369.7865 ZZZX=            613.8143
 ZZZY=           -346.2384 XXYY=          -3447.8969 XXZZ=          -3502.7552 YYZZ=          -2117.9895
 XXYZ=             33.4523 YYXZ=             86.9437 ZZXY=             99.6877
 N-N= 5.710089053117D+03 E-N=-1.631385445418D+04  KE= 2.083184405162D+03
 Unable to Open any file for archive entry.
 1\1\GINC-NODE19\SP\RwB97XD\6-311++G(d,p)\C31H50B1Li1N1O6P1\WHUGHES2\08
 -Oct-2025\0\\# wb97xd/6-311++g** nosymm int=ultrafine scrf=(smd,solven
 t=tetrahydrofuran)\\syn-product-phos-full-c7_tzpop-sp\\0,1\C,0,-1.9896
 ,-0.8685,2.5732\C,0,-1.5288,-2.2679,2.0336\H,0,-0.7778,-2.6314,2.7521\
 C,0,-2.6624,-3.293,1.9816\H,0,-2.2843,-4.2385,1.5783\H,0,-3.0864,-3.49
 22,2.9694\H,0,-3.4778,-2.9516,1.3286\C,0,-2.6812,-1.0382,3.9382\H,0,-2
 .8499,-0.0627,4.4101\H,0,-3.654,-1.5331,3.8652\H,0,-2.0488,-1.6284,4.6
 171\B,0,-2.9694,-0.1747,1.5452\C,0,-0.752,0.0257,2.787\H,0,-1.0376,1.0
 005,3.2027\H,0,-0.0691,-0.4479,3.5077\H,0,-0.1884,0.2082,1.8681\O,0,-2
 .5841,0.3346,0.3119\O,0,-4.3082,-0.0094,1.7648\C,0,-4.8462,0.826,0.711
 3\C,0,-3.8089,0.6194,-0.4395\C,0,-4.8773,2.2558,1.2495\H,0,-5.3348,2.9
 409,0.5288\H,0,-5.4718,2.2768,2.1685\H,0,-3.8722,2.6211,1.4861\C,0,-6.
 2546,0.358,0.3813\H,0,-6.6459,0.9065,-0.4828\H,0,-6.2846,-0.7118,0.159
 4\H,0,-6.9155,0.5491,1.2331\C,0,-3.6017,1.8369,-1.3224\H,0,-4.5494,2.1
 032,-1.8039\H,0,-3.2395,2.6987,-0.7596\H,0,-2.874,1.6123,-2.1066\C,0,-
 4.0906,-0.612,-1.2967\H,0,-4.2396,-1.5084,-0.6849\H,0,-4.9825,-0.4628,
 -1.9137\H,0,-3.2375,-0.7775,-1.9596\P,0,2.3688,0.0692,-0.6104\O,0,0.95
 06,0.0303,-0.0273\O,0,2.6558,0.9286,-1.82\N,0,-0.8791,-2.2615,0.7197\H
 ,0,-1.5626,-2.039,-0.0017\H,0,-0.1472,-1.5533,0.6464\Li,0,-0.7088,0.68
 89,-0.611\C,0,-0.851,3.1833,0.8331\O,0,-0.6115,2.6802,-0.4816\C,0,0.57
 15,3.3306,-0.9788\C,0,1.3933,3.7544,0.2545\C,0,0.5356,3.3008,1.4494\H,
 0,-1.3497,4.1623,0.7659\H,0,-1.5143,2.4803,1.3406\H,0,1.1019,2.6117,-1
 .6071\H,0,0.2636,4.1967,-1.5787\H,0,2.3776,3.2783,0.2606\H,0,1.5417,4.
 8388,0.2642\H,0,0.8645,2.3191,1.8031\H,0,0.5621,4.0032,2.2875\C,0,-0.6
 385,0.7146,-3.5796\O,0,-0.9724,-0.08,-2.4317\C,0,-0.5437,-1.4426,-2.63
 56\C,0,0.0808,-1.4919,-4.0299\C,0,0.4937,-0.0352,-4.2634\H,0,-1.5233,0
 .7952,-4.2271\H,0,-0.363,1.7126,-3.2292\H,0,0.1782,-1.6865,-1.8513\H,0
 ,-1.4139,-2.1003,-2.5339\H,0,0.9234,-2.1879,-4.0674\H,0,-0.6602,-1.805
 6,-4.7741\H,0,1.4352,0.1884,-3.7511\H,0,0.5819,0.2218,-5.3231\C,0,3.47
 64,0.5507,0.7641\C,0,4.744,1.0772,0.4925\C,0,3.0746,0.4028,2.0955\C,0,
 5.5936,1.4512,1.5323\H,0,5.0602,1.2042,-0.5399\C,0,3.9215,0.7765,3.138
 3\H,0,2.0877,0.0047,2.3134\C,0,5.1828,1.3014,2.8576\H,0,6.5744,1.8634,
 1.3093\H,0,3.5956,0.6612,4.169\H,0,5.8435,1.5952,3.6691\C,0,2.8285,-1.
 6617,-0.994\C,0,3.3744,-1.9802,-2.2402\C,0,2.6111,-2.6866,-0.0654\C,0,
 3.6913,-3.3011,-2.5592\H,0,3.542,-1.1855,-2.9624\C,0,2.9293,-4.0056,-0
 .3787\H,0,2.1839,-2.4558,0.9077\C,0,3.4682,-4.3152,-1.629\H,0,4.1111,-
 3.5378,-3.5337\H,0,2.7519,-4.7932,0.349\H,0,3.7135,-5.3451,-1.8755\\Ve
 rsion=AS64L-G16RevC.01\HF=-2091.5366968\RMSD=8.230e-09\Dipole=-3.16417
 04,1.2906046,-0.2878106\Quadrupole=-0.7990233,-1.3832007,2.182224,-7.2
 649594,11.3043741,6.6884554\PG=C01 [X(C31H50B1Li1N1O6P1)]\\@
 The archive entry for this job was punched.


 Statistics are no substitute for judgment.
                            -- Henry Clay
 Job cpu time:       0 days  7 hours 15 minutes 45.9 seconds.
 Elapsed time:       0 days  1 hours 49 minutes 50.9 seconds.
 File lengths (MBytes):  RWF=   1326 Int=      0 D2E=      0 Chk=     95 Scr=      1
 Normal termination of Gaussian 16 at Wed Oct  8 19:07:42 2025.
