Job Start Time: Fri Sep 19 15:59:08 MDT 2025
SLURM Job ID: 766563
SLURM Job Name: syn-product-phos-full-sp-tzpop
 Entering Gaussian System, Link 0=/opt/apps/Gaussian/G16C/g16/g16
 Initial command:
 /opt/apps/Gaussian/G16C/g16/l1.exe "/tmp/766563/Gau-1247914.inp" -scrdir="/tmp/766563/"
 Entering Link 1 = /opt/apps/Gaussian/G16C/g16/l1.exe PID=   1247915.
  
 Copyright (c) 1988-2019, Gaussian, Inc.  All Rights Reserved.
  
 This is part of the Gaussian(R) 16 program.  It is based on
 the Gaussian(R) 09 system (copyright 2009, Gaussian, Inc.),
 the Gaussian(R) 03 system (copyright 2003, Gaussian, Inc.),
 the Gaussian(R) 98 system (copyright 1998, Gaussian, Inc.),
 the Gaussian(R) 94 system (copyright 1995, Gaussian, Inc.),
 the Gaussian 92(TM) system (copyright 1992, Gaussian, Inc.),
 the Gaussian 90(TM) system (copyright 1990, Gaussian, Inc.),
 the Gaussian 88(TM) system (copyright 1988, Gaussian, Inc.),
 the Gaussian 86(TM) system (copyright 1986, Carnegie Mellon
 University), and the Gaussian 82(TM) system (copyright 1983,
 Carnegie Mellon University). Gaussian is a federally registered
 trademark of Gaussian, Inc.
  
 This software contains proprietary and confidential information,
 including trade secrets, belonging to Gaussian, Inc.
  
 This software is provided under written license and may be
 used, copied, transmitted, or stored only in accord with that
 written license.
  
 The following legend is applicable only to US Government
 contracts under FAR:
  
                    RESTRICTED RIGHTS LEGEND
  
 Use, reproduction and disclosure by the US Government is
 subject to restrictions as set forth in subparagraphs (a)
 and (c) of the Commercial Computer Software - Restricted
 Rights clause in FAR 52.227-19.
  
 Gaussian, Inc.
 340 Quinnipiac St., Bldg. 40, Wallingford CT 06492
  
  
 ---------------------------------------------------------------
 Warning -- This program may not be used in any manner that
 competes with the business of Gaussian, Inc. or will provide
 assistance to any competitor of Gaussian, Inc.  The licensee
 of this program is prohibited from giving any competitor of
 Gaussian, Inc. access to this program.  By using this program,
 the user acknowledges that Gaussian, Inc. is engaged in the
 business of creating and licensing software in the field of
 computational chemistry and represents and warrants to the
 licensee that it is not a competitor of Gaussian, Inc. and that
 it will not use this program in any manner prohibited above.
 ---------------------------------------------------------------
  

 Cite this work as:
 Gaussian 16, Revision C.01,
 M. J. Frisch, G. W. Trucks, H. B. Schlegel, G. E. Scuseria, 
 M. A. Robb, J. R. Cheeseman, G. Scalmani, V. Barone, 
 G. A. Petersson, H. Nakatsuji, X. Li, M. Caricato, A. V. Marenich, 
 J. Bloino, B. G. Janesko, R. Gomperts, B. Mennucci, H. P. Hratchian, 
 J. V. Ortiz, A. F. Izmaylov, J. L. Sonnenberg, D. Williams-Young, 
 F. Ding, F. Lipparini, F. Egidi, J. Goings, B. Peng, A. Petrone, 
 T. Henderson, D. Ranasinghe, V. G. Zakrzewski, J. Gao, N. Rega, 
 G. Zheng, W. Liang, M. Hada, M. Ehara, K. Toyota, R. Fukuda, 
 J. Hasegawa, M. Ishida, T. Nakajima, Y. Honda, O. Kitao, H. Nakai, 
 T. Vreven, K. Throssell, J. A. Montgomery, Jr., J. E. Peralta, 
 F. Ogliaro, M. J. Bearpark, J. J. Heyd, E. N. Brothers, K. N. Kudin, 
 V. N. Staroverov, T. A. Keith, R. Kobayashi, J. Normand, 
 K. Raghavachari, A. P. Rendell, J. C. Burant, S. S. Iyengar, 
 J. Tomasi, M. Cossi, J. M. Millam, M. Klene, C. Adamo, R. Cammi, 
 J. W. Ochterski, R. L. Martin, K. Morokuma, O. Farkas, 
 J. B. Foresman, and D. J. Fox, Gaussian, Inc., Wallingford CT, 2019.
 
 ******************************************
 Gaussian 16:  AS64L-G16RevC.01  3-Jul-2019
                19-Sep-2025 
 ******************************************
 %nproc=16
 Will use up to   16 processors via shared memory.
 %mem=32gb
 %chk=syn-product-phos-full-sp-tzpop.chk
 ----------------------------------------------------------------------
 #p wb97xd/6-311++g** nosymm int=ultrafine scrf=(smd,solvent=tetrahydro
 furan)
 ----------------------------------------------------------------------
 1/38=1,172=1/1;
 2/12=2,15=1,17=6,18=5,40=1/2;
 3/5=4,6=6,7=1111,11=2,25=1,30=1,70=32201,72=20,74=-58,75=-5/1,2,3;
 4//1;
 5/5=2,38=5,53=20/2;
 6/7=2,8=2,9=2,10=2,28=1/1;
 99/5=1,9=1/99;
 Leave Link    1 at Fri Sep 19 15:59:08 2025, MaxMem=  4294967296 cpu:               0.0 elap:               0.0
 (Enter /opt/apps/Gaussian/G16C/g16/l101.exe)
 ---------------------------
 syn-product-phos-full-tzpop
 ---------------------------
 Symbolic Z-matrix:
 Charge =  0 Multiplicity = 1
 6                    -2.25264   1.45442  -1.12753 
 6                    -2.63981   0.90636   0.28044 
 1                    -1.6986    0.75432   0.8345 
 6                    -3.4927    1.87134   1.10365 
 1                    -3.06823   2.87965   1.13531 
 1                    -4.50771   1.94072   0.69469 
 1                    -3.57074   1.51215   2.13752 
 6                    -3.48396   1.92302  -1.91439 
 1                    -3.93869   2.80697  -1.44822 
 1                    -3.21187   2.19917  -2.93997 
 1                    -4.24493   1.13814  -1.97214 
 5                    -1.47966   0.32146  -1.91138 
 6                    -1.25813   2.62781  -1.0001 
 1                    -0.34916   2.33316  -0.4647 
 1                    -0.95233   2.98779  -1.99119 
 1                    -1.69976   3.4808   -0.46942 
 8                    -0.29877  -0.22863  -1.43913 
 8                    -1.8164   -0.16523  -3.1397 
 6                    -0.93581  -1.27897  -3.44114 
 6                     0.30772  -0.97602  -2.54019 
 6                    -0.6453   -1.28196  -4.93356 
 1                    -1.56252  -1.51182  -5.48591 
 1                    -0.27187  -0.31418  -5.27868 
 1                     0.09749  -2.05081  -5.17444 
 6                    -1.6746   -2.55264  -3.03716 
 1                    -1.1046   -3.44281  -3.32541 
 1                    -1.85651  -2.59372  -1.95761 
 1                    -2.63795  -2.58082  -3.5575 
 6                     1.31674  -0.03451  -3.19342 
 1                     2.06039   0.25843  -2.44713 
 1                     1.83826  -0.52916  -4.01917 
 1                     0.83581   0.87164  -3.57833 
 6                     1.00795  -2.20911  -1.99752 
 1                     0.33299  -2.82863  -1.40621 
 1                     1.39992  -2.80451  -2.83029 
 1                     1.84631  -1.91031  -1.36142 
 15                   -0.72662  -2.91131   1.36253 
 8                     0.3539   -1.838     1.25141 
 8                    -1.8514   -2.94487   0.349 
 7                    -3.3737   -0.3614    0.14541 
 1                    -2.7369   -1.15977   0.05946 
 1                    -3.89285  -0.54114   1.00226 
 3                     0.57027  -0.21937   0.39397 
 6                     0.16056   0.52346   3.232 
 8                     0.40834   1.1489    1.96908 
 6                     0.2208    2.55124   2.17171 
 6                     0.64611   2.8398    3.62525 
 6                     0.84564   1.4382    4.2386 
 1                    -0.92529   0.46865   3.40493 
 1                     0.55811  -0.48785   3.17479 
 1                     0.81999   3.07933   1.42662 
 1                    -0.83652   2.7975    2.00996 
 1                     1.56483   3.43168   3.66575 
 1                    -0.13509   3.40002   4.14694 
 1                     1.91054   1.18921   4.29992 
 1                     0.41488   1.34502   5.23938 
 6                     3.29984  -0.51932   1.12579 
 8                     2.52381   0.09094   0.07545 
 6                     2.92133   1.4589   -0.0987 
 6                     3.67989   1.83059   1.16728 
 6                     4.3638    0.50448   1.51258 
 1                     2.62498  -0.74815   1.95717 
 1                     3.71525  -1.45596   0.74279 
 1                     3.56733   1.53076  -0.98409 
 1                     2.02074   2.05472  -0.276 
 1                     4.38396   2.65091   1.00287 
 1                     2.98191   2.11703   1.96064 
 1                     5.26612   0.37205   0.90486 
 1                     4.64319   0.42488   2.5667 
 6                     0.14118  -4.52153   1.37338 
 6                     1.53614  -4.5754    1.30626 
 6                    -0.58361  -5.71752   1.43555 
 6                     2.19882  -5.80338   1.29948 
 1                     2.09795  -3.64638   1.25559 
 6                     0.07487  -6.94516   1.43352 
 1                    -1.66992  -5.68835   1.48401 
 6                     1.46874  -6.98931   1.36386 
 1                     3.28412  -5.83409   1.24359 
 1                    -0.49773  -7.86773   1.48222 
 1                     1.98313  -7.94685   1.35987 
 6                    -1.45246  -2.76235   3.03927 
 6                    -0.63902  -2.80326   4.1782 
 6                    -2.82282  -2.54095   3.19443 
 6                    -1.1822   -2.61183   5.44589 
 1                     0.42942  -2.98148   4.0735 
 6                    -3.37139  -2.34342   4.4629 
 1                    -3.45882  -2.52489   2.3133 
 6                    -2.55138  -2.37555   5.58943 
 1                    -0.54027  -2.64497   6.32258 
 1                    -4.43887  -2.16807   4.57036 
 1                    -2.97652  -2.22353   6.57819 
 
 ITRead=  0  0  0  0  0  0  0  0  0  0  0  0  0  0  0  0  0  0  0  0
 ITRead=  0  0  0  0  0  0  0  0  0  0  0  0  0  0  0  0  0  0  0  0
 ITRead=  0  0  0  0  0  0  0  0  0  0  0  0  0  0  0  0  0  0  0  0
 ITRead=  0  0  0  0  0  0  0  0  0  0  0  0  0  0  0  0  0  0  0  0
 ITRead=  0  0  0  0  0  0  0  0  0  0  0
 MicOpt= -1 -1 -1 -1 -1 -1 -1 -1 -1 -1 -1 -1 -1 -1 -1 -1 -1 -1 -1 -1
 MicOpt= -1 -1 -1 -1 -1 -1 -1 -1 -1 -1 -1 -1 -1 -1 -1 -1 -1 -1 -1 -1
 MicOpt= -1 -1 -1 -1 -1 -1 -1 -1 -1 -1 -1 -1 -1 -1 -1 -1 -1 -1 -1 -1
 MicOpt= -1 -1 -1 -1 -1 -1 -1 -1 -1 -1 -1 -1 -1 -1 -1 -1 -1 -1 -1 -1
 MicOpt= -1 -1 -1 -1 -1 -1 -1 -1 -1 -1 -1
 NAtoms=     91 NQM=       91 NQMF=       0 NMMI=      0 NMMIF=      0
                NMic=       0 NMicF=      0.
                    Isotopes and Nuclear Properties:
 (Nuclear quadrupole moments (NQMom) in fm**2, nuclear magnetic moments (NMagM)
  in nuclear magnetons)

  Atom         1           2           3           4           5           6           7           8           9          10
 IAtWgt=          12          12           1          12           1           1           1          12           1           1
 AtmWgt=  12.0000000  12.0000000   1.0078250  12.0000000   1.0078250   1.0078250   1.0078250  12.0000000   1.0078250   1.0078250
 NucSpn=           0           0           1           0           1           1           1           0           1           1
 AtZEff=  -0.0000000  -0.0000000  -0.0000000  -0.0000000  -0.0000000  -0.0000000  -0.0000000  -0.0000000  -0.0000000  -0.0000000
 NQMom=    0.0000000   0.0000000   0.0000000   0.0000000   0.0000000   0.0000000   0.0000000   0.0000000   0.0000000   0.0000000
 NMagM=    0.0000000   0.0000000   2.7928460   0.0000000   2.7928460   2.7928460   2.7928460   0.0000000   2.7928460   2.7928460
 AtZNuc=   6.0000000   6.0000000   1.0000000   6.0000000   1.0000000   1.0000000   1.0000000   6.0000000   1.0000000   1.0000000

  Atom        11          12          13          14          15          16          17          18          19          20
 IAtWgt=           1          11          12           1           1           1          16          16          12          12
 AtmWgt=   1.0078250  11.0093053  12.0000000   1.0078250   1.0078250   1.0078250  15.9949146  15.9949146  12.0000000  12.0000000
 NucSpn=           1           3           0           1           1           1           0           0           0           0
 AtZEff=  -0.0000000  -0.0000000  -0.0000000  -0.0000000  -0.0000000  -0.0000000  -0.0000000  -0.0000000  -0.0000000  -0.0000000
 NQMom=    0.0000000   4.0590000   0.0000000   0.0000000   0.0000000   0.0000000   0.0000000   0.0000000   0.0000000   0.0000000
 NMagM=    2.7928460   2.6886370   0.0000000   2.7928460   2.7928460   2.7928460   0.0000000   0.0000000   0.0000000   0.0000000
 AtZNuc=   1.0000000   5.0000000   6.0000000   1.0000000   1.0000000   1.0000000   8.0000000   8.0000000   6.0000000   6.0000000

  Atom        21          22          23          24          25          26          27          28          29          30
 IAtWgt=          12           1           1           1          12           1           1           1          12           1
 AtmWgt=  12.0000000   1.0078250   1.0078250   1.0078250  12.0000000   1.0078250   1.0078250   1.0078250  12.0000000   1.0078250
 NucSpn=           0           1           1           1           0           1           1           1           0           1
 AtZEff=  -0.0000000  -0.0000000  -0.0000000  -0.0000000  -0.0000000  -0.0000000  -0.0000000  -0.0000000  -0.0000000  -0.0000000
 NQMom=    0.0000000   0.0000000   0.0000000   0.0000000   0.0000000   0.0000000   0.0000000   0.0000000   0.0000000   0.0000000
 NMagM=    0.0000000   2.7928460   2.7928460   2.7928460   0.0000000   2.7928460   2.7928460   2.7928460   0.0000000   2.7928460
 AtZNuc=   6.0000000   1.0000000   1.0000000   1.0000000   6.0000000   1.0000000   1.0000000   1.0000000   6.0000000   1.0000000

  Atom        31          32          33          34          35          36          37          38          39          40
 IAtWgt=           1           1          12           1           1           1          31          16          16          14
 AtmWgt=   1.0078250   1.0078250  12.0000000   1.0078250   1.0078250   1.0078250  30.9737634  15.9949146  15.9949146  14.0030740
 NucSpn=           1           1           0           1           1           1           1           0           0           2
 AtZEff=  -0.0000000  -0.0000000  -0.0000000  -0.0000000  -0.0000000  -0.0000000  -0.0000000  -0.0000000  -0.0000000  -0.0000000
 NQMom=    0.0000000   0.0000000   0.0000000   0.0000000   0.0000000   0.0000000   0.0000000   0.0000000   0.0000000   2.0440000
 NMagM=    2.7928460   2.7928460   0.0000000   2.7928460   2.7928460   2.7928460   1.1316000   0.0000000   0.0000000   0.4037610
 AtZNuc=   1.0000000   1.0000000   6.0000000   1.0000000   1.0000000   1.0000000  15.0000000   8.0000000   8.0000000   7.0000000

  Atom        41          42          43          44          45          46          47          48          49          50
 IAtWgt=           1           1           7          12          16          12          12          12           1           1
 AtmWgt=   1.0078250   1.0078250   7.0160045  12.0000000  15.9949146  12.0000000  12.0000000  12.0000000   1.0078250   1.0078250
 NucSpn=           1           1           3           0           0           0           0           0           1           1
 AtZEff=  -0.0000000  -0.0000000  -0.0000000  -0.0000000  -0.0000000  -0.0000000  -0.0000000  -0.0000000  -0.0000000  -0.0000000
 NQMom=    0.0000000   0.0000000  -4.0100000   0.0000000   0.0000000   0.0000000   0.0000000   0.0000000   0.0000000   0.0000000
 NMagM=    2.7928460   2.7928460   3.2564240   0.0000000   0.0000000   0.0000000   0.0000000   0.0000000   2.7928460   2.7928460
 AtZNuc=   1.0000000   1.0000000   3.0000000   6.0000000   8.0000000   6.0000000   6.0000000   6.0000000   1.0000000   1.0000000

  Atom        51          52          53          54          55          56          57          58          59          60
 IAtWgt=           1           1           1           1           1           1          12          16          12          12
 AtmWgt=   1.0078250   1.0078250   1.0078250   1.0078250   1.0078250   1.0078250  12.0000000  15.9949146  12.0000000  12.0000000
 NucSpn=           1           1           1           1           1           1           0           0           0           0
 AtZEff=  -0.0000000  -0.0000000  -0.0000000  -0.0000000  -0.0000000  -0.0000000  -0.0000000  -0.0000000  -0.0000000  -0.0000000
 NQMom=    0.0000000   0.0000000   0.0000000   0.0000000   0.0000000   0.0000000   0.0000000   0.0000000   0.0000000   0.0000000
 NMagM=    2.7928460   2.7928460   2.7928460   2.7928460   2.7928460   2.7928460   0.0000000   0.0000000   0.0000000   0.0000000
 AtZNuc=   1.0000000   1.0000000   1.0000000   1.0000000   1.0000000   1.0000000   6.0000000   8.0000000   6.0000000   6.0000000

  Atom        61          62          63          64          65          66          67          68          69          70
 IAtWgt=          12           1           1           1           1           1           1           1           1          12
 AtmWgt=  12.0000000   1.0078250   1.0078250   1.0078250   1.0078250   1.0078250   1.0078250   1.0078250   1.0078250  12.0000000
 NucSpn=           0           1           1           1           1           1           1           1           1           0
 AtZEff=  -0.0000000  -0.0000000  -0.0000000  -0.0000000  -0.0000000  -0.0000000  -0.0000000  -0.0000000  -0.0000000  -0.0000000
 NQMom=    0.0000000   0.0000000   0.0000000   0.0000000   0.0000000   0.0000000   0.0000000   0.0000000   0.0000000   0.0000000
 NMagM=    0.0000000   2.7928460   2.7928460   2.7928460   2.7928460   2.7928460   2.7928460   2.7928460   2.7928460   0.0000000
 AtZNuc=   6.0000000   1.0000000   1.0000000   1.0000000   1.0000000   1.0000000   1.0000000   1.0000000   1.0000000   6.0000000

  Atom        71          72          73          74          75          76          77          78          79          80
 IAtWgt=          12          12          12           1          12           1          12           1           1           1
 AtmWgt=  12.0000000  12.0000000  12.0000000   1.0078250  12.0000000   1.0078250  12.0000000   1.0078250   1.0078250   1.0078250
 NucSpn=           0           0           0           1           0           1           0           1           1           1
 AtZEff=  -0.0000000  -0.0000000  -0.0000000  -0.0000000  -0.0000000  -0.0000000  -0.0000000  -0.0000000  -0.0000000  -0.0000000
 NQMom=    0.0000000   0.0000000   0.0000000   0.0000000   0.0000000   0.0000000   0.0000000   0.0000000   0.0000000   0.0000000
 NMagM=    0.0000000   0.0000000   0.0000000   2.7928460   0.0000000   2.7928460   0.0000000   2.7928460   2.7928460   2.7928460
 AtZNuc=   6.0000000   6.0000000   6.0000000   1.0000000   6.0000000   1.0000000   6.0000000   1.0000000   1.0000000   1.0000000

  Atom        81          82          83          84          85          86          87          88          89          90
 IAtWgt=          12          12          12          12           1          12           1          12           1           1
 AtmWgt=  12.0000000  12.0000000  12.0000000  12.0000000   1.0078250  12.0000000   1.0078250  12.0000000   1.0078250   1.0078250
 NucSpn=           0           0           0           0           1           0           1           0           1           1
 AtZEff=  -0.0000000  -0.0000000  -0.0000000  -0.0000000  -0.0000000  -0.0000000  -0.0000000  -0.0000000  -0.0000000  -0.0000000
 NQMom=    0.0000000   0.0000000   0.0000000   0.0000000   0.0000000   0.0000000   0.0000000   0.0000000   0.0000000   0.0000000
 NMagM=    0.0000000   0.0000000   0.0000000   0.0000000   2.7928460   0.0000000   2.7928460   0.0000000   2.7928460   2.7928460
 AtZNuc=   6.0000000   6.0000000   6.0000000   6.0000000   1.0000000   6.0000000   1.0000000   6.0000000   1.0000000   1.0000000

  Atom        91
 IAtWgt=           1
 AtmWgt=   1.0078250
 NucSpn=           1
 AtZEff=  -0.0000000
 NQMom=    0.0000000
 NMagM=    2.7928460
 AtZNuc=   1.0000000
 Leave Link  101 at Fri Sep 19 15:59:08 2025, MaxMem=  4294967296 cpu:               0.1 elap:               0.1
 (Enter /opt/apps/Gaussian/G16C/g16/l202.exe)
 Symmetry turned off by external request.
 Stoichiometry    C31H50BLiNO6P
 Framework group  C1[X(C31H50BLiNO6P)]
 Deg. of freedom   267
 Full point group                 C1      NOp   1
                          Input orientation:                          
 ---------------------------------------------------------------------
 Center     Atomic      Atomic             Coordinates (Angstroms)
 Number     Number       Type             X           Y           Z
 ---------------------------------------------------------------------
      1          6           0       -2.252639    1.454418   -1.127535
      2          6           0       -2.639805    0.906358    0.280435
      3          1           0       -1.698599    0.754319    0.834495
      4          6           0       -3.492698    1.871338    1.103648
      5          1           0       -3.068230    2.879651    1.135307
      6          1           0       -4.507713    1.940718    0.694694
      7          1           0       -3.570737    1.512153    2.137515
      8          6           0       -3.483955    1.923019   -1.914388
      9          1           0       -3.938687    2.806969   -1.448219
     10          1           0       -3.211868    2.199172   -2.939973
     11          1           0       -4.244926    1.138141   -1.972138
     12          5           0       -1.479657    0.321462   -1.911384
     13          6           0       -1.258126    2.627814   -1.000101
     14          1           0       -0.349161    2.333156   -0.464702
     15          1           0       -0.952326    2.987788   -1.991190
     16          1           0       -1.699762    3.480802   -0.469418
     17          8           0       -0.298771   -0.228626   -1.439130
     18          8           0       -1.816403   -0.165227   -3.139704
     19          6           0       -0.935807   -1.278974   -3.441137
     20          6           0        0.307723   -0.976020   -2.540185
     21          6           0       -0.645298   -1.281961   -4.933557
     22          1           0       -1.562521   -1.511817   -5.485914
     23          1           0       -0.271868   -0.314183   -5.278682
     24          1           0        0.097493   -2.050811   -5.174443
     25          6           0       -1.674597   -2.552636   -3.037165
     26          1           0       -1.104601   -3.442807   -3.325407
     27          1           0       -1.856509   -2.593724   -1.957608
     28          1           0       -2.637949   -2.580817   -3.557498
     29          6           0        1.316739   -0.034510   -3.193417
     30          1           0        2.060388    0.258425   -2.447127
     31          1           0        1.838258   -0.529157   -4.019173
     32          1           0        0.835805    0.871635   -3.578328
     33          6           0        1.007950   -2.209108   -1.997519
     34          1           0        0.332993   -2.828628   -1.406207
     35          1           0        1.399915   -2.804511   -2.830290
     36          1           0        1.846310   -1.910314   -1.361422
     37         15           0       -0.726621   -2.911305    1.362531
     38          8           0        0.353896   -1.838001    1.251412
     39          8           0       -1.851402   -2.944866    0.349002
     40          7           0       -3.373701   -0.361396    0.145406
     41          1           0       -2.736900   -1.159769    0.059463
     42          1           0       -3.892852   -0.541139    1.002260
     43          3           0        0.570265   -0.219365    0.393966
     44          6           0        0.160564    0.523459    3.231996
     45          8           0        0.408335    1.148904    1.969081
     46          6           0        0.220804    2.551242    2.171708
     47          6           0        0.646106    2.839798    3.625246
     48          6           0        0.845643    1.438197    4.238600
     49          1           0       -0.925294    0.468645    3.404931
     50          1           0        0.558107   -0.487846    3.174788
     51          1           0        0.819992    3.079334    1.426616
     52          1           0       -0.836519    2.797501    2.009963
     53          1           0        1.564832    3.431682    3.665754
     54          1           0       -0.135089    3.400024    4.146944
     55          1           0        1.910540    1.189205    4.299921
     56          1           0        0.414876    1.345021    5.239376
     57          6           0        3.299844   -0.519321    1.125788
     58          8           0        2.523806    0.090941    0.075451
     59          6           0        2.921332    1.458903   -0.098695
     60          6           0        3.679885    1.830590    1.167279
     61          6           0        4.363800    0.504477    1.512575
     62          1           0        2.624984   -0.748148    1.957174
     63          1           0        3.715247   -1.455959    0.742785
     64          1           0        3.567329    1.530757   -0.984091
     65          1           0        2.020745    2.054717   -0.276002
     66          1           0        4.383959    2.650906    1.002866
     67          1           0        2.981913    2.117034    1.960638
     68          1           0        5.266118    0.372050    0.904856
     69          1           0        4.643192    0.424877    2.566699
     70          6           0        0.141182   -4.521529    1.373375
     71          6           0        1.536135   -4.575396    1.306261
     72          6           0       -0.583607   -5.717519    1.435552
     73          6           0        2.198820   -5.803377    1.299483
     74          1           0        2.097947   -3.646381    1.255592
     75          6           0        0.074872   -6.945155    1.433519
     76          1           0       -1.669923   -5.688350    1.484006
     77          6           0        1.468740   -6.989310    1.363860
     78          1           0        3.284117   -5.834088    1.243593
     79          1           0       -0.497731   -7.867731    1.482219
     80          1           0        1.983128   -7.946845    1.359874
     81          6           0       -1.452459   -2.762347    3.039271
     82          6           0       -0.639020   -2.803260    4.178200
     83          6           0       -2.822819   -2.540947    3.194428
     84          6           0       -1.182200   -2.611833    5.445886
     85          1           0        0.429417   -2.981482    4.073498
     86          6           0       -3.371391   -2.343424    4.462902
     87          1           0       -3.458815   -2.524891    2.313301
     88          6           0       -2.551376   -2.375549    5.589432
     89          1           0       -0.540269   -2.644972    6.322578
     90          1           0       -4.438869   -2.168074    4.570357
     91          1           0       -2.976524   -2.223531    6.578191
 ---------------------------------------------------------------------
 Rotational constants (GHZ):           0.0915046           0.0766428           0.0682755
 Leave Link  202 at Fri Sep 19 15:59:08 2025, MaxMem=  4294967296 cpu:               0.0 elap:               0.0
 (Enter /opt/apps/Gaussian/G16C/g16/l301.exe)
 Standard basis: 6-311++G(d,p) (5D, 7F)
 Ernie: Thresh=  0.10000D-02 Tol=  0.10000D-05 Strict=F.
  1260 basis functions,  1940 primitive gaussians,  1301 cartesian basis functions
   157 alpha electrons      157 beta electrons
       nuclear repulsion energy      5691.0420974024 Hartrees.
 IExCor= 4639 DFT=T Ex+Corr=wB97XD ExCW=0 ScaHFX=  1.000000
 ScaDFX=  1.000000  1.000000  1.000000  1.000000 ScalE2=  1.000000  1.000000
 IRadAn=      5 IRanWt=     -1 IRanGd=            0 ICorTp=0 IEmpDi=121
 HFx  wShort=  0.000000 wLong=  0.200000 cFull=  0.222036 cShort=  0.000000 cLong=  0.777964
 DFx  wShort=  0.000000 wLong=  0.200000 cFull=  0.000000 cShort=  0.000000 cLong=  1.000000
 NAtoms=   91 NActive=   91 NUniq=   91 SFac= 1.00D+00 NAtFMM=   60 NAOKFM=T Big=T
 Integral buffers will be    131072 words long.
 Raffenetti 2 integral format.
 Two-electron integral symmetry is turned off.
 R6Disp:  Grimme-D2 Dispersion energy=       -0.1137056420 Hartrees.
 Nuclear repulsion after empirical dispersion term =     5690.9283917604 Hartrees.
 ------------------------------------------------------------------------------
 Polarizable Continuum Model (PCM)
 =================================
 Model                : PCM.
 Atomic radii         : SMD-Coulomb.
 Polarization charges : Total charges.
 Charge compensation  : None.
 Solution method      : On-the-fly selection.
 Cavity type          : VdW (van der Waals Surface) (Alpha=1.000).
 Cavity algorithm     : GePol (No added spheres)
                        Default sphere list used, NSphG=   91.
                        Lebedev-Laikov grids with approx.  5.0 points / Ang**2.
                        Smoothing algorithm: York/Karplus (Gamma=1.0000).
                        Polarization charges: spherical gaussians, with
                                              point-specific exponents (IZeta= 3).
                        Self-potential: point-specific (ISelfS= 7).
                        Self-field    : sphere-specific E.n sum rule (ISelfD= 2).
 Solvent              : TetraHydroFuran, Eps=   7.425700 Eps(inf)=   1.974025
 ------------------------------------------------------------------------------
 GePol: Number of generator spheres                  =      91
 GePol: Total number of spheres                      =      91
 GePol: Number of exposed spheres                    =      91 (100.00%)
 GePol: Number of points                             =    5490
 GePol: Average weight of points                     =       0.11
 GePol: Minimum weight of points                     =   0.73D-10
 GePol: Maximum weight of points                     =    0.17992
 GePol: Number of points with low weight             =     358
 GePol: Fraction of low-weight points (<1% of avg)   =       6.52%
 GePol: Cavity surface area                          =    589.820 Ang**2
 GePol: Cavity volume                                =    661.570 Ang**3
 ------------------------------------------------------------------------------
 Atomic radii for non-electrostatic terms: SMD-CDS.
 ------------------------------------------------------------------------------
 PCM non-electrostatic energy =        -0.0098154127 Hartrees.
 Nuclear repulsion after PCM non-electrostatic terms =     5690.9185763477 Hartrees.
 Leave Link  301 at Fri Sep 19 15:59:09 2025, MaxMem=  4294967296 cpu:               0.1 elap:               0.1
 (Enter /opt/apps/Gaussian/G16C/g16/l302.exe)
 NPDir=0 NMtPBC=     1 NCelOv=     1 NCel=       1 NClECP=     1 NCelD=      1
         NCelK=      1 NCelE2=     1 NClLst=     1 CellRange=     0.0.
 One-electron integrals computed using PRISM.
 NBasis=  1260 RedAO= T EigKep=  1.04D-06  NBF=  1260
 NBsUse=  1252 1.00D-06 EigRej=  8.89D-07 NBFU=  1252
 Precomputing XC quadrature grid using
 IXCGrd= 4 IRadAn=           5 IRanWt=          -1 IRanGd=           0 AccXCQ= 0.00D+00.
 Generated NRdTot=       0 NPtTot=           0 NUsed=           0 NTot=          32
 NSgBfM=  1257  1250  1251  1254  1257 MxSgAt=    91 MxSgA2=    91.
 Leave Link  302 at Fri Sep 19 15:59:12 2025, MaxMem=  4294967296 cpu:              22.4 elap:               3.3
 (Enter /opt/apps/Gaussian/G16C/g16/l303.exe)
 DipDrv:  MaxL=1.
 Leave Link  303 at Fri Sep 19 15:59:12 2025, MaxMem=  4294967296 cpu:               0.4 elap:               0.2
 (Enter /opt/apps/Gaussian/G16C/g16/l401.exe)
 ExpMin= 7.40D-03 ExpMax= 7.75D+04 ExpMxC= 2.65D+03 IAcc=3 IRadAn=         5 AccDes= 0.00D+00
 Harris functional with IExCor= 4639 and IRadAn=       5 diagonalized for initial guess.
 HarFok:  IExCor= 4639 AccDes= 0.00D+00 IRadAn=         5 IDoV= 1 UseB2=F ITyADJ=14
 ICtDFT=  3500011 ScaDFX=  1.000000  1.000000  1.000000  1.000000
 FoFCou: FMM=F IPFlag=           0 FMFlag=      100000 FMFlg1=        2001
         NFxFlg=           0 DoJE=T BraDBF=F KetDBF=T FulRan=T
         wScrn=  0.000000 ICntrl=       500 IOpCl=  0 I1Cent=   200000004 NGrid=           0
         NMat0=    1 NMatS0=      1 NMatT0=    0 NMatD0=    1 NMtDS0=    0 NMtDT0=    0
 Symmetry not used in FoFCou.
 Harris En= -2007.37706636255    
 JPrj=0 DoOrth=F DoCkMO=F.
 Leave Link  401 at Fri Sep 19 15:59:27 2025, MaxMem=  4294967296 cpu:             223.6 elap:              15.2
 (Enter /opt/apps/Gaussian/G16C/g16/l502.exe)
 Two-electron integral symmetry not used.
 Closed shell SCF:
 Using DIIS extrapolation, IDIIS=  1040.
 NGot=  4294967296 LenX=  4291549693 LenY=  4289855791
 Requested convergence on RMS density matrix=1.00D-08 within 128 cycles.
 Requested convergence on MAX density matrix=1.00D-06.
 Requested convergence on             energy=1.00D-06.
 No special actions if energy rises.
 Fock matrices will be formed incrementally for  20 cycles.

 Cycle   1  Pass 1  IDiag  1:
 FoFJK:  IHMeth= 1 ICntrl=       0 DoSepK=T KAlg= 0 I1Cent=           0 FoldK=F
 IRaf=         1 NMat=       1 IRICut=       1 DoRegI=T DoRafI=F ISym2E= 0 IDoP0=0 IntGTp=1.
 FoFCou: FMM=T IPFlag=           0 FMFlag=      100000 FMFlg1=        2001
         NFxFlg=           0 DoJE=T BraDBF=F KetDBF=F FulRan=T
         wScrn=  0.000000 ICntrl=       500 IOpCl=  0 I1Cent=           0 NGrid=           0
         NMat0=    1 NMatS0=      1 NMatT0=    0 NMatD0=    1 NMtDS0=    0 NMtDT0=    0
 Symmetry not used in FoFCou.
 FMM levels:  10  Number of levels for PrismC:   9
 Inv3:  Mode=1 IEnd=    90420300.
 Iteration    1 A*A^-1 deviation from unit magnitude is 1.38D-14 for   5471.
 Iteration    1 A*A^-1 deviation from orthogonality  is 3.45D-15 for   4795   1005.
 Iteration    1 A^-1*A deviation from unit magnitude is 1.38D-14 for   5471.
 Iteration    1 A^-1*A deviation from orthogonality  is 2.19D-13 for   2437   2416.
 E= -2090.91891847432    
 DIIS: error= 5.67D-02 at cycle   1 NSaved=   1.
 NSaved= 1 IEnMin= 1 EnMin= -2090.91891847432     IErMin= 1 ErrMin= 5.67D-02
 ErrMax= 5.67D-02  0.00D+00 EMaxC= 1.00D-01 BMatC= 4.67D+00 BMatP= 4.67D+00
 IDIUse=3 WtCom= 4.33D-01 WtEn= 5.67D-01
 Coeff-Com:  0.100D+01
 Coeff-En:   0.100D+01
 Coeff:      0.100D+01
 Gap=     0.420 Goal=   None    Shift=    0.000
 GapD=    0.420 DampG=2.000 DampE=0.500 DampFc=1.0000 IDamp=-1.
 RMSDP=1.79D-02 MaxDP=3.70D+00              OVMax= 8.65D-02

 Cycle   2  Pass 1  IDiag  1:
 RMSU=  1.27D-02    CP:  7.66D-01
 E= -2091.26553864958     Delta-E=       -0.346620175261 Rises=F Damp=F
 DIIS: error= 1.17D-02 at cycle   2 NSaved=   2.
 NSaved= 2 IEnMin= 2 EnMin= -2091.26553864958     IErMin= 2 ErrMin= 1.17D-02
 ErrMax= 1.17D-02  0.00D+00 EMaxC= 1.00D-01 BMatC= 4.70D-01 BMatP= 4.67D+00
 IDIUse=3 WtCom= 8.83D-01 WtEn= 1.17D-01
 Coeff-Com:  0.181D+00 0.819D+00
 Coeff-En:   0.174D+00 0.826D+00
 Coeff:      0.180D+00 0.820D+00
 Gap=     0.331 Goal=   None    Shift=    0.000
 RMSDP=9.23D-03 MaxDP=1.34D+00 DE=-3.47D-01 OVMax= 1.03D-01

 Cycle   3  Pass 1  IDiag  1:
 RMSU=  5.63D-03    CP:  6.82D-01  5.46D-01
 E= -2091.38369010499     Delta-E=       -0.118151455413 Rises=F Damp=F
 DIIS: error= 1.06D-02 at cycle   3 NSaved=   3.
 NSaved= 3 IEnMin= 3 EnMin= -2091.38369010499     IErMin= 3 ErrMin= 1.06D-02
 ErrMax= 1.06D-02  0.00D+00 EMaxC= 1.00D-01 BMatC= 2.17D-01 BMatP= 4.70D-01
 IDIUse=3 WtCom= 8.94D-01 WtEn= 1.06D-01
 Coeff-Com:  0.349D-01 0.413D+00 0.552D+00
 Coeff-En:   0.000D+00 0.358D+00 0.642D+00
 Coeff:      0.312D-01 0.407D+00 0.562D+00
 Gap=     0.386 Goal=   None    Shift=    0.000
 RMSDP=3.92D-03 MaxDP=3.09D-01 DE=-1.18D-01 OVMax= 4.45D-02

 Cycle   4  Pass 1  IDiag  1:
 RMSU=  1.90D-03    CP:  6.85D-01  7.27D-01  5.47D-01
 E= -2091.52772780093     Delta-E=       -0.144037695942 Rises=F Damp=F
 DIIS: error= 1.82D-03 at cycle   4 NSaved=   4.
 NSaved= 4 IEnMin= 4 EnMin= -2091.52772780093     IErMin= 4 ErrMin= 1.82D-03
 ErrMax= 1.82D-03  0.00D+00 EMaxC= 1.00D-01 BMatC= 6.28D-03 BMatP= 2.17D-01
 IDIUse=3 WtCom= 9.82D-01 WtEn= 1.82D-02
 Coeff-Com:  0.720D-02 0.133D+00 0.242D+00 0.618D+00
 Coeff-En:   0.000D+00 0.000D+00 0.000D+00 0.100D+01
 Coeff:      0.707D-02 0.131D+00 0.238D+00 0.625D+00
 Gap=     0.327 Goal=   None    Shift=    0.000
 RMSDP=6.31D-04 MaxDP=9.20D-02 DE=-1.44D-01 OVMax= 6.73D-03

 Cycle   5  Pass 1  IDiag  1:
 RMSU=  4.06D-04    CP:  6.89D-01  7.38D-01  5.81D-01  8.05D-01
 E= -2091.53148896370     Delta-E=       -0.003761162766 Rises=F Damp=F
 DIIS: error= 2.17D-04 at cycle   5 NSaved=   5.
 NSaved= 5 IEnMin= 5 EnMin= -2091.53148896370     IErMin= 5 ErrMin= 2.17D-04
 ErrMax= 2.17D-04  0.00D+00 EMaxC= 1.00D-01 BMatC= 1.56D-04 BMatP= 6.28D-03
 IDIUse=3 WtCom= 9.98D-01 WtEn= 2.17D-03
 Coeff-Com:  0.182D-03 0.142D-01 0.413D-01 0.180D+00 0.765D+00
 Coeff-En:   0.000D+00 0.000D+00 0.000D+00 0.000D+00 0.100D+01
 Coeff:      0.182D-03 0.142D-01 0.412D-01 0.179D+00 0.765D+00
 Gap=     0.326 Goal=   None    Shift=    0.000
 RMSDP=2.80D-04 MaxDP=6.20D-02 DE=-3.76D-03 OVMax= 1.42D-03

 Cycle   6  Pass 1  IDiag  1:
 RMSU=  1.70D-04    CP:  6.86D-01  7.34D-01  5.98D-01  8.53D-01  8.93D-01
 E= -2091.53162825715     Delta-E=       -0.000139293456 Rises=F Damp=F
 DIIS: error= 7.17D-05 at cycle   6 NSaved=   6.
 NSaved= 6 IEnMin= 6 EnMin= -2091.53162825715     IErMin= 6 ErrMin= 7.17D-05
 ErrMax= 7.17D-05  0.00D+00 EMaxC= 1.00D-01 BMatC= 1.62D-05 BMatP= 1.56D-04
 IDIUse=1 WtCom= 1.00D+00 WtEn= 0.00D+00
 Coeff-Com: -0.523D-03-0.742D-02-0.823D-02-0.145D-02 0.247D+00 0.771D+00
 Coeff:     -0.523D-03-0.742D-02-0.823D-02-0.145D-02 0.247D+00 0.771D+00
 Gap=     0.326 Goal=   None    Shift=    0.000
 RMSDP=7.46D-05 MaxDP=1.22D-02 DE=-1.39D-04 OVMax= 6.02D-04

 Cycle   7  Pass 1  IDiag  1:
 RMSU=  4.71D-05    CP:  6.85D-01  7.33D-01  5.99D-01  8.66D-01  1.00D+00
                    CP:  9.90D-01
 E= -2091.53164270038     Delta-E=       -0.000014443230 Rises=F Damp=F
 DIIS: error= 2.75D-05 at cycle   7 NSaved=   7.
 NSaved= 7 IEnMin= 7 EnMin= -2091.53164270038     IErMin= 7 ErrMin= 2.75D-05
 ErrMax= 2.75D-05  0.00D+00 EMaxC= 1.00D-01 BMatC= 2.37D-06 BMatP= 1.62D-05
 IDIUse=1 WtCom= 1.00D+00 WtEn= 0.00D+00
 Coeff-Com: -0.227D-03-0.445D-02-0.731D-02-0.171D-01 0.398D-01 0.339D+00
 Coeff-Com:  0.650D+00
 Coeff:     -0.227D-03-0.445D-02-0.731D-02-0.171D-01 0.398D-01 0.339D+00
 Coeff:      0.650D+00
 Gap=     0.326 Goal=   None    Shift=    0.000
 RMSDP=3.70D-05 MaxDP=4.96D-03 DE=-1.44D-05 OVMax= 2.09D-04

 Cycle   8  Pass 1  IDiag  1:
 RMSU=  1.70D-05    CP:  6.85D-01  7.35D-01  5.99D-01  8.73D-01  1.03D+00
                    CP:  1.07D+00  8.78D-01
 E= -2091.53164464631     Delta-E=       -0.000001945928 Rises=F Damp=F
 DIIS: error= 6.45D-06 at cycle   8 NSaved=   8.
 NSaved= 8 IEnMin= 8 EnMin= -2091.53164464631     IErMin= 8 ErrMin= 6.45D-06
 ErrMax= 6.45D-06  0.00D+00 EMaxC= 1.00D-01 BMatC= 1.96D-07 BMatP= 2.37D-06
 IDIUse=1 WtCom= 1.00D+00 WtEn= 0.00D+00
 Coeff-Com: -0.184D-04-0.590D-03-0.143D-02-0.543D-02-0.202D-01 0.209D-01
 Coeff-Com:  0.232D+00 0.775D+00
 Coeff:     -0.184D-04-0.590D-03-0.143D-02-0.543D-02-0.202D-01 0.209D-01
 Coeff:      0.232D+00 0.775D+00
 Gap=     0.326 Goal=   None    Shift=    0.000
 RMSDP=9.43D-06 MaxDP=1.71D-03 DE=-1.95D-06 OVMax= 9.28D-05

 Cycle   9  Pass 1  IDiag  1:
 RMSU=  4.99D-06    CP:  6.85D-01  7.35D-01  5.99D-01  8.73D-01  1.03D+00
                    CP:  1.10D+00  9.53D-01  9.67D-01
 E= -2091.53164485654     Delta-E=       -0.000000210232 Rises=F Damp=F
 DIIS: error= 3.54D-06 at cycle   9 NSaved=   9.
 NSaved= 9 IEnMin= 9 EnMin= -2091.53164485654     IErMin= 9 ErrMin= 3.54D-06
 ErrMax= 3.54D-06  0.00D+00 EMaxC= 1.00D-01 BMatC= 3.27D-08 BMatP= 1.96D-07
 IDIUse=1 WtCom= 1.00D+00 WtEn= 0.00D+00
 Coeff-Com:  0.141D-04 0.198D-03 0.156D-03-0.532D-03-0.136D-01-0.285D-01
 Coeff-Com:  0.246D-01 0.342D+00 0.675D+00
 Coeff:      0.141D-04 0.198D-03 0.156D-03-0.532D-03-0.136D-01-0.285D-01
 Coeff:      0.246D-01 0.342D+00 0.675D+00
 Gap=     0.326 Goal=   None    Shift=    0.000
 RMSDP=4.59D-06 MaxDP=5.48D-04 DE=-2.10D-07 OVMax= 3.24D-05

 Cycle  10  Pass 1  IDiag  1:
 RMSU=  2.35D-06    CP:  6.85D-01  7.35D-01  6.00D-01  8.74D-01  1.04D+00
                    CP:  1.10D+00  9.73D-01  1.10D+00  1.04D+00
 E= -2091.53164489045     Delta-E=       -0.000000033911 Rises=F Damp=F
 DIIS: error= 7.93D-07 at cycle  10 NSaved=  10.
 NSaved=10 IEnMin=10 EnMin= -2091.53164489045     IErMin=10 ErrMin= 7.93D-07
 ErrMax= 7.93D-07  0.00D+00 EMaxC= 1.00D-01 BMatC= 2.70D-09 BMatP= 3.27D-08
 IDIUse=1 WtCom= 1.00D+00 WtEn= 0.00D+00
 Coeff-Com:  0.653D-05 0.119D-03 0.193D-03 0.317D-03-0.263D-02-0.117D-01
 Coeff-Com: -0.172D-01 0.453D-01 0.240D+00 0.746D+00
 Coeff:      0.653D-05 0.119D-03 0.193D-03 0.317D-03-0.263D-02-0.117D-01
 Coeff:     -0.172D-01 0.453D-01 0.240D+00 0.746D+00
 Gap=     0.326 Goal=   None    Shift=    0.000
 RMSDP=1.28D-06 MaxDP=1.91D-04 DE=-3.39D-08 OVMax= 1.34D-05

 Cycle  11  Pass 1  IDiag  1:
 RMSU=  6.81D-07    CP:  6.85D-01  7.35D-01  6.00D-01  8.74D-01  1.04D+00
                    CP:  1.10D+00  9.83D-01  1.12D+00  1.20D+00  1.07D+00
 E= -2091.53164489260     Delta-E=       -0.000000002143 Rises=F Damp=F
 DIIS: error= 4.46D-07 at cycle  11 NSaved=  11.
 NSaved=11 IEnMin=11 EnMin= -2091.53164489260     IErMin=11 ErrMin= 4.46D-07
 ErrMax= 4.46D-07  0.00D+00 EMaxC= 1.00D-01 BMatC= 5.75D-10 BMatP= 2.70D-09
 IDIUse=1 WtCom= 1.00D+00 WtEn= 0.00D+00
 Coeff-Com:  0.617D-06 0.218D-04 0.641D-04 0.230D-03 0.126D-02 0.120D-03
 Coeff-Com: -0.128D-01-0.391D-01-0.135D-01 0.339D+00 0.725D+00
 Coeff:      0.617D-06 0.218D-04 0.641D-04 0.230D-03 0.126D-02 0.120D-03
 Coeff:     -0.128D-01-0.391D-01-0.135D-01 0.339D+00 0.725D+00
 Gap=     0.326 Goal=   None    Shift=    0.000
 RMSDP=6.80D-07 MaxDP=1.09D-04 DE=-2.14D-09 OVMax= 5.98D-06

 Cycle  12  Pass 1  IDiag  1:
 RMSU=  3.31D-07    CP:  6.85D-01  7.35D-01  6.00D-01  8.74D-01  1.04D+00
                    CP:  1.10D+00  9.79D-01  1.14D+00  1.23D+00  1.12D+00
                    CP:  9.07D-01
 E= -2091.53164489424     Delta-E=       -0.000000001641 Rises=F Damp=F
 DIIS: error= 1.71D-07 at cycle  12 NSaved=  12.
 NSaved=12 IEnMin=12 EnMin= -2091.53164489424     IErMin=12 ErrMin= 1.71D-07
 ErrMax= 1.71D-07  0.00D+00 EMaxC= 1.00D-01 BMatC= 5.69D-11 BMatP= 5.75D-10
 IDIUse=1 WtCom= 1.00D+00 WtEn= 0.00D+00
 Coeff-Com: -0.418D-06-0.246D-05 0.698D-05 0.681D-04 0.789D-03 0.127D-02
 Coeff-Com: -0.363D-02-0.205D-01-0.312D-01 0.604D-01 0.298D+00 0.695D+00
 Coeff:     -0.418D-06-0.246D-05 0.698D-05 0.681D-04 0.789D-03 0.127D-02
 Coeff:     -0.363D-02-0.205D-01-0.312D-01 0.604D-01 0.298D+00 0.695D+00
 Gap=     0.326 Goal=   None    Shift=    0.000
 RMSDP=1.90D-07 MaxDP=2.07D-05 DE=-1.64D-09 OVMax= 2.03D-06

 Cycle  13  Pass 1  IDiag  1:
 RMSU=  9.02D-08    CP:  6.85D-01  7.35D-01  6.00D-01  8.74D-01  1.04D+00
                    CP:  1.10D+00  9.79D-01  1.15D+00  1.24D+00  1.16D+00
                    CP:  1.00D+00  1.05D+00
 E= -2091.53164489384     Delta-E=        0.000000000393 Rises=F Damp=F
 DIIS: error= 5.66D-08 at cycle  13 NSaved=  13.
 NSaved=13 IEnMin=12 EnMin= -2091.53164489424     IErMin=13 ErrMin= 5.66D-08
 ErrMax= 5.66D-08  0.00D+00 EMaxC= 1.00D-01 BMatC= 5.23D-12 BMatP= 5.69D-11
 IDIUse=1 WtCom= 1.00D+00 WtEn= 0.00D+00
 Coeff-Com: -0.113D-06-0.214D-05-0.407D-05 0.230D-06 0.623D-04 0.279D-03
 Coeff-Com:  0.462D-03-0.944D-03-0.666D-02-0.235D-01-0.303D-02 0.204D+00
 Coeff-Com:  0.829D+00
 Coeff:     -0.113D-06-0.214D-05-0.407D-05 0.230D-06 0.623D-04 0.279D-03
 Coeff:      0.462D-03-0.944D-03-0.666D-02-0.235D-01-0.303D-02 0.204D+00
 Coeff:      0.829D+00
 Gap=     0.326 Goal=   None    Shift=    0.000
 RMSDP=6.42D-08 MaxDP=1.13D-05 DE= 3.93D-10 OVMax= 8.49D-07

 Cycle  14  Pass 1  IDiag  1:
 RMSU=  2.83D-08    CP:  6.85D-01  7.35D-01  6.00D-01  8.74D-01  1.04D+00
                    CP:  1.10D+00  9.79D-01  1.15D+00  1.25D+00  1.16D+00
                    CP:  1.02D+00  1.17D+00  1.11D+00
 E= -2091.53164489461     Delta-E=       -0.000000000766 Rises=F Damp=F
 DIIS: error= 2.48D-08 at cycle  14 NSaved=  14.
 NSaved=14 IEnMin=14 EnMin= -2091.53164489461     IErMin=14 ErrMin= 2.48D-08
 ErrMax= 2.48D-08  0.00D+00 EMaxC= 1.00D-01 BMatC= 1.36D-12 BMatP= 5.23D-12
 IDIUse=1 WtCom= 1.00D+00 WtEn= 0.00D+00
 Coeff-Com: -0.855D-08-0.113D-05-0.368D-05-0.108D-04-0.748D-04-0.201D-04
 Coeff-Com:  0.735D-03 0.222D-02 0.834D-03-0.199D-01-0.428D-01-0.785D-05
 Coeff-Com:  0.402D+00 0.657D+00
 Coeff:     -0.855D-08-0.113D-05-0.368D-05-0.108D-04-0.748D-04-0.201D-04
 Coeff:      0.735D-03 0.222D-02 0.834D-03-0.199D-01-0.428D-01-0.785D-05
 Coeff:      0.402D+00 0.657D+00
 Gap=     0.326 Goal=   None    Shift=    0.000
 RMSDP=2.84D-08 MaxDP=5.04D-06 DE=-7.66D-10 OVMax= 3.48D-07

 Cycle  15  Pass 1  IDiag  1:
 RMSU=  1.14D-08    CP:  6.85D-01  7.35D-01  6.00D-01  8.74D-01  1.04D+00
                    CP:  1.10D+00  9.79D-01  1.15D+00  1.25D+00  1.16D+00
                    CP:  1.04D+00  1.22D+00  1.21D+00  1.05D+00
 E= -2091.53164489401     Delta-E=        0.000000000603 Rises=F Damp=F
 DIIS: error= 1.07D-08 at cycle  15 NSaved=  15.
 NSaved=15 IEnMin=14 EnMin= -2091.53164489461     IErMin=15 ErrMin= 1.07D-08
 ErrMax= 1.07D-08  0.00D+00 EMaxC= 1.00D-01 BMatC= 7.33D-14 BMatP= 1.36D-12
 IDIUse=1 WtCom= 1.00D+00 WtEn= 0.00D+00
 Coeff-Com:  0.663D-08-0.199D-07-0.371D-06-0.311D-05-0.254D-04-0.348D-04
 Coeff-Com:  0.119D-03 0.665D-03 0.102D-02-0.197D-02-0.102D-01-0.248D-01
 Coeff-Com:  0.415D-02 0.144D+00 0.888D+00
 Coeff:      0.663D-08-0.199D-07-0.371D-06-0.311D-05-0.254D-04-0.348D-04
 Coeff:      0.119D-03 0.665D-03 0.102D-02-0.197D-02-0.102D-01-0.248D-01
 Coeff:      0.415D-02 0.144D+00 0.888D+00
 Gap=     0.326 Goal=   None    Shift=    0.000
 RMSDP=9.77D-09 MaxDP=1.54D-06 DE= 6.03D-10 OVMax= 1.84D-07

 Cycle  16  Pass 1  IDiag  1:
 RMSU=  3.66D-09    CP:  6.85D-01  7.35D-01  6.00D-01  8.74D-01  1.04D+00
                    CP:  1.10D+00  9.79D-01  1.15D+00  1.25D+00  1.16D+00
                    CP:  1.04D+00  1.23D+00  1.26D+00  1.14D+00  1.28D+00
 E= -2091.53164489338     Delta-E=        0.000000000625 Rises=F Damp=F
 DIIS: error= 5.05D-09 at cycle  16 NSaved=  16.
 NSaved=16 IEnMin=14 EnMin= -2091.53164489461     IErMin=16 ErrMin= 5.05D-09
 ErrMax= 5.05D-09  0.00D+00 EMaxC= 1.00D-01 BMatC= 1.51D-14 BMatP= 7.33D-14
 IDIUse=1 WtCom= 1.00D+00 WtEn= 0.00D+00
 Coeff-Com:  0.195D-08 0.133D-06 0.362D-06 0.303D-06 0.175D-05-0.919D-05
 Coeff-Com: -0.617D-04-0.728D-04 0.233D-03 0.202D-02 0.231D-02-0.841D-02
 Coeff-Com: -0.540D-01-0.474D-01 0.294D+00 0.812D+00
 Coeff:      0.195D-08 0.133D-06 0.362D-06 0.303D-06 0.175D-05-0.919D-05
 Coeff:     -0.617D-04-0.728D-04 0.233D-03 0.202D-02 0.231D-02-0.841D-02
 Coeff:     -0.540D-01-0.474D-01 0.294D+00 0.812D+00
 Gap=     0.326 Goal=   None    Shift=    0.000
 RMSDP=3.85D-09 MaxDP=4.57D-07 DE= 6.25D-10 OVMax= 9.18D-08

 Error on total polarization charges =  0.07701
 SCF Done:  E(RwB97XD) =  -2091.53164489     A.U. after   16 cycles
            NFock= 16  Conv=0.38D-08     -V/T= 2.0040
 KE= 2.083172934000D+03 PE=-1.627622415409D+04 EE= 6.410600998848D+03
 SMD-CDS (non-electrostatic) energy       (kcal/mol) =      -6.16
 (included in total energy above)
 Leave Link  502 at Fri Sep 19 16:35:34 2025, MaxMem=  4294967296 cpu:           33507.4 elap:            2166.8
 (Enter /opt/apps/Gaussian/G16C/g16/l601.exe)
 Copying SCF densities to generalized density rwf, IOpCl= 0 IROHF=0.

 **********************************************************************

            Population analysis using the SCF Density.

 **********************************************************************

 Alpha  occ. eigenvalues --  -77.26193 -19.26075 -19.25779 -19.25762 -19.24721
 Alpha  occ. eigenvalues --  -19.17566 -19.16812 -14.38540 -10.34667 -10.34166
 Alpha  occ. eigenvalues --  -10.32810 -10.32598 -10.32362 -10.31782 -10.29922
 Alpha  occ. eigenvalues --  -10.28838 -10.28819 -10.28756 -10.28687 -10.28685
 Alpha  occ. eigenvalues --  -10.28634 -10.28598 -10.28569 -10.28543 -10.28539
 Alpha  occ. eigenvalues --  -10.28244 -10.28204 -10.28063 -10.28037 -10.27871
 Alpha  occ. eigenvalues --  -10.27690 -10.26614 -10.26530 -10.26477 -10.26427
 Alpha  occ. eigenvalues --  -10.25991 -10.25912 -10.25311 -10.25291  -6.86962
 Alpha  occ. eigenvalues --   -6.70514  -4.85227  -4.85212  -4.85193  -1.99780
 Alpha  occ. eigenvalues --   -1.16820  -1.15124  -1.14547  -1.09726  -1.06816
 Alpha  occ. eigenvalues --   -1.00756  -0.97014  -0.95614  -0.95457  -0.90553
 Alpha  occ. eigenvalues --   -0.88583  -0.87848  -0.87717  -0.85068  -0.84417
 Alpha  occ. eigenvalues --   -0.84406  -0.84310  -0.84084  -0.84014  -0.83406
 Alpha  occ. eigenvalues --   -0.80546  -0.79561  -0.76965  -0.76561  -0.71984
 Alpha  occ. eigenvalues --   -0.71385  -0.70538  -0.69656  -0.69396  -0.69160
 Alpha  occ. eigenvalues --   -0.69037  -0.68785  -0.68596  -0.68410  -0.64510
 Alpha  occ. eigenvalues --   -0.64296  -0.63472  -0.60996  -0.60850  -0.60633
 Alpha  occ. eigenvalues --   -0.58878  -0.58582  -0.58267  -0.57985  -0.56510
 Alpha  occ. eigenvalues --   -0.55976  -0.55307  -0.54214  -0.54086  -0.53965
 Alpha  occ. eigenvalues --   -0.53517  -0.53475  -0.53349  -0.52812  -0.52640
 Alpha  occ. eigenvalues --   -0.52495  -0.52283  -0.51482  -0.50657  -0.50446
 Alpha  occ. eigenvalues --   -0.50220  -0.50153  -0.50107  -0.49344  -0.48832
 Alpha  occ. eigenvalues --   -0.48276  -0.48125  -0.47960  -0.47750  -0.47065
 Alpha  occ. eigenvalues --   -0.46847  -0.46353  -0.46191  -0.45904  -0.45477
 Alpha  occ. eigenvalues --   -0.45239  -0.45137  -0.44324  -0.44104  -0.43943
 Alpha  occ. eigenvalues --   -0.43841  -0.43722  -0.43446  -0.43131  -0.43073
 Alpha  occ. eigenvalues --   -0.42879  -0.42732  -0.42398  -0.42313  -0.41913
 Alpha  occ. eigenvalues --   -0.41793  -0.41768  -0.41505  -0.41313  -0.41188
 Alpha  occ. eigenvalues --   -0.40328  -0.39758  -0.39178  -0.38592  -0.36865
 Alpha  occ. eigenvalues --   -0.36446  -0.35830  -0.35348  -0.35248  -0.34478
 Alpha  occ. eigenvalues --   -0.34148  -0.33470  -0.33096  -0.32987  -0.32646
 Alpha  occ. eigenvalues --   -0.31513  -0.30467
 Alpha virt. eigenvalues --    0.02169   0.02505   0.02514   0.02835   0.03725
 Alpha virt. eigenvalues --    0.04950   0.05384   0.05505   0.05654   0.05833
 Alpha virt. eigenvalues --    0.05854   0.06037   0.06164   0.06877   0.06945
 Alpha virt. eigenvalues --    0.06997   0.07127   0.07293   0.07394   0.07423
 Alpha virt. eigenvalues --    0.07565   0.07723   0.08020   0.08203   0.08631
 Alpha virt. eigenvalues --    0.08860   0.08991   0.09217   0.09327   0.09596
 Alpha virt. eigenvalues --    0.09783   0.10365   0.10531   0.10693   0.10925
 Alpha virt. eigenvalues --    0.11157   0.11389   0.11472   0.11949   0.12116
 Alpha virt. eigenvalues --    0.12174   0.12495   0.12574   0.12931   0.12979
 Alpha virt. eigenvalues --    0.13232   0.13507   0.13771   0.13924   0.14081
 Alpha virt. eigenvalues --    0.14398   0.14699   0.14928   0.14981   0.15137
 Alpha virt. eigenvalues --    0.15411   0.15691   0.15799   0.15895   0.16087
 Alpha virt. eigenvalues --    0.16200   0.16398   0.16472   0.16700   0.16764
 Alpha virt. eigenvalues --    0.16987   0.17180   0.17379   0.17605   0.17629
 Alpha virt. eigenvalues --    0.17757   0.17873   0.17988   0.18195   0.18354
 Alpha virt. eigenvalues --    0.18501   0.18564   0.18632   0.18892   0.18975
 Alpha virt. eigenvalues --    0.19070   0.19163   0.19236   0.19336   0.19426
 Alpha virt. eigenvalues --    0.19679   0.19772   0.19794   0.19966   0.20058
 Alpha virt. eigenvalues --    0.20413   0.20443   0.20515   0.20739   0.20896
 Alpha virt. eigenvalues --    0.20937   0.20984   0.21132   0.21244   0.21427
 Alpha virt. eigenvalues --    0.21593   0.21707   0.21842   0.21931   0.22167
 Alpha virt. eigenvalues --    0.22273   0.22393   0.22556   0.22675   0.22713
 Alpha virt. eigenvalues --    0.22984   0.23141   0.23168   0.23321   0.23455
 Alpha virt. eigenvalues --    0.23684   0.23747   0.23784   0.24072   0.24232
 Alpha virt. eigenvalues --    0.24341   0.24427   0.24453   0.24589   0.24787
 Alpha virt. eigenvalues --    0.24994   0.25107   0.25159   0.25247   0.25459
 Alpha virt. eigenvalues --    0.25539   0.25753   0.25853   0.25987   0.26158
 Alpha virt. eigenvalues --    0.26334   0.26602   0.26649   0.26949   0.26989
 Alpha virt. eigenvalues --    0.27102   0.27138   0.27269   0.27403   0.27548
 Alpha virt. eigenvalues --    0.27622   0.27796   0.27922   0.28080   0.28237
 Alpha virt. eigenvalues --    0.28403   0.28543   0.28684   0.28914   0.29005
 Alpha virt. eigenvalues --    0.29081   0.29363   0.29431   0.29585   0.29649
 Alpha virt. eigenvalues --    0.29727   0.29941   0.29951   0.30266   0.30308
 Alpha virt. eigenvalues --    0.30606   0.30885   0.30918   0.31109   0.31352
 Alpha virt. eigenvalues --    0.31446   0.31664   0.31838   0.31938   0.32065
 Alpha virt. eigenvalues --    0.32170   0.32293   0.32384   0.32562   0.32615
 Alpha virt. eigenvalues --    0.33040   0.33218   0.33416   0.33681   0.33698
 Alpha virt. eigenvalues --    0.33767   0.34133   0.34250   0.34462   0.34618
 Alpha virt. eigenvalues --    0.34812   0.34852   0.35194   0.35254   0.35388
 Alpha virt. eigenvalues --    0.35409   0.35734   0.35902   0.36024   0.36183
 Alpha virt. eigenvalues --    0.36439   0.36490   0.36713   0.36743   0.36869
 Alpha virt. eigenvalues --    0.37013   0.37336   0.37509   0.37780   0.37867
 Alpha virt. eigenvalues --    0.37949   0.38116   0.38352   0.38486   0.38567
 Alpha virt. eigenvalues --    0.38841   0.38989   0.39070   0.39152   0.39389
 Alpha virt. eigenvalues --    0.39479   0.39639   0.39750   0.40098   0.40129
 Alpha virt. eigenvalues --    0.40495   0.40575   0.40663   0.40797   0.40964
 Alpha virt. eigenvalues --    0.41045   0.41116   0.41528   0.41735   0.41980
 Alpha virt. eigenvalues --    0.42237   0.42379   0.42442   0.42642   0.42783
 Alpha virt. eigenvalues --    0.42985   0.43244   0.43413   0.43511   0.43806
 Alpha virt. eigenvalues --    0.43891   0.44072   0.44290   0.44561   0.44741
 Alpha virt. eigenvalues --    0.44813   0.45003   0.45426   0.45713   0.45972
 Alpha virt. eigenvalues --    0.46048   0.46212   0.46448   0.46557   0.46785
 Alpha virt. eigenvalues --    0.47051   0.47257   0.47571   0.47811   0.47903
 Alpha virt. eigenvalues --    0.48492   0.48608   0.49037   0.49131   0.49378
 Alpha virt. eigenvalues --    0.49592   0.49946   0.50271   0.50516   0.50734
 Alpha virt. eigenvalues --    0.51223   0.51539   0.51627   0.52090   0.52275
 Alpha virt. eigenvalues --    0.52507   0.52821   0.53404   0.53900   0.54085
 Alpha virt. eigenvalues --    0.54243   0.54746   0.55328   0.55514   0.55640
 Alpha virt. eigenvalues --    0.56185   0.56781   0.56949   0.57234   0.57736
 Alpha virt. eigenvalues --    0.57878   0.58217   0.58510   0.58983   0.59389
 Alpha virt. eigenvalues --    0.59711   0.60602   0.60822   0.61032   0.61432
 Alpha virt. eigenvalues --    0.61719   0.62164   0.62209   0.62521   0.62615
 Alpha virt. eigenvalues --    0.62920   0.63409   0.63818   0.64213   0.64457
 Alpha virt. eigenvalues --    0.64917   0.65206   0.65485   0.65606   0.65672
 Alpha virt. eigenvalues --    0.65769   0.66277   0.66640   0.66725   0.67154
 Alpha virt. eigenvalues --    0.67357   0.67515   0.67839   0.68161   0.68282
 Alpha virt. eigenvalues --    0.68584   0.69052   0.69231   0.69403   0.69867
 Alpha virt. eigenvalues --    0.69916   0.70083   0.70346   0.70720   0.71007
 Alpha virt. eigenvalues --    0.71224   0.71700   0.71788   0.72089   0.72300
 Alpha virt. eigenvalues --    0.72416   0.72901   0.73068   0.73175   0.73467
 Alpha virt. eigenvalues --    0.73592   0.73976   0.74324   0.74448   0.74869
 Alpha virt. eigenvalues --    0.75085   0.75401   0.75593   0.75888   0.76015
 Alpha virt. eigenvalues --    0.76390   0.76542   0.77035   0.77322   0.77449
 Alpha virt. eigenvalues --    0.77790   0.78188   0.78220   0.78559   0.78675
 Alpha virt. eigenvalues --    0.79025   0.79580   0.79617   0.79843   0.80239
 Alpha virt. eigenvalues --    0.80351   0.80686   0.80795   0.80845   0.81022
 Alpha virt. eigenvalues --    0.81344   0.81661   0.81747   0.82083   0.82897
 Alpha virt. eigenvalues --    0.83005   0.83240   0.83415   0.83579   0.84043
 Alpha virt. eigenvalues --    0.84389   0.84511   0.84594   0.84937   0.85059
 Alpha virt. eigenvalues --    0.85205   0.85526   0.85790   0.86034   0.86223
 Alpha virt. eigenvalues --    0.86389   0.86522   0.86876   0.87049   0.87230
 Alpha virt. eigenvalues --    0.87580   0.87724   0.88176   0.88294   0.88480
 Alpha virt. eigenvalues --    0.88772   0.88886   0.89125   0.89186   0.89676
 Alpha virt. eigenvalues --    0.89945   0.90206   0.90465   0.90601   0.90885
 Alpha virt. eigenvalues --    0.91110   0.91574   0.91727   0.92166   0.92363
 Alpha virt. eigenvalues --    0.92593   0.93125   0.93341   0.93762   0.93903
 Alpha virt. eigenvalues --    0.94249   0.94333   0.94608   0.95031   0.95270
 Alpha virt. eigenvalues --    0.95456   0.95515   0.96021   0.96377   0.96763
 Alpha virt. eigenvalues --    0.97094   0.97208   0.97365   0.97626   0.97793
 Alpha virt. eigenvalues --    0.98107   0.98466   0.98570   0.98889   0.99437
 Alpha virt. eigenvalues --    0.99901   1.00591   1.00683   1.00960   1.01413
 Alpha virt. eigenvalues --    1.01744   1.02141   1.02425   1.02701   1.04234
 Alpha virt. eigenvalues --    1.04649   1.04845   1.05124   1.05780   1.05860
 Alpha virt. eigenvalues --    1.06297   1.06664   1.07798   1.08141   1.08541
 Alpha virt. eigenvalues --    1.08968   1.09364   1.09622   1.10071   1.10192
 Alpha virt. eigenvalues --    1.10766   1.11079   1.11446   1.12243   1.12801
 Alpha virt. eigenvalues --    1.13216   1.13647   1.13844   1.14488   1.14859
 Alpha virt. eigenvalues --    1.15474   1.16100   1.16259   1.16909   1.17199
 Alpha virt. eigenvalues --    1.17994   1.18497   1.18956   1.19302   1.19733
 Alpha virt. eigenvalues --    1.20334   1.20792   1.21085   1.21436   1.22209
 Alpha virt. eigenvalues --    1.22462   1.23209   1.23381   1.23919   1.24705
 Alpha virt. eigenvalues --    1.25167   1.25593   1.26021   1.26407   1.27159
 Alpha virt. eigenvalues --    1.27539   1.28314   1.28871   1.29350   1.29960
 Alpha virt. eigenvalues --    1.30491   1.30690   1.31119   1.31701   1.32691
 Alpha virt. eigenvalues --    1.33348   1.33860   1.34031   1.34652   1.34887
 Alpha virt. eigenvalues --    1.35805   1.35972   1.36893   1.37495   1.37726
 Alpha virt. eigenvalues --    1.38325   1.38808   1.39060   1.39452   1.39877
 Alpha virt. eigenvalues --    1.40613   1.41378   1.41939   1.42259   1.42587
 Alpha virt. eigenvalues --    1.42889   1.43411   1.44297   1.44813   1.45372
 Alpha virt. eigenvalues --    1.46389   1.47473   1.47847   1.48871   1.49451
 Alpha virt. eigenvalues --    1.49939   1.50149   1.50977   1.51350   1.52823
 Alpha virt. eigenvalues --    1.52949   1.54255   1.54435   1.54458   1.55114
 Alpha virt. eigenvalues --    1.55986   1.56469   1.56935   1.57346   1.58113
 Alpha virt. eigenvalues --    1.58820   1.59099   1.59557   1.60142   1.60776
 Alpha virt. eigenvalues --    1.60993   1.61610   1.62431   1.62782   1.62904
 Alpha virt. eigenvalues --    1.63414   1.63626   1.63908   1.64323   1.64615
 Alpha virt. eigenvalues --    1.64930   1.65229   1.65444   1.65797   1.66475
 Alpha virt. eigenvalues --    1.66504   1.66816   1.67094   1.67497   1.67747
 Alpha virt. eigenvalues --    1.68172   1.68298   1.68459   1.68797   1.69539
 Alpha virt. eigenvalues --    1.69681   1.69902   1.70263   1.70389   1.70588
 Alpha virt. eigenvalues --    1.70910   1.71212   1.71735   1.72096   1.72475
 Alpha virt. eigenvalues --    1.72740   1.73172   1.73607   1.73897   1.74075
 Alpha virt. eigenvalues --    1.74508   1.74916   1.75180   1.75442   1.76011
 Alpha virt. eigenvalues --    1.76194   1.76316   1.76607   1.76979   1.77159
 Alpha virt. eigenvalues --    1.77347   1.77758   1.78156   1.78495   1.78929
 Alpha virt. eigenvalues --    1.79133   1.79587   1.79816   1.80147   1.80221
 Alpha virt. eigenvalues --    1.80622   1.80953   1.81712   1.81845   1.82388
 Alpha virt. eigenvalues --    1.82591   1.82711   1.82930   1.83396   1.83590
 Alpha virt. eigenvalues --    1.84292   1.84467   1.85075   1.85256   1.85546
 Alpha virt. eigenvalues --    1.85841   1.85983   1.86066   1.86994   1.87563
 Alpha virt. eigenvalues --    1.87722   1.88145   1.88283   1.88985   1.89455
 Alpha virt. eigenvalues --    1.89677   1.89814   1.89962   1.91218   1.91286
 Alpha virt. eigenvalues --    1.91598   1.92048   1.92157   1.92427   1.92852
 Alpha virt. eigenvalues --    1.93167   1.93480   1.94044   1.94501   1.94690
 Alpha virt. eigenvalues --    1.95282   1.96117   1.96256   1.96367   1.96974
 Alpha virt. eigenvalues --    1.97095   1.97291   1.98334   1.98420   1.98625
 Alpha virt. eigenvalues --    1.99291   1.99563   1.99909   2.00351   2.00661
 Alpha virt. eigenvalues --    2.01516   2.01954   2.02344   2.02565   2.02668
 Alpha virt. eigenvalues --    2.02836   2.03452   2.03667   2.04274   2.05128
 Alpha virt. eigenvalues --    2.05497   2.05871   2.06034   2.06733   2.07016
 Alpha virt. eigenvalues --    2.07251   2.07831   2.08123   2.08744   2.09241
 Alpha virt. eigenvalues --    2.09455   2.10178   2.10444   2.10487   2.10894
 Alpha virt. eigenvalues --    2.11523   2.11980   2.12124   2.12792   2.13145
 Alpha virt. eigenvalues --    2.13546   2.14007   2.14314   2.14667   2.15524
 Alpha virt. eigenvalues --    2.15804   2.16260   2.16397   2.16740   2.17058
 Alpha virt. eigenvalues --    2.18213   2.18444   2.18869   2.18938   2.19425
 Alpha virt. eigenvalues --    2.20237   2.20554   2.21330   2.22488   2.23566
 Alpha virt. eigenvalues --    2.23864   2.23965   2.24853   2.25140   2.25846
 Alpha virt. eigenvalues --    2.26457   2.26823   2.27557   2.27658   2.28455
 Alpha virt. eigenvalues --    2.29354   2.29888   2.30387   2.31377   2.31708
 Alpha virt. eigenvalues --    2.32214   2.32804   2.32931   2.34079   2.34324
 Alpha virt. eigenvalues --    2.35360   2.35627   2.36479   2.38676   2.39442
 Alpha virt. eigenvalues --    2.39794   2.39882   2.40666   2.40756   2.41175
 Alpha virt. eigenvalues --    2.41486   2.42235   2.43119   2.43148   2.43224
 Alpha virt. eigenvalues --    2.43685   2.44248   2.45398   2.45508   2.46200
 Alpha virt. eigenvalues --    2.48034   2.49048   2.49132   2.50042   2.50242
 Alpha virt. eigenvalues --    2.51755   2.52019   2.52826   2.53229   2.53851
 Alpha virt. eigenvalues --    2.54118   2.54704   2.55604   2.58658   2.59053
 Alpha virt. eigenvalues --    2.59507   2.59957   2.60412   2.60792   2.61353
 Alpha virt. eigenvalues --    2.61467   2.62247   2.63075   2.63530   2.63880
 Alpha virt. eigenvalues --    2.64369   2.64579   2.65328   2.65536   2.65769
 Alpha virt. eigenvalues --    2.65969   2.66389   2.66933   2.67679   2.68374
 Alpha virt. eigenvalues --    2.68866   2.69279   2.69631   2.70229   2.70326
 Alpha virt. eigenvalues --    2.70988   2.71343   2.71742   2.71885   2.72345
 Alpha virt. eigenvalues --    2.73057   2.73397   2.74323   2.74524   2.75131
 Alpha virt. eigenvalues --    2.76006   2.76110   2.76567   2.76870   2.76992
 Alpha virt. eigenvalues --    2.77178   2.78225   2.78421   2.79175   2.79616
 Alpha virt. eigenvalues --    2.80364   2.80988   2.81200   2.81947   2.82860
 Alpha virt. eigenvalues --    2.83614   2.83927   2.84155   2.84786   2.85391
 Alpha virt. eigenvalues --    2.85732   2.86970   2.87236   2.87462   2.87561
 Alpha virt. eigenvalues --    2.88031   2.88644   2.89037   2.89299   2.89446
 Alpha virt. eigenvalues --    2.89955   2.90153   2.90820   2.91014   2.91915
 Alpha virt. eigenvalues --    2.92324   2.92563   2.92752   2.93262   2.93760
 Alpha virt. eigenvalues --    2.94089   2.94597   2.94953   2.95209   2.95570
 Alpha virt. eigenvalues --    2.95672   2.96072   2.96621   2.97444   2.97793
 Alpha virt. eigenvalues --    2.98360   2.98597   2.99408   2.99494   2.99738
 Alpha virt. eigenvalues --    2.99998   3.00634   3.01419   3.01823   3.02001
 Alpha virt. eigenvalues --    3.02184   3.02614   3.03213   3.03365   3.04553
 Alpha virt. eigenvalues --    3.05229   3.05769   3.05982   3.06434   3.06781
 Alpha virt. eigenvalues --    3.06902   3.07075   3.08197   3.08255   3.08941
 Alpha virt. eigenvalues --    3.09203   3.09870   3.10442   3.11261   3.11579
 Alpha virt. eigenvalues --    3.12482   3.12882   3.12981   3.13847   3.14118
 Alpha virt. eigenvalues --    3.15009   3.15840   3.16728   3.17485   3.18135
 Alpha virt. eigenvalues --    3.18463   3.18849   3.19425   3.20319   3.20506
 Alpha virt. eigenvalues --    3.21537   3.21946   3.22745   3.23027   3.24417
 Alpha virt. eigenvalues --    3.25087   3.25295   3.25621   3.26879   3.27923
 Alpha virt. eigenvalues --    3.28381   3.28797   3.30052   3.30508   3.31558
 Alpha virt. eigenvalues --    3.31888   3.33176   3.34333   3.35014   3.35378
 Alpha virt. eigenvalues --    3.35706   3.36848   3.37505   3.38832   3.39989
 Alpha virt. eigenvalues --    3.40944   3.42074   3.42363   3.43909   3.44900
 Alpha virt. eigenvalues --    3.45688   3.47024   3.47611   3.48697   3.49827
 Alpha virt. eigenvalues --    3.50298   3.51301   3.51760   3.52978   3.53639
 Alpha virt. eigenvalues --    3.55666   3.55879   3.63995   3.64332   3.64927
 Alpha virt. eigenvalues --    3.66000   3.66431   3.68338   3.69421   3.73763
 Alpha virt. eigenvalues --    3.74242   3.75267   3.75451   3.77978   3.79587
 Alpha virt. eigenvalues --    3.80156   3.83054   3.87745   3.88077   3.90197
 Alpha virt. eigenvalues --    3.90574   3.91010   3.92538   3.92927   3.93588
 Alpha virt. eigenvalues --    3.94339   3.95116   3.95372   3.95529   3.96324
 Alpha virt. eigenvalues --    3.96546   3.97270   3.97722   3.99450   3.99513
 Alpha virt. eigenvalues --    4.00953   4.02227   4.04688   4.08820   4.11351
 Alpha virt. eigenvalues --    4.12071   4.14376   4.15183   4.15610   4.15650
 Alpha virt. eigenvalues --    4.17537   4.20434   4.22700   4.23394   4.25799
 Alpha virt. eigenvalues --    4.26233   4.28404   4.28774   4.28942   4.29661
 Alpha virt. eigenvalues --    4.30433   4.31507   4.33584   4.34341   4.38840
 Alpha virt. eigenvalues --    4.40167   4.43327   4.44263   4.44343   4.47233
 Alpha virt. eigenvalues --    4.49165   4.49947   4.50966   4.70659   4.90418
 Alpha virt. eigenvalues --    4.95722   4.95974   5.02209   5.36257   5.37651
 Alpha virt. eigenvalues --    5.39914   5.41405   5.44490   5.46258   5.48293
 Alpha virt. eigenvalues --    5.51299   5.52197   5.53644   5.65066   5.66310
 Alpha virt. eigenvalues --    5.70801   5.73956   5.74569   5.76578   5.80652
 Alpha virt. eigenvalues --    5.89034   7.72070  14.36032  14.41208  14.50226
 Alpha virt. eigenvalues --   15.03683  23.78860  23.81403  23.93367  23.97868
 Alpha virt. eigenvalues --   24.01234  24.01793  24.03123  24.05019  24.05867
 Alpha virt. eigenvalues --   24.08000  24.10082  24.11131  24.12088  24.12616
 Alpha virt. eigenvalues --   24.13109  24.13340  24.13416  24.14331  24.15343
 Alpha virt. eigenvalues --   24.16038  24.16513  24.17168  24.18282  24.19884
 Alpha virt. eigenvalues --   24.21649  24.22016  24.22551  24.23502  24.23923
 Alpha virt. eigenvalues --   24.32874  24.32991  35.82813  50.15387  50.16300
 Alpha virt. eigenvalues --   50.17263  50.18054  50.22257  50.23927 163.97683
          Condensed to atoms (all electrons):
 Mulliken charges:
               1
     1  C   -0.177688
     2  C   -0.536977
     3  H   -0.018426
     4  C   -0.542953
     5  H    0.184332
     6  H    0.218303
     7  H    0.171083
     8  C   -0.508498
     9  H    0.177207
    10  H    0.189940
    11  H    0.178282
    12  B    0.168438
    13  C   -0.327800
    14  H    0.073385
    15  H    0.261669
    16  H    0.235251
    17  O    0.216412
    18  O    0.072207
    19  C   -0.213982
    20  C   -0.387581
    21  C   -0.808298
    22  H    0.212339
    23  H    0.185079
    24  H    0.211479
    25  C   -0.228696
    26  H    0.240080
    27  H    0.174399
    28  H    0.202171
    29  C   -0.295348
    30  H    0.172471
    31  H    0.239019
    32  H    0.195352
    33  C   -0.746689
    34  H    0.146856
    35  H    0.258760
    36  H    0.307577
    37  P    0.024168
    38  O   -0.002015
    39  O   -0.210369
    40  N   -0.439660
    41  H    0.379994
    42  H    0.326171
    43  Li  -0.622963
    44  C   -0.123330
    45  O    0.307687
    46  C   -0.254355
    47  C   -0.538206
    48  C   -0.817284
    49  H    0.205944
    50  H    0.199317
    51  H    0.256621
    52  H    0.094315
    53  H    0.245445
    54  H    0.227096
    55  H    0.208067
    56  H    0.236952
    57  C    0.020173
    58  O    0.150351
    59  C   -0.016025
    60  C   -0.465665
    61  C   -0.823820
    62  H   -0.020618
    63  H    0.161462
    64  H    0.208885
    65  H    0.233367
    66  H    0.269540
    67  H    0.038547
    68  H    0.215518
    69  H    0.227755
    70  C   -0.398367
    71  C    0.357184
    72  C   -0.056605
    73  C   -0.102008
    74  H    0.269522
    75  C   -0.238453
    76  H    0.310167
    77  C   -0.668944
    78  H    0.284611
    79  H    0.281074
    80  H    0.253022
    81  C    0.091821
    82  C   -0.008611
    83  C   -0.091641
    84  C   -0.509723
    85  H    0.291599
    86  C   -0.458086
    87  H    0.268425
    88  C   -0.494023
    89  H    0.277165
    90  H    0.282794
    91  H    0.256858
 Sum of Mulliken charges =  -0.00000
 Mulliken charges with hydrogens summed into heavy atoms:
               1
     1  C   -0.177688
     2  C   -0.555402
     4  C    0.030765
     8  C    0.036930
    12  B    0.168438
    13  C    0.242506
    17  O    0.216412
    18  O    0.072207
    19  C   -0.213982
    20  C   -0.387581
    21  C   -0.199401
    25  C    0.387954
    29  C    0.311495
    33  C   -0.033496
    37  P    0.024168
    38  O   -0.002015
    39  O   -0.210369
    40  N    0.266505
    43  Li  -0.622963
    44  C    0.281931
    45  O    0.307687
    46  C    0.096580
    47  C   -0.065665
    48  C   -0.372265
    57  C    0.161017
    58  O    0.150351
    59  C    0.426227
    60  C   -0.157578
    61  C   -0.380546
    70  C   -0.398367
    71  C    0.626706
    72  C    0.253562
    73  C    0.182603
    75  C    0.042620
    77  C   -0.415922
    81  C    0.091821
    82  C    0.282988
    83  C    0.176784
    84  C   -0.232558
    86  C   -0.175292
    88  C   -0.237165
 Electronic spatial extent (au):  <R**2>=          21845.3160
 Charge=             -0.0000 electrons
 Dipole moment (field-independent basis, Debye):
    X=              9.6816    Y=              6.9588    Z=              3.6933  Tot=             12.4820
 Quadrupole moment (field-independent basis, Debye-Ang):
   XX=           -249.3304   YY=           -252.9684   ZZ=           -231.9303
   XY=             -7.1190   XZ=             -9.1529   YZ=             10.8613
 Traceless Quadrupole moment (field-independent basis, Debye-Ang):
   XX=             -4.5874   YY=             -8.2254   ZZ=             12.8128
   XY=             -7.1190   XZ=             -9.1529   YZ=             10.8613
 Octapole moment (field-independent basis, Debye-Ang**2):
  XXX=            326.7491  YYY=            810.5593  ZZZ=           -435.5553  XYY=            130.1782
  XXY=            279.7820  XXZ=            -94.1359  XZZ=             78.2822  YZZ=            282.5779
  YYZ=           -173.7858  XYZ=             -1.3824
 Hexadecapole moment (field-independent basis, Debye-Ang**3):
 XXXX=          -6719.0565 YYYY=         -11620.3370 ZZZZ=         -10047.3201 XXXY=           -141.5275
 XXXZ=            -89.2964 YYYX=           -349.4914 YYYZ=           1284.2158 ZZZX=           -117.2435
 ZZZY=           1364.2635 XXYY=          -3125.5416 XXZZ=          -2848.8780 YYZZ=          -4019.4537
 XXYZ=            374.1279 YYXZ=             77.7496 ZZXY=             -4.2992
 N-N= 5.690918576348D+03 E-N=-1.627622415474D+04  KE= 2.083172934000D+03
 No NMR shielding tensors so no spin-rotation constants.
 Leave Link  601 at Fri Sep 19 16:35:35 2025, MaxMem=  4294967296 cpu:               2.6 elap:               0.5
 (Enter /opt/apps/Gaussian/G16C/g16/l9999.exe)
 Unable to Open any file for archive entry.
 1\1\GINC-NODE01\SP\RwB97XD\6-311++G(d,p)\C31H50B1Li1N1O6P1\WHUGHES2\19
 -Sep-2025\0\\#p wb97xd/6-311++g** nosymm int=ultrafine scrf=(smd,solve
 nt=tetrahydrofuran)\\syn-product-phos-full-tzpop\\0,1\C,0,-2.252639,1.
 454418,-1.127535\C,0,-2.639805,0.906358,0.280435\H,0,-1.698599,0.75431
 9,0.834495\C,0,-3.492698,1.871338,1.103648\H,0,-3.06823,2.879651,1.135
 307\H,0,-4.507713,1.940718,0.694694\H,0,-3.570737,1.512153,2.137515\C,
 0,-3.483955,1.923019,-1.914388\H,0,-3.938687,2.806969,-1.448219\H,0,-3
 .211868,2.199172,-2.939973\H,0,-4.244926,1.138141,-1.972138\B,0,-1.479
 657,0.321462,-1.911384\C,0,-1.258126,2.627814,-1.000101\H,0,-0.349161,
 2.333156,-0.464702\H,0,-0.952326,2.987788,-1.99119\H,0,-1.699762,3.480
 802,-0.469418\O,0,-0.298771,-0.228626,-1.43913\O,0,-1.816403,-0.165227
 ,-3.139704\C,0,-0.935807,-1.278974,-3.441137\C,0,0.307723,-0.97602,-2.
 540185\C,0,-0.645298,-1.281961,-4.933557\H,0,-1.562521,-1.511817,-5.48
 5914\H,0,-0.271868,-0.314183,-5.278682\H,0,0.097493,-2.050811,-5.17444
 3\C,0,-1.674597,-2.552636,-3.037165\H,0,-1.104601,-3.442807,-3.325407\
 H,0,-1.856509,-2.593724,-1.957608\H,0,-2.637949,-2.580817,-3.557498\C,
 0,1.316739,-0.03451,-3.193417\H,0,2.060388,0.258425,-2.447127\H,0,1.83
 8258,-0.529157,-4.019173\H,0,0.835805,0.871635,-3.578328\C,0,1.00795,-
 2.209108,-1.997519\H,0,0.332993,-2.828628,-1.406207\H,0,1.399915,-2.80
 4511,-2.83029\H,0,1.84631,-1.910314,-1.361422\P,0,-0.726621,-2.911305,
 1.362531\O,0,0.353896,-1.838001,1.251412\O,0,-1.851402,-2.944866,0.349
 002\N,0,-3.373701,-0.361396,0.145406\H,0,-2.7369,-1.159769,0.059463\H,
 0,-3.892852,-0.541139,1.00226\Li,0,0.570265,-0.219365,0.393966\C,0,0.1
 60564,0.523459,3.231996\O,0,0.408335,1.148904,1.969081\C,0,0.220804,2.
 551242,2.171708\C,0,0.646106,2.839798,3.625246\C,0,0.845643,1.438197,4
 .2386\H,0,-0.925294,0.468645,3.404931\H,0,0.558107,-0.487846,3.174788\
 H,0,0.819992,3.079334,1.426616\H,0,-0.836519,2.797501,2.009963\H,0,1.5
 64832,3.431682,3.665754\H,0,-0.135089,3.400024,4.146944\H,0,1.91054,1.
 189205,4.299921\H,0,0.414876,1.345021,5.239376\C,0,3.299844,-0.519321,
 1.125788\O,0,2.523806,0.090941,0.075451\C,0,2.921332,1.458903,-0.09869
 5\C,0,3.679885,1.83059,1.167279\C,0,4.3638,0.504477,1.512575\H,0,2.624
 984,-0.748148,1.957174\H,0,3.715247,-1.455959,0.742785\H,0,3.567329,1.
 530757,-0.984091\H,0,2.020745,2.054717,-0.276002\H,0,4.383959,2.650906
 ,1.002866\H,0,2.981913,2.117034,1.960638\H,0,5.266118,0.37205,0.904856
 \H,0,4.643192,0.424877,2.566699\C,0,0.141182,-4.521529,1.373375\C,0,1.
 536135,-4.575396,1.306261\C,0,-0.583607,-5.717519,1.435552\C,0,2.19882
 ,-5.803377,1.299483\H,0,2.097947,-3.646381,1.255592\C,0,0.074872,-6.94
 5155,1.433519\H,0,-1.669923,-5.68835,1.484006\C,0,1.46874,-6.98931,1.3
 6386\H,0,3.284117,-5.834088,1.243593\H,0,-0.497731,-7.867731,1.482219\
 H,0,1.983128,-7.946845,1.359874\C,0,-1.452459,-2.762347,3.039271\C,0,-
 0.63902,-2.80326,4.1782\C,0,-2.822819,-2.540947,3.194428\C,0,-1.1822,-
 2.611833,5.445886\H,0,0.429417,-2.981482,4.073498\C,0,-3.371391,-2.343
 424,4.462902\H,0,-3.458815,-2.524891,2.313301\C,0,-2.551376,-2.375549,
 5.589432\H,0,-0.540269,-2.644972,6.322578\H,0,-4.438869,-2.168074,4.57
 0357\H,0,-2.976524,-2.223531,6.578191\\Version=AS64L-G16RevC.01\HF=-20
 91.5316449\RMSD=3.845e-09\Dipole=3.8090524,2.7378135,1.453045\Quadrupo
 le=-3.4105958,-6.1153848,9.5259807,-5.2927652,-6.8049279,8.0750925\PG=
 C01 [X(C31H50B1Li1N1O6P1)]\\@
 The archive entry for this job was punched.


 DON'T WORRY CHARLIE BROWN...WE LEARN MORE FROM LOSING 
 THAN WE DO FROM WINNING.
 THEN THAT MAKES ME THE SMARTEST PERSON IN THE WORLD...
 CHARLES SCHULZ 'PEANUTS'
 Job cpu time:       0 days  9 hours 22 minutes 36.7 seconds.
 Elapsed time:       0 days  0 hours 36 minutes 26.3 seconds.
 File lengths (MBytes):  RWF=   1328 Int=      0 D2E=      0 Chk=     95 Scr=      1
 Normal termination of Gaussian 16 at Fri Sep 19 16:35:35 2025.
