Job Start Time: Wed Oct  8 17:07:14 MDT 2025
SLURM Job ID: 768214
SLURM Job Name: syn-product-phos-full-c4_tzpop-sp
 Entering Gaussian System, Link 0=/opt/apps/Gaussian/G16C/g16/g16
 Initial command:
 /opt/apps/Gaussian/G16C/g16/l1.exe "/tmp/768214/Gau-387580.inp" -scrdir="/tmp/768214/"
 Entering Link 1 = /opt/apps/Gaussian/G16C/g16/l1.exe PID=    387581.
  
 Copyright (c) 1988-2019, Gaussian, Inc.  All Rights Reserved.
  
 This is part of the Gaussian(R) 16 program.  It is based on
 the Gaussian(R) 09 system (copyright 2009, Gaussian, Inc.),
 the Gaussian(R) 03 system (copyright 2003, Gaussian, Inc.),
 the Gaussian(R) 98 system (copyright 1998, Gaussian, Inc.),
 the Gaussian(R) 94 system (copyright 1995, Gaussian, Inc.),
 the Gaussian 92(TM) system (copyright 1992, Gaussian, Inc.),
 the Gaussian 90(TM) system (copyright 1990, Gaussian, Inc.),
 the Gaussian 88(TM) system (copyright 1988, Gaussian, Inc.),
 the Gaussian 86(TM) system (copyright 1986, Carnegie Mellon
 University), and the Gaussian 82(TM) system (copyright 1983,
 Carnegie Mellon University). Gaussian is a federally registered
 trademark of Gaussian, Inc.
  
 This software contains proprietary and confidential information,
 including trade secrets, belonging to Gaussian, Inc.
  
 This software is provided under written license and may be
 used, copied, transmitted, or stored only in accord with that
 written license.
  
 The following legend is applicable only to US Government
 contracts under FAR:
  
                    RESTRICTED RIGHTS LEGEND
  
 Use, reproduction and disclosure by the US Government is
 subject to restrictions as set forth in subparagraphs (a)
 and (c) of the Commercial Computer Software - Restricted
 Rights clause in FAR 52.227-19.
  
 Gaussian, Inc.
 340 Quinnipiac St., Bldg. 40, Wallingford CT 06492
  
  
 ---------------------------------------------------------------
 Warning -- This program may not be used in any manner that
 competes with the business of Gaussian, Inc. or will provide
 assistance to any competitor of Gaussian, Inc.  The licensee
 of this program is prohibited from giving any competitor of
 Gaussian, Inc. access to this program.  By using this program,
 the user acknowledges that Gaussian, Inc. is engaged in the
 business of creating and licensing software in the field of
 computational chemistry and represents and warrants to the
 licensee that it is not a competitor of Gaussian, Inc. and that
 it will not use this program in any manner prohibited above.
 ---------------------------------------------------------------
  

 Cite this work as:
 Gaussian 16, Revision C.01,
 M. J. Frisch, G. W. Trucks, H. B. Schlegel, G. E. Scuseria, 
 M. A. Robb, J. R. Cheeseman, G. Scalmani, V. Barone, 
 G. A. Petersson, H. Nakatsuji, X. Li, M. Caricato, A. V. Marenich, 
 J. Bloino, B. G. Janesko, R. Gomperts, B. Mennucci, H. P. Hratchian, 
 J. V. Ortiz, A. F. Izmaylov, J. L. Sonnenberg, D. Williams-Young, 
 F. Ding, F. Lipparini, F. Egidi, J. Goings, B. Peng, A. Petrone, 
 T. Henderson, D. Ranasinghe, V. G. Zakrzewski, J. Gao, N. Rega, 
 G. Zheng, W. Liang, M. Hada, M. Ehara, K. Toyota, R. Fukuda, 
 J. Hasegawa, M. Ishida, T. Nakajima, Y. Honda, O. Kitao, H. Nakai, 
 T. Vreven, K. Throssell, J. A. Montgomery, Jr., J. E. Peralta, 
 F. Ogliaro, M. J. Bearpark, J. J. Heyd, E. N. Brothers, K. N. Kudin, 
 V. N. Staroverov, T. A. Keith, R. Kobayashi, J. Normand, 
 K. Raghavachari, A. P. Rendell, J. C. Burant, S. S. Iyengar, 
 J. Tomasi, M. Cossi, J. M. Millam, M. Klene, C. Adamo, R. Cammi, 
 J. W. Ochterski, R. L. Martin, K. Morokuma, O. Farkas, 
 J. B. Foresman, and D. J. Fox, Gaussian, Inc., Wallingford CT, 2019.
 
 ******************************************
 Gaussian 16:  AS64L-G16RevC.01  3-Jul-2019
                 8-Oct-2025 
 ******************************************
 %chk=syn-product-phos-full-c4_tzpop-sp.chk
 %nprocshared=4
 Will use up to    4 processors via shared memory.
 %mem=8GB
 ----------------------------------------------------------------------
 # wb97xd/6-311++g** nosymm int=ultrafine scrf=(smd,solvent=tetrahydrof
 uran)
 ----------------------------------------------------------------------
 1/38=1,172=1/1;
 2/12=2,15=1,17=6,18=5,40=1/2;
 3/5=4,6=6,7=1111,11=2,25=1,30=1,70=32201,72=20,74=-58,75=-5/1,2,3;
 4//1;
 5/5=2,38=5,53=20/2;
 6/7=2,8=2,9=2,10=2,28=1/1;
 99/5=1,9=1/99;
 ---------------------------------
 syn-product-phos-full-c4_tzpop-sp
 ---------------------------------
 Symbolic Z-matrix:
 Charge =  0 Multiplicity = 1
 C                    -3.3525    0.5983    2.0844 
 C                    -2.1084    0.547     3.0243 
 H                    -2.162     1.4456    3.6561 
 C                    -2.0794   -0.6791    3.942 
 H                    -2.9183   -0.6946    4.6449 
 H                    -2.1088   -1.6091    3.3575 
 H                    -1.1522   -0.681     4.5274 
 C                    -4.6441    0.3824    2.8883 
 H                    -4.6906    1.073     3.7426 
 H                    -5.5227    0.5739    2.2609 
 H                    -4.7385   -0.6381    3.2721 
 B                    -3.1992   -0.4887    0.9446 
 C                    -3.4218    1.9966    1.4357 
 H                    -3.5754    2.7627    2.2093 
 H                    -2.5086    2.2587    0.8939 
 H                    -4.26      2.0686    0.7316 
 O                    -2.19     -0.4237    0.0144 
 O                    -3.9988   -1.5862    0.7651 
 C                    -3.6006   -2.2191   -0.4829 
 C                    -2.1322   -1.7078   -0.6619 
 C                    -4.5524   -1.7087   -1.5633 
 H                    -5.5826   -1.9374   -1.2713 
 H                    -4.4682   -0.6244   -1.6954 
 H                    -4.3528   -2.1918   -2.5254 
 C                    -3.73     -3.7263   -0.3361 
 H                    -3.1886   -4.0964    0.5382 
 H                    -4.7847   -4.0007   -0.2271 
 H                    -3.3375   -4.2285   -1.2275 
 C                    -1.6869   -1.495    -2.0973 
 H                    -0.6812   -1.0659   -2.1007 
 H                    -1.6616   -2.4528   -2.6296 
 H                    -2.349    -0.8115   -2.6319 
 C                    -1.0979   -2.5445    0.0887 
 H                    -0.1611   -1.9823    0.1093 
 H                    -1.409    -2.7415    1.1214 
 H                    -0.9222   -3.5037   -0.4094 
 P                     2.2678   -0.1146   -0.8155 
 O                     0.986     0.1444   -0.0283 
 O                     2.4988    0.5992   -2.1291 
 N                    -0.8632    0.6628    2.2432 
 H                    -0.1179    1.0166    2.8376 
 H                    -0.5486   -0.2597    1.9431 
 Li                   -0.5908    1.1581    0.1167 
 C                     1.1634    3.5543   -0.2101 
 O                    -0.0486    3.2167    0.4758 
 C                     0.0374    3.7836    1.7766 
 C                     1.4843    3.5544    2.1963 
 C                     2.2451    3.7538    0.8726 
 H                     1.3908    2.7376   -0.897 
 H                     1.0006    4.4742   -0.788 
 H                    -0.1946    4.8595    1.7274 
 H                    -0.7059    3.2893    2.4052 
 H                     1.8083    4.2412    2.9838 
 H                     1.6089    2.5287    2.5595 
 H                     2.6687    4.7612    0.8111 
 H                     3.0631    3.037     0.7614 
 C                    -0.4507    2.0619   -2.8724 
 O                    -1.2611    1.705    -1.7571 
 C                    -2.601     2.0471   -2.0874 
 C                    -2.7289    1.8681   -3.6147 
 C                    -1.276     1.6374   -4.0846 
 H                    -0.2843    3.1513   -2.8714 
 H                     0.5083    1.5488   -2.765 
 H                    -3.2548    1.3898   -1.511 
 H                    -2.7944    3.088    -1.7895 
 H                    -3.3717    1.0193   -3.8674 
 H                    -3.1641    2.7615   -4.0725 
 H                    -1.1006    0.5787   -4.3007 
 H                    -1.0221    2.2144   -4.9784 
 C                     3.6528    0.2335    0.3312 
 C                     4.9454    0.4541   -0.1561 
 C                     3.428     0.3034    1.7098 
 C                     5.993     0.7417    0.7177 
 H                     5.1286    0.4115   -1.2269 
 C                     4.4725    0.5901    2.5878 
 H                     2.421     0.1469    2.0881 
 C                     5.7573    0.8108    2.0915 
 H                     6.9923    0.9166    0.3275 
 H                     4.2837    0.6469    3.657 
 H                     6.5732    1.0379    2.773 
 C                     2.3362   -1.9273   -1.1016 
 C                     2.5644   -2.8289   -0.0556 
 C                     2.0467   -2.4308   -2.3731 
 C                     2.4973   -4.2035   -0.2732 
 H                     2.7927   -2.4585    0.9416 
 C                     1.9709   -3.8061   -2.5943 
 H                     1.8798   -1.7369   -3.1931 
 C                     2.1943   -4.6953   -1.5438 
 H                     2.6789   -4.892     0.5483 
 H                     1.7413   -4.1829   -3.5879 
 H                     2.1389   -5.7674   -1.7146 
 
 Symmetry turned off by external request.
 Stoichiometry    C31H50BLiNO6P
 Framework group  C1[X(C31H50BLiNO6P)]
 Deg. of freedom   267
 Full point group                 C1      NOp   1
                          Input orientation:                          
 ---------------------------------------------------------------------
 Center     Atomic      Atomic             Coordinates (Angstroms)
 Number     Number       Type             X           Y           Z
 ---------------------------------------------------------------------
      1          6           0       -3.352500    0.598300    2.084400
      2          6           0       -2.108400    0.547000    3.024300
      3          1           0       -2.162000    1.445600    3.656100
      4          6           0       -2.079400   -0.679100    3.942000
      5          1           0       -2.918300   -0.694600    4.644900
      6          1           0       -2.108800   -1.609100    3.357500
      7          1           0       -1.152200   -0.681000    4.527400
      8          6           0       -4.644100    0.382400    2.888300
      9          1           0       -4.690600    1.073000    3.742600
     10          1           0       -5.522700    0.573900    2.260900
     11          1           0       -4.738500   -0.638100    3.272100
     12          5           0       -3.199200   -0.488700    0.944600
     13          6           0       -3.421800    1.996600    1.435700
     14          1           0       -3.575400    2.762700    2.209300
     15          1           0       -2.508600    2.258700    0.893900
     16          1           0       -4.260000    2.068600    0.731600
     17          8           0       -2.190000   -0.423700    0.014400
     18          8           0       -3.998800   -1.586200    0.765100
     19          6           0       -3.600600   -2.219100   -0.482900
     20          6           0       -2.132200   -1.707800   -0.661900
     21          6           0       -4.552400   -1.708700   -1.563300
     22          1           0       -5.582600   -1.937400   -1.271300
     23          1           0       -4.468200   -0.624400   -1.695400
     24          1           0       -4.352800   -2.191800   -2.525400
     25          6           0       -3.730000   -3.726300   -0.336100
     26          1           0       -3.188600   -4.096400    0.538200
     27          1           0       -4.784700   -4.000700   -0.227100
     28          1           0       -3.337500   -4.228500   -1.227500
     29          6           0       -1.686900   -1.495000   -2.097300
     30          1           0       -0.681200   -1.065900   -2.100700
     31          1           0       -1.661600   -2.452800   -2.629600
     32          1           0       -2.349000   -0.811500   -2.631900
     33          6           0       -1.097900   -2.544500    0.088700
     34          1           0       -0.161100   -1.982300    0.109300
     35          1           0       -1.409000   -2.741500    1.121400
     36          1           0       -0.922200   -3.503700   -0.409400
     37         15           0        2.267800   -0.114600   -0.815500
     38          8           0        0.986000    0.144400   -0.028300
     39          8           0        2.498800    0.599200   -2.129100
     40          7           0       -0.863200    0.662800    2.243200
     41          1           0       -0.117900    1.016600    2.837600
     42          1           0       -0.548600   -0.259700    1.943100
     43          3           0       -0.590800    1.158100    0.116700
     44          6           0        1.163400    3.554300   -0.210100
     45          8           0       -0.048600    3.216700    0.475800
     46          6           0        0.037400    3.783600    1.776600
     47          6           0        1.484300    3.554400    2.196300
     48          6           0        2.245100    3.753800    0.872600
     49          1           0        1.390800    2.737600   -0.897000
     50          1           0        1.000600    4.474200   -0.788000
     51          1           0       -0.194600    4.859500    1.727400
     52          1           0       -0.705900    3.289300    2.405200
     53          1           0        1.808300    4.241200    2.983800
     54          1           0        1.608900    2.528700    2.559500
     55          1           0        2.668700    4.761200    0.811100
     56          1           0        3.063100    3.037000    0.761400
     57          6           0       -0.450700    2.061900   -2.872400
     58          8           0       -1.261100    1.705000   -1.757100
     59          6           0       -2.601000    2.047100   -2.087400
     60          6           0       -2.728900    1.868100   -3.614700
     61          6           0       -1.276000    1.637400   -4.084600
     62          1           0       -0.284300    3.151300   -2.871400
     63          1           0        0.508300    1.548800   -2.765000
     64          1           0       -3.254800    1.389800   -1.511000
     65          1           0       -2.794400    3.088000   -1.789500
     66          1           0       -3.371700    1.019300   -3.867400
     67          1           0       -3.164100    2.761500   -4.072500
     68          1           0       -1.100600    0.578700   -4.300700
     69          1           0       -1.022100    2.214400   -4.978400
     70          6           0        3.652800    0.233500    0.331200
     71          6           0        4.945400    0.454100   -0.156100
     72          6           0        3.428000    0.303400    1.709800
     73          6           0        5.993000    0.741700    0.717700
     74          1           0        5.128600    0.411500   -1.226900
     75          6           0        4.472500    0.590100    2.587800
     76          1           0        2.421000    0.146900    2.088100
     77          6           0        5.757300    0.810800    2.091500
     78          1           0        6.992300    0.916600    0.327500
     79          1           0        4.283700    0.646900    3.657000
     80          1           0        6.573200    1.037900    2.773000
     81          6           0        2.336200   -1.927300   -1.101600
     82          6           0        2.564400   -2.828900   -0.055600
     83          6           0        2.046700   -2.430800   -2.373100
     84          6           0        2.497300   -4.203500   -0.273200
     85          1           0        2.792700   -2.458500    0.941600
     86          6           0        1.970900   -3.806100   -2.594300
     87          1           0        1.879800   -1.736900   -3.193100
     88          6           0        2.194300   -4.695300   -1.543800
     89          1           0        2.678900   -4.892000    0.548300
     90          1           0        1.741300   -4.182900   -3.587900
     91          1           0        2.138900   -5.767400   -1.714600
 ---------------------------------------------------------------------
 Rotational constants (GHZ):           0.1031825           0.0742255           0.0636982
 Standard basis: 6-311++G(d,p) (5D, 7F)
  1260 basis functions,  1940 primitive gaussians,  1301 cartesian basis functions
   157 alpha electrons      157 beta electrons
       nuclear repulsion energy      5699.6372659009 Hartrees.
 NAtoms=   91 NActive=   91 NUniq=   91 SFac= 1.00D+00 NAtFMM=   60 NAOKFM=T Big=T
 Integral buffers will be    131072 words long.
 Raffenetti 2 integral format.
 Two-electron integral symmetry is turned off.
 Nuclear repulsion after empirical dispersion term =     5699.5205954059 Hartrees.
 ------------------------------------------------------------------------------
 Polarizable Continuum Model (PCM)
 =================================
 Model                : PCM.
 Atomic radii         : SMD-Coulomb.
 Polarization charges : Total charges.
 Charge compensation  : None.
 Solution method      : On-the-fly selection.
 Cavity type          : VdW (van der Waals Surface) (Alpha=1.000).
 Cavity algorithm     : GePol (No added spheres)
                        Default sphere list used, NSphG=   91.
                        Lebedev-Laikov grids with approx.  5.0 points / Ang**2.
                        Smoothing algorithm: York/Karplus (Gamma=1.0000).
                        Polarization charges: spherical gaussians, with
                                              point-specific exponents (IZeta= 3).
                        Self-potential: point-specific (ISelfS= 7).
                        Self-field    : sphere-specific E.n sum rule (ISelfD= 2).
 Solvent              : TetraHydroFuran, Eps=   7.425700 Eps(inf)=   1.974025
 ------------------------------------------------------------------------------
 ------------------------------------------------------------------------------
 Atomic radii for non-electrostatic terms: SMD-CDS.
 ------------------------------------------------------------------------------
 Nuclear repulsion after PCM non-electrostatic terms =     5699.5097860665 Hartrees.
 One-electron integrals computed using PRISM.
 NBasis=  1260 RedAO= T EigKep=  1.09D-06  NBF=  1260
 NBsUse=  1253 1.00D-06 EigRej=  9.29D-07 NBFU=  1253
 ExpMin= 7.40D-03 ExpMax= 7.75D+04 ExpMxC= 2.65D+03 IAcc=3 IRadAn=         5 AccDes= 0.00D+00
 Harris functional with IExCor= 4639 and IRadAn=       5 diagonalized for initial guess.
 HarFok:  IExCor= 4639 AccDes= 0.00D+00 IRadAn=         5 IDoV= 1 UseB2=F ITyADJ=14
 ICtDFT=  3500011 ScaDFX=  1.000000  1.000000  1.000000  1.000000
 FoFCou: FMM=F IPFlag=           0 FMFlag=      100000 FMFlg1=        2001
         NFxFlg=           0 DoJE=T BraDBF=F KetDBF=T FulRan=T
         wScrn=  0.000000 ICntrl=       500 IOpCl=  0 I1Cent=   200000004 NGrid=           0
         NMat0=    1 NMatS0=      1 NMatT0=    0 NMatD0=    1 NMtDS0=    0 NMtDT0=    0
 Symmetry not used in FoFCou.
 Requested convergence on RMS density matrix=1.00D-08 within 128 cycles.
 Requested convergence on MAX density matrix=1.00D-06.
 Requested convergence on             energy=1.00D-06.
 No special actions if energy rises.
 Inv3:  Mode=1 IEnd=    94147212.
 Iteration    1 A*A^-1 deviation from unit magnitude is 7.33D-15 for   5597.
 Iteration    1 A*A^-1 deviation from orthogonality  is 3.63D-15 for   5595   1857.
 Iteration    1 A^-1*A deviation from unit magnitude is 7.55D-15 for   5597.
 Iteration    1 A^-1*A deviation from orthogonality  is 2.90D-15 for   3500   3072.
 Error on total polarization charges =  0.07652
 SCF Done:  E(RwB97XD) =  -2091.53468186     A.U. after   16 cycles
            NFock= 16  Conv=0.39D-08     -V/T= 2.0040
 SMD-CDS (non-electrostatic) energy       (kcal/mol) =      -6.78
 (included in total energy above)

 **********************************************************************

            Population analysis using the SCF Density.

 **********************************************************************

 Alpha  occ. eigenvalues --  -77.25710 -19.25014 -19.25008 -19.24712 -19.24557
 Alpha  occ. eigenvalues --  -19.17041 -19.16297 -14.40611 -10.34502 -10.34351
 Alpha  occ. eigenvalues --  -10.31755 -10.31696 -10.31225 -10.30944 -10.30848
 Alpha  occ. eigenvalues --  -10.28772 -10.28621 -10.28600 -10.28566 -10.28564
 Alpha  occ. eigenvalues --  -10.28543 -10.28499 -10.28479 -10.28458 -10.28349
 Alpha  occ. eigenvalues --  -10.28020 -10.28018 -10.27345 -10.27250 -10.27058
 Alpha  occ. eigenvalues --  -10.27017 -10.26951 -10.26761 -10.26755 -10.26428
 Alpha  occ. eigenvalues --  -10.26387 -10.26135 -10.26109 -10.25814  -6.86892
 Alpha  occ. eigenvalues --   -6.70020  -4.84732  -4.84726  -4.84695  -1.98120
 Alpha  occ. eigenvalues --   -1.16838  -1.14134  -1.13858  -1.09626  -1.06191
 Alpha  occ. eigenvalues --   -1.00088  -0.98758  -0.95481  -0.95323  -0.90609
 Alpha  occ. eigenvalues --   -0.88390  -0.87177  -0.87037  -0.84907  -0.84571
 Alpha  occ. eigenvalues --   -0.84290  -0.84184  -0.83896  -0.82878  -0.82524
 Alpha  occ. eigenvalues --   -0.81463  -0.79746  -0.77037  -0.76818  -0.71743
 Alpha  occ. eigenvalues --   -0.71204  -0.71004  -0.69538  -0.69240  -0.68657
 Alpha  occ. eigenvalues --   -0.68460  -0.68145  -0.67827  -0.67388  -0.65627
 Alpha  occ. eigenvalues --   -0.64524  -0.63251  -0.61966  -0.60577  -0.59169
 Alpha  occ. eigenvalues --   -0.58573  -0.58032  -0.57822  -0.57217  -0.56935
 Alpha  occ. eigenvalues --   -0.56202  -0.55063  -0.54125  -0.53899  -0.53464
 Alpha  occ. eigenvalues --   -0.53445  -0.53246  -0.53127  -0.52842  -0.52492
 Alpha  occ. eigenvalues --   -0.52378  -0.52062  -0.51393  -0.50315  -0.50152
 Alpha  occ. eigenvalues --   -0.50080  -0.49652  -0.49452  -0.49380  -0.48594
 Alpha  occ. eigenvalues --   -0.48064  -0.47962  -0.47779  -0.47526  -0.47516
 Alpha  occ. eigenvalues --   -0.47062  -0.46698  -0.46459  -0.45777  -0.45581
 Alpha  occ. eigenvalues --   -0.45226  -0.45103  -0.44676  -0.44312  -0.43955
 Alpha  occ. eigenvalues --   -0.43684  -0.43272  -0.42982  -0.42791  -0.42545
 Alpha  occ. eigenvalues --   -0.42505  -0.42341  -0.42291  -0.41892  -0.41770
 Alpha  occ. eigenvalues --   -0.41659  -0.41585  -0.41018  -0.40414  -0.40162
 Alpha  occ. eigenvalues --   -0.39775  -0.39496  -0.39386  -0.38722  -0.36932
 Alpha  occ. eigenvalues --   -0.36055  -0.35618  -0.35188  -0.34198  -0.33920
 Alpha  occ. eigenvalues --   -0.33302  -0.33292  -0.32966  -0.32807  -0.32738
 Alpha  occ. eigenvalues --   -0.31952  -0.31267
 Alpha virt. eigenvalues --    0.02262   0.02497   0.02557   0.02754   0.03971
 Alpha virt. eigenvalues --    0.05183   0.05377   0.05429   0.05637   0.05758
 Alpha virt. eigenvalues --    0.05778   0.05956   0.06135   0.06815   0.06916
 Alpha virt. eigenvalues --    0.06976   0.07212   0.07243   0.07345   0.07432
 Alpha virt. eigenvalues --    0.07542   0.07801   0.08035   0.08247   0.08628
 Alpha virt. eigenvalues --    0.08798   0.08893   0.09286   0.09522   0.09565
 Alpha virt. eigenvalues --    0.09993   0.10254   0.10562   0.10637   0.10875
 Alpha virt. eigenvalues --    0.11121   0.11349   0.11633   0.11710   0.12024
 Alpha virt. eigenvalues --    0.12037   0.12521   0.12708   0.12864   0.12952
 Alpha virt. eigenvalues --    0.13145   0.13522   0.13965   0.14145   0.14322
 Alpha virt. eigenvalues --    0.14362   0.14717   0.15082   0.15110   0.15126
 Alpha virt. eigenvalues --    0.15481   0.15662   0.16003   0.16106   0.16192
 Alpha virt. eigenvalues --    0.16401   0.16462   0.16758   0.16980   0.17041
 Alpha virt. eigenvalues --    0.17096   0.17219   0.17296   0.17485   0.17606
 Alpha virt. eigenvalues --    0.17819   0.18081   0.18100   0.18229   0.18436
 Alpha virt. eigenvalues --    0.18448   0.18529   0.18869   0.18928   0.19067
 Alpha virt. eigenvalues --    0.19122   0.19312   0.19358   0.19560   0.19619
 Alpha virt. eigenvalues --    0.19837   0.19996   0.20064   0.20247   0.20371
 Alpha virt. eigenvalues --    0.20461   0.20593   0.20696   0.20866   0.20932
 Alpha virt. eigenvalues --    0.21086   0.21326   0.21350   0.21554   0.21630
 Alpha virt. eigenvalues --    0.21657   0.21861   0.22055   0.22173   0.22239
 Alpha virt. eigenvalues --    0.22446   0.22572   0.22654   0.22777   0.22897
 Alpha virt. eigenvalues --    0.23046   0.23222   0.23339   0.23400   0.23606
 Alpha virt. eigenvalues --    0.23761   0.23873   0.23982   0.24067   0.24195
 Alpha virt. eigenvalues --    0.24239   0.24557   0.24657   0.24702   0.24904
 Alpha virt. eigenvalues --    0.24976   0.25114   0.25230   0.25296   0.25401
 Alpha virt. eigenvalues --    0.25569   0.25775   0.25872   0.26018   0.26109
 Alpha virt. eigenvalues --    0.26229   0.26378   0.26626   0.26713   0.26919
 Alpha virt. eigenvalues --    0.26989   0.27124   0.27226   0.27417   0.27564
 Alpha virt. eigenvalues --    0.27740   0.27881   0.27954   0.28144   0.28316
 Alpha virt. eigenvalues --    0.28446   0.28493   0.28638   0.28717   0.28890
 Alpha virt. eigenvalues --    0.29052   0.29415   0.29493   0.29679   0.29796
 Alpha virt. eigenvalues --    0.30057   0.30110   0.30207   0.30291   0.30519
 Alpha virt. eigenvalues --    0.30557   0.30882   0.31015   0.31168   0.31502
 Alpha virt. eigenvalues --    0.31643   0.31662   0.31855   0.31900   0.32046
 Alpha virt. eigenvalues --    0.32133   0.32345   0.32550   0.32687   0.32791
 Alpha virt. eigenvalues --    0.33038   0.33228   0.33427   0.33574   0.33823
 Alpha virt. eigenvalues --    0.34065   0.34225   0.34535   0.34571   0.34647
 Alpha virt. eigenvalues --    0.34822   0.35072   0.35122   0.35140   0.35384
 Alpha virt. eigenvalues --    0.35535   0.35739   0.36180   0.36392   0.36454
 Alpha virt. eigenvalues --    0.36591   0.36736   0.36777   0.36898   0.37321
 Alpha virt. eigenvalues --    0.37342   0.37596   0.37758   0.37939   0.38015
 Alpha virt. eigenvalues --    0.38225   0.38280   0.38509   0.38605   0.38718
 Alpha virt. eigenvalues --    0.38924   0.39065   0.39258   0.39383   0.39631
 Alpha virt. eigenvalues --    0.39729   0.39871   0.40044   0.40187   0.40327
 Alpha virt. eigenvalues --    0.40470   0.40616   0.40660   0.40811   0.41175
 Alpha virt. eigenvalues --    0.41286   0.41326   0.41634   0.41787   0.41891
 Alpha virt. eigenvalues --    0.42068   0.42173   0.42385   0.42586   0.42782
 Alpha virt. eigenvalues --    0.42998   0.43156   0.43247   0.43564   0.43875
 Alpha virt. eigenvalues --    0.44034   0.44182   0.44208   0.44532   0.44669
 Alpha virt. eigenvalues --    0.44784   0.45040   0.45135   0.45310   0.45653
 Alpha virt. eigenvalues --    0.45802   0.46068   0.46152   0.46315   0.46623
 Alpha virt. eigenvalues --    0.46779   0.46899   0.47142   0.47625   0.47811
 Alpha virt. eigenvalues --    0.47896   0.48255   0.48420   0.48977   0.49080
 Alpha virt. eigenvalues --    0.49362   0.49515   0.49717   0.50048   0.50503
 Alpha virt. eigenvalues --    0.50726   0.50896   0.51123   0.51611   0.51903
 Alpha virt. eigenvalues --    0.52543   0.52662   0.53189   0.53389   0.53579
 Alpha virt. eigenvalues --    0.53868   0.54494   0.54814   0.55380   0.55671
 Alpha virt. eigenvalues --    0.55792   0.56329   0.56640   0.56954   0.57254
 Alpha virt. eigenvalues --    0.57577   0.57765   0.58060   0.58165   0.58359
 Alpha virt. eigenvalues --    0.59000   0.59230   0.59938   0.60333   0.60490
 Alpha virt. eigenvalues --    0.60906   0.61461   0.61709   0.62397   0.62810
 Alpha virt. eigenvalues --    0.62884   0.63011   0.63274   0.63860   0.64389
 Alpha virt. eigenvalues --    0.64475   0.64596   0.64733   0.65104   0.65256
 Alpha virt. eigenvalues --    0.65886   0.65985   0.66181   0.66513   0.66718
 Alpha virt. eigenvalues --    0.67045   0.67311   0.67640   0.68182   0.68390
 Alpha virt. eigenvalues --    0.68596   0.68776   0.69232   0.69297   0.69626
 Alpha virt. eigenvalues --    0.69874   0.70001   0.70504   0.70769   0.70876
 Alpha virt. eigenvalues --    0.70991   0.71700   0.71946   0.72255   0.72422
 Alpha virt. eigenvalues --    0.72718   0.72872   0.73047   0.73338   0.73921
 Alpha virt. eigenvalues --    0.74014   0.74404   0.74676   0.74849   0.75042
 Alpha virt. eigenvalues --    0.75300   0.75678   0.75802   0.76255   0.76340
 Alpha virt. eigenvalues --    0.76586   0.76743   0.77281   0.77352   0.77576
 Alpha virt. eigenvalues --    0.77806   0.78203   0.78340   0.78664   0.78725
 Alpha virt. eigenvalues --    0.79287   0.79380   0.79613   0.79770   0.80507
 Alpha virt. eigenvalues --    0.80770   0.81217   0.81270   0.81366   0.81679
 Alpha virt. eigenvalues --    0.81767   0.81855   0.82167   0.82638   0.82792
 Alpha virt. eigenvalues --    0.82901   0.83023   0.83382   0.83724   0.83995
 Alpha virt. eigenvalues --    0.84236   0.84322   0.84586   0.84790   0.84989
 Alpha virt. eigenvalues --    0.85068   0.85564   0.85832   0.86044   0.86170
 Alpha virt. eigenvalues --    0.86503   0.86712   0.87086   0.87168   0.87418
 Alpha virt. eigenvalues --    0.87693   0.87823   0.88246   0.88319   0.88731
 Alpha virt. eigenvalues --    0.88950   0.88993   0.89284   0.89435   0.89882
 Alpha virt. eigenvalues --    0.89916   0.90280   0.90462   0.90612   0.91167
 Alpha virt. eigenvalues --    0.91212   0.91586   0.92032   0.92185   0.92264
 Alpha virt. eigenvalues --    0.92548   0.92690   0.92888   0.93078   0.93288
 Alpha virt. eigenvalues --    0.93623   0.94023   0.94241   0.94488   0.95153
 Alpha virt. eigenvalues --    0.95263   0.95471   0.95640   0.95848   0.96315
 Alpha virt. eigenvalues --    0.96469   0.96538   0.96750   0.97118   0.97494
 Alpha virt. eigenvalues --    0.97763   0.98005   0.98197   0.98886   0.99142
 Alpha virt. eigenvalues --    0.99620   0.99880   1.00103   1.00687   1.00977
 Alpha virt. eigenvalues --    1.01591   1.02248   1.02585   1.02959   1.03423
 Alpha virt. eigenvalues --    1.03566   1.04470   1.04682   1.05750   1.06056
 Alpha virt. eigenvalues --    1.06510   1.06904   1.07460   1.07792   1.08360
 Alpha virt. eigenvalues --    1.09163   1.09319   1.09905   1.10338   1.10840
 Alpha virt. eigenvalues --    1.11198   1.11553   1.11984   1.12150   1.12531
 Alpha virt. eigenvalues --    1.13027   1.13278   1.14239   1.14519   1.14599
 Alpha virt. eigenvalues --    1.15143   1.15708   1.16161   1.16587   1.17169
 Alpha virt. eigenvalues --    1.17575   1.18157   1.18413   1.19075   1.19240
 Alpha virt. eigenvalues --    1.19650   1.20316   1.20466   1.21325   1.21671
 Alpha virt. eigenvalues --    1.22461   1.22867   1.23757   1.24030   1.24648
 Alpha virt. eigenvalues --    1.25148   1.25325   1.26469   1.26647   1.26957
 Alpha virt. eigenvalues --    1.27305   1.27688   1.28480   1.28711   1.29545
 Alpha virt. eigenvalues --    1.30480   1.31070   1.31229   1.31750   1.31914
 Alpha virt. eigenvalues --    1.32556   1.33282   1.33734   1.34450   1.35088
 Alpha virt. eigenvalues --    1.35663   1.36036   1.36927   1.37173   1.37427
 Alpha virt. eigenvalues --    1.38399   1.38838   1.39399   1.40573   1.41052
 Alpha virt. eigenvalues --    1.41426   1.41690   1.41778   1.42666   1.42947
 Alpha virt. eigenvalues --    1.43837   1.44253   1.44643   1.45533   1.45799
 Alpha virt. eigenvalues --    1.45979   1.46972   1.47564   1.47957   1.48644
 Alpha virt. eigenvalues --    1.49202   1.49518   1.50386   1.50949   1.51669
 Alpha virt. eigenvalues --    1.51877   1.52921   1.53821   1.54064   1.54661
 Alpha virt. eigenvalues --    1.55873   1.56035   1.56645   1.57083   1.57758
 Alpha virt. eigenvalues --    1.58306   1.58745   1.59205   1.59917   1.60369
 Alpha virt. eigenvalues --    1.61584   1.62008   1.62294   1.62643   1.62971
 Alpha virt. eigenvalues --    1.63395   1.63537   1.64220   1.64401   1.64577
 Alpha virt. eigenvalues --    1.64827   1.65100   1.65277   1.65810   1.66377
 Alpha virt. eigenvalues --    1.66647   1.66769   1.67162   1.67320   1.67495
 Alpha virt. eigenvalues --    1.67835   1.68253   1.68401   1.68699   1.69002
 Alpha virt. eigenvalues --    1.69232   1.69700   1.69874   1.70354   1.70647
 Alpha virt. eigenvalues --    1.70716   1.70869   1.71193   1.71685   1.72071
 Alpha virt. eigenvalues --    1.72590   1.72887   1.73132   1.73666   1.73918
 Alpha virt. eigenvalues --    1.74355   1.74561   1.74857   1.75103   1.75631
 Alpha virt. eigenvalues --    1.75848   1.76414   1.76671   1.76875   1.77172
 Alpha virt. eigenvalues --    1.77368   1.77530   1.77706   1.78369   1.78744
 Alpha virt. eigenvalues --    1.79130   1.79287   1.79821   1.80145   1.80683
 Alpha virt. eigenvalues --    1.80965   1.81278   1.81447   1.81826   1.82531
 Alpha virt. eigenvalues --    1.82751   1.82887   1.83053   1.83330   1.84183
 Alpha virt. eigenvalues --    1.84487   1.84631   1.85584   1.85913   1.86215
 Alpha virt. eigenvalues --    1.86575   1.86878   1.87188   1.87683   1.87789
 Alpha virt. eigenvalues --    1.88099   1.88377   1.88651   1.89411   1.89654
 Alpha virt. eigenvalues --    1.89723   1.90028   1.90416   1.90664   1.91097
 Alpha virt. eigenvalues --    1.91261   1.91790   1.91933   1.92396   1.92779
 Alpha virt. eigenvalues --    1.93096   1.93972   1.94422   1.94654   1.94797
 Alpha virt. eigenvalues --    1.95036   1.95622   1.96243   1.96607   1.96991
 Alpha virt. eigenvalues --    1.97465   1.98190   1.98315   1.98550   1.99254
 Alpha virt. eigenvalues --    1.99457   1.99803   2.00594   2.01137   2.01615
 Alpha virt. eigenvalues --    2.01868   2.02072   2.02553   2.03009   2.03135
 Alpha virt. eigenvalues --    2.03736   2.04140   2.04238   2.04545   2.04990
 Alpha virt. eigenvalues --    2.05276   2.05830   2.05886   2.06583   2.07010
 Alpha virt. eigenvalues --    2.07415   2.07608   2.08090   2.08308   2.08464
 Alpha virt. eigenvalues --    2.09401   2.09656   2.10301   2.10428   2.10875
 Alpha virt. eigenvalues --    2.11277   2.11338   2.12638   2.13458   2.13631
 Alpha virt. eigenvalues --    2.13981   2.14448   2.15051   2.15276   2.15484
 Alpha virt. eigenvalues --    2.15966   2.16209   2.16775   2.17096   2.17601
 Alpha virt. eigenvalues --    2.18148   2.18367   2.18854   2.19217   2.19973
 Alpha virt. eigenvalues --    2.20739   2.21008   2.21854   2.22423   2.22689
 Alpha virt. eigenvalues --    2.23015   2.23410   2.24050   2.24333   2.24875
 Alpha virt. eigenvalues --    2.25240   2.26327   2.26946   2.27518   2.28058
 Alpha virt. eigenvalues --    2.28727   2.29016   2.29043   2.29676   2.30257
 Alpha virt. eigenvalues --    2.31622   2.32173   2.32274   2.33557   2.33917
 Alpha virt. eigenvalues --    2.35074   2.35674   2.36180   2.36883   2.37669
 Alpha virt. eigenvalues --    2.38598   2.39732   2.39920   2.40389   2.40735
 Alpha virt. eigenvalues --    2.41032   2.42174   2.42636   2.42977   2.43300
 Alpha virt. eigenvalues --    2.43691   2.44198   2.44946   2.45710   2.46273
 Alpha virt. eigenvalues --    2.46454   2.47926   2.48348   2.49198   2.49745
 Alpha virt. eigenvalues --    2.50720   2.51153   2.52299   2.53138   2.54035
 Alpha virt. eigenvalues --    2.54146   2.54742   2.55525   2.56423   2.58570
 Alpha virt. eigenvalues --    2.58785   2.59479   2.60125   2.60468   2.61435
 Alpha virt. eigenvalues --    2.61845   2.62419   2.62829   2.63349   2.63818
 Alpha virt. eigenvalues --    2.64406   2.64611   2.64815   2.65300   2.65443
 Alpha virt. eigenvalues --    2.66084   2.66482   2.66729   2.66958   2.67558
 Alpha virt. eigenvalues --    2.67927   2.68322   2.68671   2.68900   2.70039
 Alpha virt. eigenvalues --    2.70455   2.70748   2.71233   2.71508   2.72692
 Alpha virt. eigenvalues --    2.72964   2.73247   2.74033   2.74676   2.75064
 Alpha virt. eigenvalues --    2.75352   2.75786   2.76486   2.76841   2.76957
 Alpha virt. eigenvalues --    2.77501   2.77742   2.78444   2.79014   2.79200
 Alpha virt. eigenvalues --    2.79690   2.80346   2.81213   2.82259   2.83046
 Alpha virt. eigenvalues --    2.83644   2.84181   2.84612   2.85005   2.85123
 Alpha virt. eigenvalues --    2.85493   2.86031   2.86313   2.86652   2.86795
 Alpha virt. eigenvalues --    2.87846   2.88076   2.88481   2.88778   2.89420
 Alpha virt. eigenvalues --    2.90030   2.90195   2.90426   2.90942   2.91491
 Alpha virt. eigenvalues --    2.91751   2.92363   2.93052   2.93099   2.93663
 Alpha virt. eigenvalues --    2.93780   2.94113   2.94654   2.95049   2.95623
 Alpha virt. eigenvalues --    2.96453   2.96937   2.97457   2.97504   2.98160
 Alpha virt. eigenvalues --    2.98550   2.98912   2.99048   2.99371   2.99813
 Alpha virt. eigenvalues --    3.00463   3.00627   3.00972   3.01501   3.02353
 Alpha virt. eigenvalues --    3.02461   3.02751   3.02858   3.03508   3.04131
 Alpha virt. eigenvalues --    3.04545   3.05267   3.05573   3.06043   3.06518
 Alpha virt. eigenvalues --    3.06805   3.07122   3.07964   3.08596   3.08841
 Alpha virt. eigenvalues --    3.09332   3.09825   3.10008   3.10661   3.11439
 Alpha virt. eigenvalues --    3.11619   3.11845   3.12460   3.13218   3.14338
 Alpha virt. eigenvalues --    3.14788   3.16044   3.16629   3.16746   3.17600
 Alpha virt. eigenvalues --    3.18308   3.19063   3.19625   3.20480   3.20870
 Alpha virt. eigenvalues --    3.21214   3.22099   3.22517   3.23810   3.24483
 Alpha virt. eigenvalues --    3.24952   3.25534   3.25881   3.27378   3.27847
 Alpha virt. eigenvalues --    3.29050   3.29209   3.29756   3.30309   3.30751
 Alpha virt. eigenvalues --    3.31493   3.31879   3.32683   3.34273   3.34556
 Alpha virt. eigenvalues --    3.35379   3.35760   3.36965   3.37749   3.38443
 Alpha virt. eigenvalues --    3.40045   3.42149   3.42790   3.43848   3.45541
 Alpha virt. eigenvalues --    3.46169   3.47102   3.47835   3.48859   3.49639
 Alpha virt. eigenvalues --    3.49659   3.50964   3.51830   3.52932   3.54150
 Alpha virt. eigenvalues --    3.54400   3.54794   3.56233   3.64039   3.65110
 Alpha virt. eigenvalues --    3.66116   3.66498   3.67771   3.69028   3.70415
 Alpha virt. eigenvalues --    3.74109   3.74515   3.75564   3.76465   3.77930
 Alpha virt. eigenvalues --    3.79006   3.80915   3.81325   3.87595   3.89014
 Alpha virt. eigenvalues --    3.89223   3.90072   3.90582   3.91692   3.92884
 Alpha virt. eigenvalues --    3.94131   3.94473   3.94762   3.95294   3.95622
 Alpha virt. eigenvalues --    3.95985   3.96638   3.96886   3.97628   3.99042
 Alpha virt. eigenvalues --    4.00767   4.03035   4.03194   4.05248   4.11608
 Alpha virt. eigenvalues --    4.11843   4.11939   4.15351   4.15523   4.15777
 Alpha virt. eigenvalues --    4.15889   4.19688   4.21114   4.22432   4.24766
 Alpha virt. eigenvalues --    4.25642   4.26749   4.28533   4.29410   4.29848
 Alpha virt. eigenvalues --    4.30412   4.30982   4.31393   4.33545   4.35452
 Alpha virt. eigenvalues --    4.40548   4.41530   4.43408   4.45050   4.47138
 Alpha virt. eigenvalues --    4.49176   4.49869   4.50910   4.57133   4.83497
 Alpha virt. eigenvalues --    4.89161   4.95500   4.96186   4.99875   5.36921
 Alpha virt. eigenvalues --    5.37409   5.38513   5.39907   5.40854   5.44409
 Alpha virt. eigenvalues --    5.49866   5.51041   5.53096   5.56769   5.68516
 Alpha virt. eigenvalues --    5.69543   5.71027   5.73434   5.78188   5.80556
 Alpha virt. eigenvalues --    5.82873   5.89253   7.69598  14.37989  14.40070
 Alpha virt. eigenvalues --   14.50708  15.03525  23.79463  23.82905  23.92647
 Alpha virt. eigenvalues --   23.99878  24.00061  24.03053  24.03214  24.04828
 Alpha virt. eigenvalues --   24.05086  24.06345  24.10741  24.11865  24.12109
 Alpha virt. eigenvalues --   24.12490  24.13021  24.13425  24.14025  24.14149
 Alpha virt. eigenvalues --   24.14989  24.15435  24.15946  24.17507  24.18858
 Alpha virt. eigenvalues --   24.20080  24.21665  24.21844  24.22441  24.23649
 Alpha virt. eigenvalues --   24.23784  24.32969  24.33080  35.84433  50.15166
 Alpha virt. eigenvalues --   50.16397  50.17713  50.19698  50.20563  50.23700
 Alpha virt. eigenvalues --  163.95074
          Condensed to atoms (all electrons):
 Mulliken charges:
               1
     1  C   -0.195953
     2  C   -0.252250
     3  H    0.211907
     4  C   -0.869586
     5  H    0.199023
     6  H    0.195811
     7  H    0.197924
     8  C   -0.616497
     9  H    0.188721
    10  H    0.192970
    11  H    0.172933
    12  B    0.775245
    13  C   -0.389070
    14  H    0.241245
    15  H   -0.169902
    16  H    0.262111
    17  O    0.052061
    18  O    0.111127
    19  C   -0.050091
    20  C   -0.934047
    21  C   -0.263520
    22  H    0.229277
    23  H    0.105099
    24  H    0.235267
    25  C   -0.781677
    26  H    0.191004
    27  H    0.214372
    28  H    0.215884
    29  C   -0.806624
    30  H    0.363326
    31  H    0.268365
    32  H    0.200625
    33  C   -0.150496
    34  H    0.245837
    35  H    0.217025
    36  H    0.235461
    37  P   -0.379455
    38  O   -0.024560
    39  O   -0.139625
    40  N   -0.553575
    41  H    0.473297
    42  H    0.306751
    43  Li  -0.645942
    44  C   -0.128374
    45  O    0.025242
    46  C   -0.086317
    47  C   -0.435561
    48  C   -0.425725
    49  H    0.046895
    50  H    0.202686
    51  H    0.197616
    52  H    0.178438
    53  H    0.255251
    54  H    0.080663
    55  H    0.255653
    56  H    0.163080
    57  C   -0.107484
    58  O    0.192889
    59  C    0.023087
    60  C   -0.501581
    61  C   -0.819199
    62  H    0.187584
    63  H    0.272060
    64  H    0.271531
    65  H    0.241268
    66  H    0.188292
    67  H    0.225667
    68  H    0.182343
    69  H    0.238256
    70  C    0.036072
    71  C    0.108373
    72  C   -0.032941
    73  C   -0.574082
    74  H    0.299484
    75  C   -0.183677
    76  H    0.298623
    77  C   -0.556446
    78  H    0.278048
    79  H    0.288762
    80  H    0.254598
    81  C   -0.080192
    82  C   -0.103712
    83  C   -0.081190
    84  C   -0.369515
    85  H    0.253862
    86  C   -0.374095
    87  H    0.323654
    88  C   -0.589659
    89  H    0.278535
    90  H    0.272782
    91  H    0.248663
 Sum of Mulliken charges =  -0.00000
 Mulliken charges with hydrogens summed into heavy atoms:
               1
     1  C   -0.195953
     2  C   -0.040343
     4  C   -0.276829
     8  C   -0.061873
    12  B    0.775245
    13  C   -0.055616
    17  O    0.052061
    18  O    0.111127
    19  C   -0.050091
    20  C   -0.934047
    21  C    0.306122
    25  C   -0.160417
    29  C    0.025692
    33  C    0.547827
    37  P   -0.379455
    38  O   -0.024560
    39  O   -0.139625
    40  N    0.226473
    43  Li  -0.645942
    44  C    0.121207
    45  O    0.025242
    46  C    0.289737
    47  C   -0.099647
    48  C   -0.006992
    57  C    0.352161
    58  O    0.192889
    59  C    0.535886
    60  C   -0.087622
    61  C   -0.398600
    70  C    0.036072
    71  C    0.407857
    72  C    0.265682
    73  C   -0.296034
    75  C    0.105084
    77  C   -0.301849
    81  C   -0.080192
    82  C    0.150150
    83  C    0.242463
    84  C   -0.090980
    86  C   -0.101313
    88  C   -0.340996
 Electronic spatial extent (au):  <R**2>=          20131.1227
 Charge=             -0.0000 electrons
 Dipole moment (field-independent basis, Debye):
    X=             -6.1334    Y=              0.7740    Z=              3.8371  Tot=              7.2761
 Quadrupole moment (field-independent basis, Debye-Ang):
   XX=           -258.3801   YY=           -232.3934   ZZ=           -237.1599
   XY=              2.1300   XZ=             24.0334   YZ=              9.4214
 Traceless Quadrupole moment (field-independent basis, Debye-Ang):
   XX=            -15.7356   YY=             10.2511   ZZ=              5.4845
   XY=              2.1300   XZ=             24.0334   YZ=              9.4214
 Octapole moment (field-independent basis, Debye-Ang**2):
  XXX=             20.8937  YYY=            -11.8031  ZZZ=             46.3480  XYY=            -10.7885
  XXY=             35.6603  XXZ=             22.3367  XZZ=            -26.2962  YZZ=             14.8573
  YYZ=             -9.8949  XYZ=              3.3593
 Hexadecapole moment (field-independent basis, Debye-Ang**3):
 XXXX=         -13200.0715 YYYY=          -7358.0772 ZZZZ=          -5955.3806 XXXY=            -37.6200
 XXXZ=            295.5520 YYYX=           -261.2223 YYYZ=           -523.2242 ZZZX=             78.7720
 ZZZY=           -550.0800 XXYY=          -3639.9539 XXZZ=          -3262.2054 YYZZ=          -2199.8697
 XXYZ=           -144.9589 YYXZ=             46.1026 ZZXY=           -116.4299
 N-N= 5.699509786066D+03 E-N=-1.629329237913D+04  KE= 2.083177884295D+03
 Unable to Open any file for archive entry.
 1\1\GINC-NODE08\SP\RwB97XD\6-311++G(d,p)\C31H50B1Li1N1O6P1\WHUGHES2\08
 -Oct-2025\0\\# wb97xd/6-311++g** nosymm int=ultrafine scrf=(smd,solven
 t=tetrahydrofuran)\\syn-product-phos-full-c4_tzpop-sp\\0,1\C,0,-3.3525
 ,0.5983,2.0844\C,0,-2.1084,0.547,3.0243\H,0,-2.162,1.4456,3.6561\C,0,-
 2.0794,-0.6791,3.942\H,0,-2.9183,-0.6946,4.6449\H,0,-2.1088,-1.6091,3.
 3575\H,0,-1.1522,-0.681,4.5274\C,0,-4.6441,0.3824,2.8883\H,0,-4.6906,1
 .073,3.7426\H,0,-5.5227,0.5739,2.2609\H,0,-4.7385,-0.6381,3.2721\B,0,-
 3.1992,-0.4887,0.9446\C,0,-3.4218,1.9966,1.4357\H,0,-3.5754,2.7627,2.2
 093\H,0,-2.5086,2.2587,0.8939\H,0,-4.26,2.0686,0.7316\O,0,-2.19,-0.423
 7,0.0144\O,0,-3.9988,-1.5862,0.7651\C,0,-3.6006,-2.2191,-0.4829\C,0,-2
 .1322,-1.7078,-0.6619\C,0,-4.5524,-1.7087,-1.5633\H,0,-5.5826,-1.9374,
 -1.2713\H,0,-4.4682,-0.6244,-1.6954\H,0,-4.3528,-2.1918,-2.5254\C,0,-3
 .73,-3.7263,-0.3361\H,0,-3.1886,-4.0964,0.5382\H,0,-4.7847,-4.0007,-0.
 2271\H,0,-3.3375,-4.2285,-1.2275\C,0,-1.6869,-1.495,-2.0973\H,0,-0.681
 2,-1.0659,-2.1007\H,0,-1.6616,-2.4528,-2.6296\H,0,-2.349,-0.8115,-2.63
 19\C,0,-1.0979,-2.5445,0.0887\H,0,-0.1611,-1.9823,0.1093\H,0,-1.409,-2
 .7415,1.1214\H,0,-0.9222,-3.5037,-0.4094\P,0,2.2678,-0.1146,-0.8155\O,
 0,0.986,0.1444,-0.0283\O,0,2.4988,0.5992,-2.1291\N,0,-0.8632,0.6628,2.
 2432\H,0,-0.1179,1.0166,2.8376\H,0,-0.5486,-0.2597,1.9431\Li,0,-0.5908
 ,1.1581,0.1167\C,0,1.1634,3.5543,-0.2101\O,0,-0.0486,3.2167,0.4758\C,0
 ,0.0374,3.7836,1.7766\C,0,1.4843,3.5544,2.1963\C,0,2.2451,3.7538,0.872
 6\H,0,1.3908,2.7376,-0.897\H,0,1.0006,4.4742,-0.788\H,0,-0.1946,4.8595
 ,1.7274\H,0,-0.7059,3.2893,2.4052\H,0,1.8083,4.2412,2.9838\H,0,1.6089,
 2.5287,2.5595\H,0,2.6687,4.7612,0.8111\H,0,3.0631,3.037,0.7614\C,0,-0.
 4507,2.0619,-2.8724\O,0,-1.2611,1.705,-1.7571\C,0,-2.601,2.0471,-2.087
 4\C,0,-2.7289,1.8681,-3.6147\C,0,-1.276,1.6374,-4.0846\H,0,-0.2843,3.1
 513,-2.8714\H,0,0.5083,1.5488,-2.765\H,0,-3.2548,1.3898,-1.511\H,0,-2.
 7944,3.088,-1.7895\H,0,-3.3717,1.0193,-3.8674\H,0,-3.1641,2.7615,-4.07
 25\H,0,-1.1006,0.5787,-4.3007\H,0,-1.0221,2.2144,-4.9784\C,0,3.6528,0.
 2335,0.3312\C,0,4.9454,0.4541,-0.1561\C,0,3.428,0.3034,1.7098\C,0,5.99
 3,0.7417,0.7177\H,0,5.1286,0.4115,-1.2269\C,0,4.4725,0.5901,2.5878\H,0
 ,2.421,0.1469,2.0881\C,0,5.7573,0.8108,2.0915\H,0,6.9923,0.9166,0.3275
 \H,0,4.2837,0.6469,3.657\H,0,6.5732,1.0379,2.773\C,0,2.3362,-1.9273,-1
 .1016\C,0,2.5644,-2.8289,-0.0556\C,0,2.0467,-2.4308,-2.3731\C,0,2.4973
 ,-4.2035,-0.2732\H,0,2.7927,-2.4585,0.9416\C,0,1.9709,-3.8061,-2.5943\
 H,0,1.8798,-1.7369,-3.1931\C,0,2.1943,-4.6953,-1.5438\H,0,2.6789,-4.89
 2,0.5483\H,0,1.7413,-4.1829,-3.5879\H,0,2.1389,-5.7674,-1.7146\\Versio
 n=AS64L-G16RevC.01\HF=-2091.5346819\RMSD=3.899e-09\Dipole=-2.4130754,0
 .3045058,1.5096347\Quadrupole=-11.6990433,7.6214203,4.077623,1.5835988
 ,17.8682792,7.0045813\PG=C01 [X(C31H50B1Li1N1O6P1)]\\@
 The archive entry for this job was punched.


 IT'S WHAT YOU LEARN AFTER YOU KNOW IT ALL
 THAT COUNTS.
 Job cpu time:       0 days  9 hours 14 minutes 47.6 seconds.
 Elapsed time:       0 days  2 hours 19 minutes 58.2 seconds.
 File lengths (MBytes):  RWF=   1348 Int=      0 D2E=      0 Chk=     95 Scr=      1
 Normal termination of Gaussian 16 at Wed Oct  8 19:27:13 2025.
