Job Start Time: Wed Oct  8 17:08:58 MDT 2025
SLURM Job ID: 768215
SLURM Job Name: syn-product-phos-full-c6_tzpop-sp
 Entering Gaussian System, Link 0=/opt/apps/Gaussian/G16C/g16/g16
 Initial command:
 /opt/apps/Gaussian/G16C/g16/l1.exe "/tmp/768215/Gau-2793840.inp" -scrdir="/tmp/768215/"
 Entering Link 1 = /opt/apps/Gaussian/G16C/g16/l1.exe PID=   2793841.
  
 Copyright (c) 1988-2019, Gaussian, Inc.  All Rights Reserved.
  
 This is part of the Gaussian(R) 16 program.  It is based on
 the Gaussian(R) 09 system (copyright 2009, Gaussian, Inc.),
 the Gaussian(R) 03 system (copyright 2003, Gaussian, Inc.),
 the Gaussian(R) 98 system (copyright 1998, Gaussian, Inc.),
 the Gaussian(R) 94 system (copyright 1995, Gaussian, Inc.),
 the Gaussian 92(TM) system (copyright 1992, Gaussian, Inc.),
 the Gaussian 90(TM) system (copyright 1990, Gaussian, Inc.),
 the Gaussian 88(TM) system (copyright 1988, Gaussian, Inc.),
 the Gaussian 86(TM) system (copyright 1986, Carnegie Mellon
 University), and the Gaussian 82(TM) system (copyright 1983,
 Carnegie Mellon University). Gaussian is a federally registered
 trademark of Gaussian, Inc.
  
 This software contains proprietary and confidential information,
 including trade secrets, belonging to Gaussian, Inc.
  
 This software is provided under written license and may be
 used, copied, transmitted, or stored only in accord with that
 written license.
  
 The following legend is applicable only to US Government
 contracts under FAR:
  
                    RESTRICTED RIGHTS LEGEND
  
 Use, reproduction and disclosure by the US Government is
 subject to restrictions as set forth in subparagraphs (a)
 and (c) of the Commercial Computer Software - Restricted
 Rights clause in FAR 52.227-19.
  
 Gaussian, Inc.
 340 Quinnipiac St., Bldg. 40, Wallingford CT 06492
  
  
 ---------------------------------------------------------------
 Warning -- This program may not be used in any manner that
 competes with the business of Gaussian, Inc. or will provide
 assistance to any competitor of Gaussian, Inc.  The licensee
 of this program is prohibited from giving any competitor of
 Gaussian, Inc. access to this program.  By using this program,
 the user acknowledges that Gaussian, Inc. is engaged in the
 business of creating and licensing software in the field of
 computational chemistry and represents and warrants to the
 licensee that it is not a competitor of Gaussian, Inc. and that
 it will not use this program in any manner prohibited above.
 ---------------------------------------------------------------
  

 Cite this work as:
 Gaussian 16, Revision C.01,
 M. J. Frisch, G. W. Trucks, H. B. Schlegel, G. E. Scuseria, 
 M. A. Robb, J. R. Cheeseman, G. Scalmani, V. Barone, 
 G. A. Petersson, H. Nakatsuji, X. Li, M. Caricato, A. V. Marenich, 
 J. Bloino, B. G. Janesko, R. Gomperts, B. Mennucci, H. P. Hratchian, 
 J. V. Ortiz, A. F. Izmaylov, J. L. Sonnenberg, D. Williams-Young, 
 F. Ding, F. Lipparini, F. Egidi, J. Goings, B. Peng, A. Petrone, 
 T. Henderson, D. Ranasinghe, V. G. Zakrzewski, J. Gao, N. Rega, 
 G. Zheng, W. Liang, M. Hada, M. Ehara, K. Toyota, R. Fukuda, 
 J. Hasegawa, M. Ishida, T. Nakajima, Y. Honda, O. Kitao, H. Nakai, 
 T. Vreven, K. Throssell, J. A. Montgomery, Jr., J. E. Peralta, 
 F. Ogliaro, M. J. Bearpark, J. J. Heyd, E. N. Brothers, K. N. Kudin, 
 V. N. Staroverov, T. A. Keith, R. Kobayashi, J. Normand, 
 K. Raghavachari, A. P. Rendell, J. C. Burant, S. S. Iyengar, 
 J. Tomasi, M. Cossi, J. M. Millam, M. Klene, C. Adamo, R. Cammi, 
 J. W. Ochterski, R. L. Martin, K. Morokuma, O. Farkas, 
 J. B. Foresman, and D. J. Fox, Gaussian, Inc., Wallingford CT, 2019.
 
 ******************************************
 Gaussian 16:  AS64L-G16RevC.01  3-Jul-2019
                 8-Oct-2025 
 ******************************************
 %chk=syn-product-phos-full-c6_tzpop-sp.chk
 %nprocshared=4
 Will use up to    4 processors via shared memory.
 %mem=8GB
 ----------------------------------------------------------------------
 # wb97xd/6-311++g** nosymm int=ultrafine scrf=(smd,solvent=tetrahydrof
 uran)
 ----------------------------------------------------------------------
 1/38=1,172=1/1;
 2/12=2,15=1,17=6,18=5,40=1/2;
 3/5=4,6=6,7=1111,11=2,25=1,30=1,70=32201,72=20,74=-58,75=-5/1,2,3;
 4//1;
 5/5=2,38=5,53=20/2;
 6/7=2,8=2,9=2,10=2,28=1/1;
 99/5=1,9=1/99;
 ---------------------------------
 syn-product-phos-full-c6_tzpop-sp
 ---------------------------------
 Symbolic Z-matrix:
 Charge =  0 Multiplicity = 1
 C                    -3.7553    1.5002    1.4207 
 C                    -5.3164    1.4349    1.5203 
 H                    -5.6717    2.4632    1.3552 
 C                    -5.9479    0.5424    0.4511 
 H                    -5.6489    0.8352   -0.56 
 H                    -5.6659   -0.5078    0.5994 
 H                    -7.0397    0.6041    0.5131 
 C                    -3.3609    2.1641    0.0885 
 H                    -2.2911    2.3897    0.0765 
 H                    -3.5716    1.5379   -0.7828 
 H                    -3.8994    3.1148   -0.0351 
 B                    -3.11      0.0603    1.5634 
 C                    -3.2069    2.3855    2.5635 
 H                    -2.1389    2.5802    2.419 
 H                    -3.7221    3.3576    2.5691 
 H                    -3.3336    1.9335    3.554 
 O                    -1.9999   -0.3912    0.875 
 O                    -3.5965   -0.8993    2.4152 
 C                    -2.9538   -2.1593    2.0985 
 C                    -1.6208   -1.6943    1.4264 
 C                    -3.8871   -2.9031    1.1437 
 H                    -4.8654   -3.02      1.621 
 H                    -4.0289   -2.3553    0.206 
 H                    -3.4991   -3.8991    0.9076 
 C                    -2.7707   -2.9568    3.3794 
 H                    -2.2046   -3.8732    3.1787 
 H                    -2.2441   -2.3812    4.1447 
 H                    -3.7496   -3.2427    3.7784 
 C                    -1.1347   -2.5834    0.2936 
 H                    -0.944    -3.5948    0.6707 
 H                    -1.8662   -2.6469   -0.5162 
 H                    -0.2012   -2.1768   -0.1064 
 C                    -0.4894   -1.439     2.4172 
 H                    -0.8102   -0.7942    3.2423 
 H                    -0.1193   -2.3805    2.8362 
 H                     0.3341   -0.9512    1.8875 
 P                     2.4243    0.117    -0.8887 
 O                     1.0666   -0.3198   -0.3359 
 O                     2.6813    1.5651   -1.2356 
 N                    -5.8515    1.0256    2.8252 
 H                    -5.5581    1.6784    3.5474 
 H                    -5.4574    0.1217    3.0805 
 Li                   -0.5565    0.5878   -0.1899 
 C                     0.4459    3.3629    0.2383 
 O                    -0.1034    2.201     0.8939 
 C                     0.6064    1.9496    2.1133 
 C                     1.1751    3.2997    2.5177 
 C                     1.5531    3.8861    1.1542 
 H                     0.8388    3.0588   -0.7354 
 H                    -0.371     4.084     0.114 
 H                    -0.1037    1.5274    2.8293 
 H                     1.4029    1.2184    1.9248 
 H                     0.404     3.9076    3.0061 
 H                     2.0276    3.2038    3.1959 
 H                     1.6062    4.9784    1.1536 
 H                     2.5171    3.4857    0.8248 
 C                    -1.0141   -0.4454   -2.8458 
 O                    -1.3469    0.6915   -2.026 
 C                    -1.1908    1.879    -2.8061 
 C                    -0.0257    1.5676   -3.732 
 C                    -0.3103    0.1041   -4.098 
 H                    -0.3644   -1.0874   -2.2477 
 H                    -1.9367   -0.9853   -3.0885 
 H                    -2.1159    2.0726   -3.3693 
 H                    -1.0181    2.7105   -2.1191 
 H                     0.0079    2.227    -4.6042 
 H                     0.9167    1.6562   -3.18 
 H                    -0.9758    0.0509   -4.9664 
 H                     0.5995   -0.4561   -4.3305 
 C                     3.6726   -0.4517    0.3254 
 C                     3.3932   -1.5184    1.1872 
 C                     4.9232    0.1702    0.3999 
 C                     4.3455   -1.9564    2.1064 
 H                     2.4196   -1.9999    1.1419 
 C                     5.8783   -0.265     1.3182 
 H                     5.1431    1.0057   -0.26 
 C                     5.5906   -1.3299    2.1724 
 H                     4.116    -2.7841    2.7728 
 H                     6.8456    0.2284    1.3697 
 H                     6.3338   -1.6696    2.8892 
 C                     2.7298   -0.9098   -2.3761 
 C                     2.2311   -2.2147   -2.4598 
 C                     3.4453   -0.3884   -3.4577 
 C                     2.4372   -2.9821   -3.6043 
 H                     1.6641   -2.6265   -1.6283 
 C                     3.654    -1.1525   -4.606 
 H                     3.8247    0.6286   -3.4014 
 C                     3.1486   -2.4501   -4.6812 
 H                     2.04     -3.9925   -3.6598 
 H                     4.2059   -0.7334   -5.4435 
 H                     3.3072   -3.0458   -5.5766 
 
 Symmetry turned off by external request.
 Stoichiometry    C31H50BLiNO6P
 Framework group  C1[X(C31H50BLiNO6P)]
 Deg. of freedom   267
 Full point group                 C1      NOp   1
                          Input orientation:                          
 ---------------------------------------------------------------------
 Center     Atomic      Atomic             Coordinates (Angstroms)
 Number     Number       Type             X           Y           Z
 ---------------------------------------------------------------------
      1          6           0       -3.755300    1.500200    1.420700
      2          6           0       -5.316400    1.434900    1.520300
      3          1           0       -5.671700    2.463200    1.355200
      4          6           0       -5.947900    0.542400    0.451100
      5          1           0       -5.648900    0.835200   -0.560000
      6          1           0       -5.665900   -0.507800    0.599400
      7          1           0       -7.039700    0.604100    0.513100
      8          6           0       -3.360900    2.164100    0.088500
      9          1           0       -2.291100    2.389700    0.076500
     10          1           0       -3.571600    1.537900   -0.782800
     11          1           0       -3.899400    3.114800   -0.035100
     12          5           0       -3.110000    0.060300    1.563400
     13          6           0       -3.206900    2.385500    2.563500
     14          1           0       -2.138900    2.580200    2.419000
     15          1           0       -3.722100    3.357600    2.569100
     16          1           0       -3.333600    1.933500    3.554000
     17          8           0       -1.999900   -0.391200    0.875000
     18          8           0       -3.596500   -0.899300    2.415200
     19          6           0       -2.953800   -2.159300    2.098500
     20          6           0       -1.620800   -1.694300    1.426400
     21          6           0       -3.887100   -2.903100    1.143700
     22          1           0       -4.865400   -3.020000    1.621000
     23          1           0       -4.028900   -2.355300    0.206000
     24          1           0       -3.499100   -3.899100    0.907600
     25          6           0       -2.770700   -2.956800    3.379400
     26          1           0       -2.204600   -3.873200    3.178700
     27          1           0       -2.244100   -2.381200    4.144700
     28          1           0       -3.749600   -3.242700    3.778400
     29          6           0       -1.134700   -2.583400    0.293600
     30          1           0       -0.944000   -3.594800    0.670700
     31          1           0       -1.866200   -2.646900   -0.516200
     32          1           0       -0.201200   -2.176800   -0.106400
     33          6           0       -0.489400   -1.439000    2.417200
     34          1           0       -0.810200   -0.794200    3.242300
     35          1           0       -0.119300   -2.380500    2.836200
     36          1           0        0.334100   -0.951200    1.887500
     37         15           0        2.424300    0.117000   -0.888700
     38          8           0        1.066600   -0.319800   -0.335900
     39          8           0        2.681300    1.565100   -1.235600
     40          7           0       -5.851500    1.025600    2.825200
     41          1           0       -5.558100    1.678400    3.547400
     42          1           0       -5.457400    0.121700    3.080500
     43          3           0       -0.556500    0.587800   -0.189900
     44          6           0        0.445900    3.362900    0.238300
     45          8           0       -0.103400    2.201000    0.893900
     46          6           0        0.606400    1.949600    2.113300
     47          6           0        1.175100    3.299700    2.517700
     48          6           0        1.553100    3.886100    1.154200
     49          1           0        0.838800    3.058800   -0.735400
     50          1           0       -0.371000    4.084000    0.114000
     51          1           0       -0.103700    1.527400    2.829300
     52          1           0        1.402900    1.218400    1.924800
     53          1           0        0.404000    3.907600    3.006100
     54          1           0        2.027600    3.203800    3.195900
     55          1           0        1.606200    4.978400    1.153600
     56          1           0        2.517100    3.485700    0.824800
     57          6           0       -1.014100   -0.445400   -2.845800
     58          8           0       -1.346900    0.691500   -2.026000
     59          6           0       -1.190800    1.879000   -2.806100
     60          6           0       -0.025700    1.567600   -3.732000
     61          6           0       -0.310300    0.104100   -4.098000
     62          1           0       -0.364400   -1.087400   -2.247700
     63          1           0       -1.936700   -0.985300   -3.088500
     64          1           0       -2.115900    2.072600   -3.369300
     65          1           0       -1.018100    2.710500   -2.119100
     66          1           0        0.007900    2.227000   -4.604200
     67          1           0        0.916700    1.656200   -3.180000
     68          1           0       -0.975800    0.050900   -4.966400
     69          1           0        0.599500   -0.456100   -4.330500
     70          6           0        3.672600   -0.451700    0.325400
     71          6           0        3.393200   -1.518400    1.187200
     72          6           0        4.923200    0.170200    0.399900
     73          6           0        4.345500   -1.956400    2.106400
     74          1           0        2.419600   -1.999900    1.141900
     75          6           0        5.878300   -0.265000    1.318200
     76          1           0        5.143100    1.005700   -0.260000
     77          6           0        5.590600   -1.329900    2.172400
     78          1           0        4.116000   -2.784100    2.772800
     79          1           0        6.845600    0.228400    1.369700
     80          1           0        6.333800   -1.669600    2.889200
     81          6           0        2.729800   -0.909800   -2.376100
     82          6           0        2.231100   -2.214700   -2.459800
     83          6           0        3.445300   -0.388400   -3.457700
     84          6           0        2.437200   -2.982100   -3.604300
     85          1           0        1.664100   -2.626500   -1.628300
     86          6           0        3.654000   -1.152500   -4.606000
     87          1           0        3.824700    0.628600   -3.401400
     88          6           0        3.148600   -2.450100   -4.681200
     89          1           0        2.040000   -3.992500   -3.659800
     90          1           0        4.205900   -0.733400   -5.443500
     91          1           0        3.307200   -3.045800   -5.576600
 ---------------------------------------------------------------------
 Rotational constants (GHZ):           0.1171002           0.0609681           0.0575503
 Standard basis: 6-311++G(d,p) (5D, 7F)
  1260 basis functions,  1940 primitive gaussians,  1301 cartesian basis functions
   157 alpha electrons      157 beta electrons
       nuclear repulsion energy      5618.2385949160 Hartrees.
 NAtoms=   91 NActive=   91 NUniq=   91 SFac= 1.00D+00 NAtFMM=   60 NAOKFM=T Big=T
 Integral buffers will be    131072 words long.
 Raffenetti 2 integral format.
 Two-electron integral symmetry is turned off.
 Nuclear repulsion after empirical dispersion term =     5618.1250470412 Hartrees.
 ------------------------------------------------------------------------------
 Polarizable Continuum Model (PCM)
 =================================
 Model                : PCM.
 Atomic radii         : SMD-Coulomb.
 Polarization charges : Total charges.
 Charge compensation  : None.
 Solution method      : On-the-fly selection.
 Cavity type          : VdW (van der Waals Surface) (Alpha=1.000).
 Cavity algorithm     : GePol (No added spheres)
                        Default sphere list used, NSphG=   91.
                        Lebedev-Laikov grids with approx.  5.0 points / Ang**2.
                        Smoothing algorithm: York/Karplus (Gamma=1.0000).
                        Polarization charges: spherical gaussians, with
                                              point-specific exponents (IZeta= 3).
                        Self-potential: point-specific (ISelfS= 7).
                        Self-field    : sphere-specific E.n sum rule (ISelfD= 2).
 Solvent              : TetraHydroFuran, Eps=   7.425700 Eps(inf)=   1.974025
 ------------------------------------------------------------------------------
 ------------------------------------------------------------------------------
 Atomic radii for non-electrostatic terms: SMD-CDS.
 ------------------------------------------------------------------------------
 Nuclear repulsion after PCM non-electrostatic terms =     5618.1160444441 Hartrees.
 One-electron integrals computed using PRISM.
 NBasis=  1260 RedAO= T EigKep=  1.13D-06  NBF=  1260
 NBsUse=  1252 1.00D-06 EigRej=  8.78D-07 NBFU=  1252
 ExpMin= 7.40D-03 ExpMax= 7.75D+04 ExpMxC= 2.65D+03 IAcc=3 IRadAn=         5 AccDes= 0.00D+00
 Harris functional with IExCor= 4639 and IRadAn=       5 diagonalized for initial guess.
 HarFok:  IExCor= 4639 AccDes= 0.00D+00 IRadAn=         5 IDoV= 1 UseB2=F ITyADJ=14
 ICtDFT=  3500011 ScaDFX=  1.000000  1.000000  1.000000  1.000000
 FoFCou: FMM=F IPFlag=           0 FMFlag=      100000 FMFlg1=        2001
         NFxFlg=           0 DoJE=T BraDBF=F KetDBF=T FulRan=T
         wScrn=  0.000000 ICntrl=       500 IOpCl=  0 I1Cent=   200000004 NGrid=           0
         NMat0=    1 NMatS0=      1 NMatT0=    0 NMatD0=    1 NMtDS0=    0 NMtDT0=    0
 Symmetry not used in FoFCou.
 Requested convergence on RMS density matrix=1.00D-08 within 128 cycles.
 Requested convergence on MAX density matrix=1.00D-06.
 Requested convergence on             energy=1.00D-06.
 No special actions if energy rises.
 Inv3:  Mode=1 IEnd=    91444323.
 Iteration    1 A*A^-1 deviation from unit magnitude is 8.22D-15 for   5506.
 Iteration    1 A*A^-1 deviation from orthogonality  is 6.38D-15 for   5499   5035.
 Iteration    1 A^-1*A deviation from unit magnitude is 8.22D-15 for   5506.
 Iteration    1 A^-1*A deviation from orthogonality  is 2.78D-13 for   4623   4556.
 Error on total polarization charges =  0.07780
 SCF Done:  E(RwB97XD) =  -2091.53195573     A.U. after   16 cycles
            NFock= 16  Conv=0.36D-08     -V/T= 2.0040
 SMD-CDS (non-electrostatic) energy       (kcal/mol) =      -5.65
 (included in total energy above)

 **********************************************************************

            Population analysis using the SCF Density.

 **********************************************************************

 Alpha  occ. eigenvalues --  -77.25979 -19.26465 -19.25460 -19.25424 -19.25312
 Alpha  occ. eigenvalues --  -19.17550 -19.16508 -14.39765 -10.35125 -10.34977
 Alpha  occ. eigenvalues --  -10.32183 -10.31949 -10.31761 -10.31553 -10.30300
 Alpha  occ. eigenvalues --  -10.28807 -10.28777 -10.28707 -10.28660 -10.28621
 Alpha  occ. eigenvalues --  -10.28602 -10.28589 -10.28571 -10.28540 -10.28502
 Alpha  occ. eigenvalues --  -10.28157 -10.28107 -10.27441 -10.27282 -10.27099
 Alpha  occ. eigenvalues --  -10.27025 -10.27022 -10.26983 -10.26920 -10.26519
 Alpha  occ. eigenvalues --  -10.26488 -10.26481 -10.25857 -10.25797  -6.87858
 Alpha  occ. eigenvalues --   -6.70299  -4.85022  -4.84990  -4.84976  -1.99286
 Alpha  occ. eigenvalues --   -1.17511  -1.14353  -1.14081  -1.10408  -1.06616
 Alpha  occ. eigenvalues --   -1.00563  -0.97949  -0.95546  -0.95440  -0.91137
 Alpha  occ. eigenvalues --   -0.88011  -0.87786  -0.87580  -0.85043  -0.84935
 Alpha  occ. eigenvalues --   -0.84358  -0.84301  -0.84047  -0.83351  -0.83111
 Alpha  occ. eigenvalues --   -0.81528  -0.80176  -0.77213  -0.76799  -0.72124
 Alpha  occ. eigenvalues --   -0.71220  -0.70311  -0.69597  -0.69291  -0.68820
 Alpha  occ. eigenvalues --   -0.68489  -0.68394  -0.67963  -0.67736  -0.65974
 Alpha  occ. eigenvalues --   -0.65173  -0.63376  -0.62466  -0.60712  -0.59389
 Alpha  occ. eigenvalues --   -0.59054  -0.58239  -0.58064  -0.57952  -0.57378
 Alpha  occ. eigenvalues --   -0.56293  -0.55839  -0.54115  -0.53864  -0.53705
 Alpha  occ. eigenvalues --   -0.53600  -0.53317  -0.53247  -0.52814  -0.52586
 Alpha  occ. eigenvalues --   -0.52517  -0.51968  -0.50928  -0.50569  -0.50418
 Alpha  occ. eigenvalues --   -0.50255  -0.50091  -0.50056  -0.49805  -0.48698
 Alpha  occ. eigenvalues --   -0.48548  -0.48443  -0.48147  -0.48000  -0.47619
 Alpha  occ. eigenvalues --   -0.47404  -0.46476  -0.46101  -0.45759  -0.45669
 Alpha  occ. eigenvalues --   -0.45475  -0.45064  -0.44857  -0.44765  -0.44476
 Alpha  occ. eigenvalues --   -0.43778  -0.43498  -0.43324  -0.43213  -0.42866
 Alpha  occ. eigenvalues --   -0.42700  -0.42555  -0.42255  -0.41999  -0.41840
 Alpha  occ. eigenvalues --   -0.41825  -0.41815  -0.41053  -0.40767  -0.40701
 Alpha  occ. eigenvalues --   -0.40366  -0.40158  -0.39605  -0.39221  -0.37359
 Alpha  occ. eigenvalues --   -0.36951  -0.35991  -0.35308  -0.34612  -0.34455
 Alpha  occ. eigenvalues --   -0.33924  -0.33240  -0.33012  -0.32805  -0.32454
 Alpha  occ. eigenvalues --   -0.31490  -0.31426
 Alpha virt. eigenvalues --    0.02330   0.02475   0.02518   0.02783   0.03197
 Alpha virt. eigenvalues --    0.04925   0.05353   0.05658   0.05709   0.05873
 Alpha virt. eigenvalues --    0.05998   0.06219   0.06279   0.06749   0.06871
 Alpha virt. eigenvalues --    0.07049   0.07097   0.07172   0.07387   0.07484
 Alpha virt. eigenvalues --    0.07636   0.07669   0.07969   0.08123   0.08497
 Alpha virt. eigenvalues --    0.08639   0.08709   0.09105   0.09600   0.09621
 Alpha virt. eigenvalues --    0.09924   0.10210   0.10339   0.10678   0.10790
 Alpha virt. eigenvalues --    0.11108   0.11117   0.11314   0.11837   0.12014
 Alpha virt. eigenvalues --    0.12384   0.12631   0.12745   0.13033   0.13284
 Alpha virt. eigenvalues --    0.13353   0.13575   0.13695   0.14026   0.14157
 Alpha virt. eigenvalues --    0.14371   0.14529   0.14748   0.15001   0.15283
 Alpha virt. eigenvalues --    0.15405   0.15699   0.15746   0.15874   0.16032
 Alpha virt. eigenvalues --    0.16223   0.16290   0.16481   0.16772   0.16947
 Alpha virt. eigenvalues --    0.17045   0.17061   0.17177   0.17381   0.17416
 Alpha virt. eigenvalues --    0.17640   0.17765   0.17955   0.18189   0.18208
 Alpha virt. eigenvalues --    0.18368   0.18485   0.18507   0.18554   0.18727
 Alpha virt. eigenvalues --    0.19037   0.19112   0.19250   0.19290   0.19367
 Alpha virt. eigenvalues --    0.19510   0.19614   0.19932   0.20021   0.20078
 Alpha virt. eigenvalues --    0.20187   0.20415   0.20528   0.20663   0.20867
 Alpha virt. eigenvalues --    0.21059   0.21098   0.21195   0.21339   0.21579
 Alpha virt. eigenvalues --    0.21727   0.21861   0.22025   0.22145   0.22208
 Alpha virt. eigenvalues --    0.22265   0.22414   0.22634   0.22770   0.22962
 Alpha virt. eigenvalues --    0.23117   0.23151   0.23327   0.23360   0.23501
 Alpha virt. eigenvalues --    0.23641   0.23695   0.23818   0.24190   0.24196
 Alpha virt. eigenvalues --    0.24326   0.24414   0.24650   0.24689   0.24797
 Alpha virt. eigenvalues --    0.24904   0.25101   0.25181   0.25277   0.25379
 Alpha virt. eigenvalues --    0.25534   0.25596   0.25819   0.25866   0.25977
 Alpha virt. eigenvalues --    0.26094   0.26260   0.26340   0.26697   0.26895
 Alpha virt. eigenvalues --    0.26909   0.27088   0.27229   0.27299   0.27445
 Alpha virt. eigenvalues --    0.27609   0.27809   0.28150   0.28357   0.28373
 Alpha virt. eigenvalues --    0.28469   0.28488   0.28618   0.28780   0.28864
 Alpha virt. eigenvalues --    0.28949   0.29260   0.29327   0.29443   0.29605
 Alpha virt. eigenvalues --    0.29886   0.30062   0.30141   0.30403   0.30525
 Alpha virt. eigenvalues --    0.30584   0.30644   0.30814   0.31028   0.31231
 Alpha virt. eigenvalues --    0.31347   0.31462   0.31702   0.31823   0.31933
 Alpha virt. eigenvalues --    0.32108   0.32196   0.32382   0.32624   0.32788
 Alpha virt. eigenvalues --    0.32873   0.33130   0.33277   0.33356   0.33561
 Alpha virt. eigenvalues --    0.33748   0.33831   0.34023   0.34131   0.34295
 Alpha virt. eigenvalues --    0.34419   0.34658   0.34959   0.35039   0.35282
 Alpha virt. eigenvalues --    0.35312   0.35427   0.35592   0.35912   0.36006
 Alpha virt. eigenvalues --    0.36257   0.36348   0.36520   0.36652   0.36747
 Alpha virt. eigenvalues --    0.36779   0.37095   0.37379   0.37431   0.37627
 Alpha virt. eigenvalues --    0.37778   0.37911   0.38227   0.38300   0.38544
 Alpha virt. eigenvalues --    0.38633   0.38718   0.38987   0.39072   0.39209
 Alpha virt. eigenvalues --    0.39363   0.39483   0.39674   0.39764   0.39930
 Alpha virt. eigenvalues --    0.40101   0.40262   0.40525   0.40567   0.40774
 Alpha virt. eigenvalues --    0.40921   0.40975   0.41328   0.41477   0.41663
 Alpha virt. eigenvalues --    0.41871   0.42032   0.42179   0.42467   0.42593
 Alpha virt. eigenvalues --    0.42642   0.42751   0.43169   0.43269   0.43372
 Alpha virt. eigenvalues --    0.43634   0.43874   0.44057   0.44393   0.44477
 Alpha virt. eigenvalues --    0.44599   0.44722   0.44839   0.45141   0.45267
 Alpha virt. eigenvalues --    0.45434   0.45705   0.45784   0.46149   0.46455
 Alpha virt. eigenvalues --    0.46659   0.46764   0.46949   0.47151   0.47454
 Alpha virt. eigenvalues --    0.47557   0.47826   0.47972   0.48549   0.48601
 Alpha virt. eigenvalues --    0.48899   0.49401   0.49659   0.49925   0.50290
 Alpha virt. eigenvalues --    0.50501   0.50806   0.50826   0.51360   0.51617
 Alpha virt. eigenvalues --    0.51912   0.52845   0.53217   0.53408   0.53470
 Alpha virt. eigenvalues --    0.54012   0.54640   0.55068   0.55137   0.55209
 Alpha virt. eigenvalues --    0.55360   0.55956   0.56010   0.56719   0.56972
 Alpha virt. eigenvalues --    0.57509   0.57654   0.57896   0.58215   0.58688
 Alpha virt. eigenvalues --    0.58897   0.59113   0.59553   0.60203   0.60592
 Alpha virt. eigenvalues --    0.60910   0.61351   0.61925   0.62119   0.62423
 Alpha virt. eigenvalues --    0.62704   0.63277   0.63581   0.63848   0.64066
 Alpha virt. eigenvalues --    0.64290   0.64495   0.64717   0.64977   0.65153
 Alpha virt. eigenvalues --    0.65339   0.65480   0.65864   0.66336   0.66542
 Alpha virt. eigenvalues --    0.66904   0.67246   0.67487   0.67631   0.67927
 Alpha virt. eigenvalues --    0.68056   0.68527   0.68853   0.69047   0.69230
 Alpha virt. eigenvalues --    0.69531   0.69912   0.70254   0.70465   0.70767
 Alpha virt. eigenvalues --    0.71053   0.71212   0.71805   0.71868   0.72083
 Alpha virt. eigenvalues --    0.72455   0.72635   0.72645   0.72973   0.73347
 Alpha virt. eigenvalues --    0.73854   0.74082   0.74197   0.74669   0.74785
 Alpha virt. eigenvalues --    0.75012   0.75249   0.75576   0.75835   0.76119
 Alpha virt. eigenvalues --    0.76139   0.76523   0.76791   0.77153   0.77455
 Alpha virt. eigenvalues --    0.77668   0.78098   0.78298   0.78517   0.78709
 Alpha virt. eigenvalues --    0.78943   0.79235   0.79321   0.79662   0.79902
 Alpha virt. eigenvalues --    0.80144   0.80173   0.80751   0.81062   0.81095
 Alpha virt. eigenvalues --    0.81375   0.81621   0.81987   0.82248   0.82552
 Alpha virt. eigenvalues --    0.82714   0.82881   0.83144   0.83199   0.83514
 Alpha virt. eigenvalues --    0.83904   0.84162   0.84231   0.84317   0.84505
 Alpha virt. eigenvalues --    0.84832   0.85117   0.85571   0.85597   0.85661
 Alpha virt. eigenvalues --    0.85983   0.86440   0.86626   0.86741   0.87106
 Alpha virt. eigenvalues --    0.87185   0.87221   0.87841   0.88077   0.88261
 Alpha virt. eigenvalues --    0.88299   0.88454   0.88728   0.88908   0.89155
 Alpha virt. eigenvalues --    0.89615   0.89882   0.89962   0.90521   0.90696
 Alpha virt. eigenvalues --    0.90860   0.91057   0.91264   0.91992   0.92064
 Alpha virt. eigenvalues --    0.92555   0.92715   0.93089   0.93305   0.93441
 Alpha virt. eigenvalues --    0.93593   0.94164   0.94680   0.94871   0.95057
 Alpha virt. eigenvalues --    0.95175   0.95722   0.95913   0.96361   0.96570
 Alpha virt. eigenvalues --    0.96616   0.97052   0.97171   0.97383   0.98007
 Alpha virt. eigenvalues --    0.98039   0.98443   0.98956   0.99044   0.99513
 Alpha virt. eigenvalues --    0.99694   1.00178   1.00405   1.00852   1.01005
 Alpha virt. eigenvalues --    1.01120   1.01781   1.02644   1.03009   1.03519
 Alpha virt. eigenvalues --    1.04009   1.04358   1.04452   1.04796   1.04926
 Alpha virt. eigenvalues --    1.05481   1.06159   1.06316   1.07115   1.07843
 Alpha virt. eigenvalues --    1.08238   1.08554   1.09324   1.09620   1.10212
 Alpha virt. eigenvalues --    1.10562   1.10856   1.11566   1.12000   1.12148
 Alpha virt. eigenvalues --    1.12609   1.13304   1.13677   1.14054   1.14587
 Alpha virt. eigenvalues --    1.14699   1.15091   1.15756   1.16063   1.16652
 Alpha virt. eigenvalues --    1.16749   1.17433   1.17715   1.18125   1.18880
 Alpha virt. eigenvalues --    1.19418   1.19781   1.20007   1.20819   1.21151
 Alpha virt. eigenvalues --    1.21389   1.22232   1.22557   1.23270   1.24079
 Alpha virt. eigenvalues --    1.24301   1.24506   1.25002   1.25512   1.26414
 Alpha virt. eigenvalues --    1.26575   1.27649   1.27700   1.27934   1.28637
 Alpha virt. eigenvalues --    1.29734   1.29811   1.29980   1.31085   1.31669
 Alpha virt. eigenvalues --    1.31675   1.32896   1.33537   1.33898   1.34280
 Alpha virt. eigenvalues --    1.34861   1.35911   1.35988   1.36729   1.37071
 Alpha virt. eigenvalues --    1.37696   1.37968   1.38758   1.39389   1.39669
 Alpha virt. eigenvalues --    1.40124   1.40695   1.41117   1.41430   1.42334
 Alpha virt. eigenvalues --    1.42617   1.43893   1.44182   1.44273   1.44709
 Alpha virt. eigenvalues --    1.45547   1.46530   1.46788   1.47391   1.47973
 Alpha virt. eigenvalues --    1.48757   1.49911   1.51041   1.51889   1.52103
 Alpha virt. eigenvalues --    1.52739   1.53155   1.53837   1.54464   1.54611
 Alpha virt. eigenvalues --    1.55344   1.55691   1.56936   1.57150   1.57717
 Alpha virt. eigenvalues --    1.57933   1.58333   1.58885   1.59497   1.60033
 Alpha virt. eigenvalues --    1.60450   1.60959   1.61677   1.62098   1.62340
 Alpha virt. eigenvalues --    1.62567   1.63226   1.63627   1.63803   1.64206
 Alpha virt. eigenvalues --    1.64261   1.64599   1.64920   1.65318   1.65463
 Alpha virt. eigenvalues --    1.66133   1.66395   1.66573   1.66639   1.67116
 Alpha virt. eigenvalues --    1.67334   1.67710   1.67966   1.68646   1.68803
 Alpha virt. eigenvalues --    1.69447   1.69586   1.70157   1.70481   1.70773
 Alpha virt. eigenvalues --    1.70991   1.71343   1.71610   1.72186   1.72256
 Alpha virt. eigenvalues --    1.72525   1.72880   1.73475   1.73859   1.73977
 Alpha virt. eigenvalues --    1.74605   1.75061   1.75165   1.75612   1.75843
 Alpha virt. eigenvalues --    1.76044   1.76189   1.76581   1.76643   1.76950
 Alpha virt. eigenvalues --    1.77453   1.77872   1.78173   1.78293   1.78363
 Alpha virt. eigenvalues --    1.78912   1.79303   1.79523   1.79623   1.80044
 Alpha virt. eigenvalues --    1.80573   1.80883   1.81056   1.81271   1.81793
 Alpha virt. eigenvalues --    1.82087   1.82625   1.82936   1.83324   1.83434
 Alpha virt. eigenvalues --    1.84231   1.84444   1.84700   1.84852   1.85462
 Alpha virt. eigenvalues --    1.85516   1.85816   1.86393   1.86558   1.87220
 Alpha virt. eigenvalues --    1.87593   1.88089   1.88381   1.88679   1.89008
 Alpha virt. eigenvalues --    1.89253   1.89494   1.89988   1.90347   1.90622
 Alpha virt. eigenvalues --    1.91190   1.91411   1.91630   1.91944   1.92733
 Alpha virt. eigenvalues --    1.93068   1.93376   1.93891   1.94229   1.94453
 Alpha virt. eigenvalues --    1.94803   1.95108   1.95914   1.96282   1.96506
 Alpha virt. eigenvalues --    1.97123   1.97397   1.97699   1.98368   1.98533
 Alpha virt. eigenvalues --    1.98836   1.99511   1.99809   2.00148   2.00483
 Alpha virt. eigenvalues --    2.00892   2.01666   2.01977   2.02271   2.02470
 Alpha virt. eigenvalues --    2.02752   2.03266   2.03787   2.04379   2.04828
 Alpha virt. eigenvalues --    2.04902   2.05564   2.05916   2.06143   2.06595
 Alpha virt. eigenvalues --    2.06844   2.06997   2.07264   2.07642   2.08189
 Alpha virt. eigenvalues --    2.08251   2.09249   2.09575   2.10272   2.10569
 Alpha virt. eigenvalues --    2.11113   2.11181   2.11605   2.12074   2.12189
 Alpha virt. eigenvalues --    2.12902   2.13149   2.13372   2.14569   2.15116
 Alpha virt. eigenvalues --    2.15635   2.15839   2.16287   2.16414   2.16832
 Alpha virt. eigenvalues --    2.17570   2.17755   2.18374   2.19302   2.19911
 Alpha virt. eigenvalues --    2.20009   2.20714   2.21058   2.21456   2.22060
 Alpha virt. eigenvalues --    2.22832   2.23028   2.23362   2.24458   2.25051
 Alpha virt. eigenvalues --    2.25314   2.26287   2.27031   2.27948   2.28492
 Alpha virt. eigenvalues --    2.29506   2.30042   2.30099   2.31541   2.32532
 Alpha virt. eigenvalues --    2.33357   2.33856   2.34223   2.34662   2.36004
 Alpha virt. eigenvalues --    2.36464   2.36847   2.37310   2.37911   2.38080
 Alpha virt. eigenvalues --    2.38554   2.39386   2.39775   2.40054   2.41717
 Alpha virt. eigenvalues --    2.42396   2.42782   2.43209   2.43373   2.43545
 Alpha virt. eigenvalues --    2.43980   2.44360   2.45169   2.45226   2.45763
 Alpha virt. eigenvalues --    2.46752   2.47712   2.48467   2.48987   2.49644
 Alpha virt. eigenvalues --    2.50205   2.50856   2.51779   2.52151   2.53193
 Alpha virt. eigenvalues --    2.53552   2.54323   2.54767   2.56352   2.57672
 Alpha virt. eigenvalues --    2.58063   2.59349   2.60109   2.61135   2.61324
 Alpha virt. eigenvalues --    2.61577   2.61841   2.62776   2.62928   2.63498
 Alpha virt. eigenvalues --    2.64049   2.64254   2.64994   2.65048   2.65797
 Alpha virt. eigenvalues --    2.66014   2.66440   2.66759   2.67506   2.67695
 Alpha virt. eigenvalues --    2.67763   2.68696   2.69137   2.69779   2.70290
 Alpha virt. eigenvalues --    2.70879   2.71518   2.71723   2.72007   2.72852
 Alpha virt. eigenvalues --    2.73578   2.73838   2.74524   2.74648   2.74887
 Alpha virt. eigenvalues --    2.75038   2.75977   2.76734   2.77023   2.77491
 Alpha virt. eigenvalues --    2.78098   2.78728   2.79102   2.79989   2.80784
 Alpha virt. eigenvalues --    2.81054   2.81944   2.82111   2.82642   2.82840
 Alpha virt. eigenvalues --    2.83808   2.84308   2.84679   2.85161   2.85430
 Alpha virt. eigenvalues --    2.85686   2.86169   2.86515   2.86818   2.87625
 Alpha virt. eigenvalues --    2.87798   2.88437   2.88565   2.88997   2.89217
 Alpha virt. eigenvalues --    2.90087   2.90203   2.91296   2.91627   2.92587
 Alpha virt. eigenvalues --    2.92878   2.92907   2.92998   2.93505   2.93854
 Alpha virt. eigenvalues --    2.93998   2.94265   2.94585   2.94829   2.95052
 Alpha virt. eigenvalues --    2.95514   2.96189   2.96583   2.97232   2.97502
 Alpha virt. eigenvalues --    2.97939   2.98274   2.98521   2.99447   2.99567
 Alpha virt. eigenvalues --    3.00234   3.00821   3.01165   3.01692   3.02549
 Alpha virt. eigenvalues --    3.02802   3.03365   3.03599   3.03690   3.04120
 Alpha virt. eigenvalues --    3.04950   3.05634   3.06176   3.06285   3.06328
 Alpha virt. eigenvalues --    3.06741   3.07419   3.07563   3.08395   3.08687
 Alpha virt. eigenvalues --    3.08828   3.09783   3.10070   3.10297   3.11484
 Alpha virt. eigenvalues --    3.11711   3.12000   3.12820   3.13277   3.14227
 Alpha virt. eigenvalues --    3.14841   3.15639   3.16251   3.16457   3.17241
 Alpha virt. eigenvalues --    3.18228   3.19118   3.19546   3.19890   3.21470
 Alpha virt. eigenvalues --    3.21979   3.22159   3.22230   3.23386   3.23886
 Alpha virt. eigenvalues --    3.24087   3.24728   3.25392   3.26324   3.27340
 Alpha virt. eigenvalues --    3.28113   3.28314   3.29214   3.29831   3.30223
 Alpha virt. eigenvalues --    3.31614   3.31891   3.32635   3.33052   3.34001
 Alpha virt. eigenvalues --    3.34372   3.35037   3.35990   3.36102   3.37626
 Alpha virt. eigenvalues --    3.39073   3.41975   3.42505   3.42815   3.45111
 Alpha virt. eigenvalues --    3.45876   3.46786   3.47495   3.48759   3.49104
 Alpha virt. eigenvalues --    3.49536   3.51095   3.51767   3.52699   3.53022
 Alpha virt. eigenvalues --    3.54161   3.55571   3.63452   3.64427   3.65054
 Alpha virt. eigenvalues --    3.65302   3.66586   3.67560   3.69871   3.74240
 Alpha virt. eigenvalues --    3.75031   3.76411   3.77819   3.78189   3.79315
 Alpha virt. eigenvalues --    3.79826   3.80376   3.87127   3.89191   3.89987
 Alpha virt. eigenvalues --    3.90293   3.90881   3.92207   3.92748   3.93730
 Alpha virt. eigenvalues --    3.94080   3.94790   3.95513   3.95843   3.96358
 Alpha virt. eigenvalues --    3.96701   3.97065   3.97840   3.98511   3.99460
 Alpha virt. eigenvalues --    4.01183   4.01612   4.01895   4.10827   4.11380
 Alpha virt. eigenvalues --    4.12146   4.12797   4.13064   4.15558   4.15714
 Alpha virt. eigenvalues --    4.17886   4.20278   4.23698   4.24897   4.25572
 Alpha virt. eigenvalues --    4.26938   4.28187   4.29317   4.30291   4.30803
 Alpha virt. eigenvalues --    4.31441   4.31483   4.32351   4.32780   4.35539
 Alpha virt. eigenvalues --    4.40817   4.41133   4.42678   4.44410   4.46288
 Alpha virt. eigenvalues --    4.46832   4.47070   4.50287   4.64604   4.88680
 Alpha virt. eigenvalues --    4.95427   4.96161   4.99509   5.35038   5.37979
 Alpha virt. eigenvalues --    5.38833   5.41808   5.42755   5.44627   5.46856
 Alpha virt. eigenvalues --    5.51752   5.53772   5.54445   5.64876   5.66385
 Alpha virt. eigenvalues --    5.68574   5.71224   5.76687   5.77881   5.79383
 Alpha virt. eigenvalues --    5.88033   7.70241  14.36779  14.41411  14.49791
 Alpha virt. eigenvalues --   15.03252  23.78143  23.82482  23.93392  23.97214
 Alpha virt. eigenvalues --   23.97845  24.02134  24.02617  24.03860  24.05353
 Alpha virt. eigenvalues --   24.06713  24.10282  24.11624  24.12108  24.12631
 Alpha virt. eigenvalues --   24.12795  24.13331  24.13640  24.14339  24.14707
 Alpha virt. eigenvalues --   24.15863  24.16269  24.17515  24.18298  24.19685
 Alpha virt. eigenvalues --   24.20128  24.21930  24.21945  24.23405  24.23571
 Alpha virt. eigenvalues --   24.32865  24.32966  35.78981  50.14177  50.16168
 Alpha virt. eigenvalues --   50.16639  50.17223  50.19926  50.24249 163.95860
          Condensed to atoms (all electrons):
 Mulliken charges:
               1
     1  C    0.020744
     2  C   -0.512062
     3  H    0.211499
     4  C   -0.532751
     5  H    0.195574
     6  H    0.159038
     7  H    0.208667
     8  C   -0.714400
     9  H    0.078320
    10  H    0.113959
    11  H    0.213276
    12  B    0.796060
    13  C   -0.466812
    14  H    0.104059
    15  H    0.222200
    16  H    0.176395
    17  O    0.097039
    18  O    0.124449
    19  C   -0.523359
    20  C    0.230891
    21  C   -0.257722
    22  H    0.246369
    23  H    0.147790
    24  H    0.225512
    25  C   -0.850280
    26  H    0.213030
    27  H    0.197333
    28  H    0.204393
    29  C   -0.968341
    30  H    0.288282
    31  H    0.201823
    32  H   -0.247130
    33  C   -0.479597
    34  H    0.170573
    35  H    0.262463
    36  H    0.057127
    37  P   -0.369179
    38  O   -0.078040
    39  O   -0.175669
    40  N   -0.386247
    41  H    0.301559
    42  H    0.311453
    43  Li  -0.017501
    44  C   -0.213213
    45  O    0.167791
    46  C    0.089492
    47  C   -0.693374
    48  C   -0.566426
    49  H    0.194520
    50  H    0.206793
    51  H    0.203935
    52  H   -0.052237
    53  H    0.193692
    54  H    0.245752
    55  H    0.247985
    56  H    0.199836
    57  C    0.027583
    58  O    0.106451
    59  C   -0.193695
    60  C   -0.556104
    61  C   -0.580907
    62  H    0.058661
    63  H    0.208814
    64  H    0.218723
    65  H    0.230699
    66  H    0.263357
    67  H    0.224916
    68  H    0.254047
    69  H    0.152426
    70  C    0.139177
    71  C    0.263765
    72  C   -0.129985
    73  C   -0.305787
    74  H    0.254672
    75  C   -0.370528
    76  H    0.298704
    77  C   -0.623732
    78  H    0.280156
    79  H    0.277999
    80  H    0.252364
    81  C    0.168388
    82  C   -0.034376
    83  C   -0.167511
    84  C   -0.553520
    85  H    0.313036
    86  C   -0.577705
    87  H    0.291412
    88  C   -0.427765
    89  H    0.279938
    90  H    0.274047
    91  H    0.256947
 Sum of Mulliken charges =  -0.00000
 Mulliken charges with hydrogens summed into heavy atoms:
               1
     1  C    0.020744
     2  C   -0.300562
     4  C    0.030528
     8  C   -0.308844
    12  B    0.796060
    13  C    0.035842
    17  O    0.097039
    18  O    0.124449
    19  C   -0.523359
    20  C    0.230891
    21  C    0.361949
    25  C   -0.235525
    29  C   -0.725367
    33  C    0.010567
    37  P   -0.369179
    38  O   -0.078040
    39  O   -0.175669
    40  N    0.226765
    43  Li  -0.017501
    44  C    0.188100
    45  O    0.167791
    46  C    0.241190
    47  C   -0.253930
    48  C   -0.118605
    57  C    0.295058
    58  O    0.106451
    59  C    0.255727
    60  C   -0.067830
    61  C   -0.174434
    70  C    0.139177
    71  C    0.518437
    72  C    0.168719
    73  C   -0.025631
    75  C   -0.092529
    77  C   -0.371368
    81  C    0.168388
    82  C    0.278660
    83  C    0.123901
    84  C   -0.273582
    86  C   -0.303658
    88  C   -0.170819
 Electronic spatial extent (au):  <R**2>=          21808.3601
 Charge=             -0.0000 electrons
 Dipole moment (field-independent basis, Debye):
    X=             -2.0152    Y=             -2.3810    Z=              1.0024  Tot=              3.2764
 Quadrupole moment (field-independent basis, Debye-Ang):
   XX=           -289.8728   YY=           -232.0188   ZZ=           -233.9068
   XY=              3.7134   XZ=             17.7813   YZ=             -1.2251
 Traceless Quadrupole moment (field-independent basis, Debye-Ang):
   XX=            -37.9400   YY=             19.9140   ZZ=             18.0260
   XY=              3.7134   XZ=             17.7813   YZ=             -1.2251
 Octapole moment (field-independent basis, Debye-Ang**2):
  XXX=            250.0627  YYY=             -9.3202  ZZZ=            -56.7080  XYY=            -44.2362
  XXY=            -22.8688  XXZ=            -56.5630  XZZ=             44.3312  YZZ=            -20.5809
  YYZ=             24.4775  XYZ=             16.6684
 Hexadecapole moment (field-independent basis, Debye-Ang**3):
 XXXX=         -17368.3803 YYYY=          -5480.0827 ZZZZ=          -7952.8588 XXXY=           1012.7991
 XXXZ=           2817.4989 YYYX=            682.1027 YYYZ=           -297.0988 ZZZX=           1689.8372
 ZZZY=           -274.3981 XXYY=          -3587.9346 XXZZ=          -4046.7685 YYZZ=          -2174.5359
 XXYZ=           -257.7998 YYXZ=            597.0047 ZZXY=            120.5528
 N-N= 5.618116044444D+03 E-N=-1.612937077668D+04  KE= 2.083181897077D+03
 Unable to Open any file for archive entry.
 1\1\GINC-NODE07\SP\RwB97XD\6-311++G(d,p)\C31H50B1Li1N1O6P1\WHUGHES2\08
 -Oct-2025\0\\# wb97xd/6-311++g** nosymm int=ultrafine scrf=(smd,solven
 t=tetrahydrofuran)\\syn-product-phos-full-c6_tzpop-sp\\0,1\C,0,-3.7553
 ,1.5002,1.4207\C,0,-5.3164,1.4349,1.5203\H,0,-5.6717,2.4632,1.3552\C,0
 ,-5.9479,0.5424,0.4511\H,0,-5.6489,0.8352,-0.56\H,0,-5.6659,-0.5078,0.
 5994\H,0,-7.0397,0.6041,0.5131\C,0,-3.3609,2.1641,0.0885\H,0,-2.2911,2
 .3897,0.0765\H,0,-3.5716,1.5379,-0.7828\H,0,-3.8994,3.1148,-0.0351\B,0
 ,-3.11,0.0603,1.5634\C,0,-3.2069,2.3855,2.5635\H,0,-2.1389,2.5802,2.41
 9\H,0,-3.7221,3.3576,2.5691\H,0,-3.3336,1.9335,3.554\O,0,-1.9999,-0.39
 12,0.875\O,0,-3.5965,-0.8993,2.4152\C,0,-2.9538,-2.1593,2.0985\C,0,-1.
 6208,-1.6943,1.4264\C,0,-3.8871,-2.9031,1.1437\H,0,-4.8654,-3.02,1.621
 \H,0,-4.0289,-2.3553,0.206\H,0,-3.4991,-3.8991,0.9076\C,0,-2.7707,-2.9
 568,3.3794\H,0,-2.2046,-3.8732,3.1787\H,0,-2.2441,-2.3812,4.1447\H,0,-
 3.7496,-3.2427,3.7784\C,0,-1.1347,-2.5834,0.2936\H,0,-0.944,-3.5948,0.
 6707\H,0,-1.8662,-2.6469,-0.5162\H,0,-0.2012,-2.1768,-0.1064\C,0,-0.48
 94,-1.439,2.4172\H,0,-0.8102,-0.7942,3.2423\H,0,-0.1193,-2.3805,2.8362
 \H,0,0.3341,-0.9512,1.8875\P,0,2.4243,0.117,-0.8887\O,0,1.0666,-0.3198
 ,-0.3359\O,0,2.6813,1.5651,-1.2356\N,0,-5.8515,1.0256,2.8252\H,0,-5.55
 81,1.6784,3.5474\H,0,-5.4574,0.1217,3.0805\Li,0,-0.5565,0.5878,-0.1899
 \C,0,0.4459,3.3629,0.2383\O,0,-0.1034,2.201,0.8939\C,0,0.6064,1.9496,2
 .1133\C,0,1.1751,3.2997,2.5177\C,0,1.5531,3.8861,1.1542\H,0,0.8388,3.0
 588,-0.7354\H,0,-0.371,4.084,0.114\H,0,-0.1037,1.5274,2.8293\H,0,1.402
 9,1.2184,1.9248\H,0,0.404,3.9076,3.0061\H,0,2.0276,3.2038,3.1959\H,0,1
 .6062,4.9784,1.1536\H,0,2.5171,3.4857,0.8248\C,0,-1.0141,-0.4454,-2.84
 58\O,0,-1.3469,0.6915,-2.026\C,0,-1.1908,1.879,-2.8061\C,0,-0.0257,1.5
 676,-3.732\C,0,-0.3103,0.1041,-4.098\H,0,-0.3644,-1.0874,-2.2477\H,0,-
 1.9367,-0.9853,-3.0885\H,0,-2.1159,2.0726,-3.3693\H,0,-1.0181,2.7105,-
 2.1191\H,0,0.0079,2.227,-4.6042\H,0,0.9167,1.6562,-3.18\H,0,-0.9758,0.
 0509,-4.9664\H,0,0.5995,-0.4561,-4.3305\C,0,3.6726,-0.4517,0.3254\C,0,
 3.3932,-1.5184,1.1872\C,0,4.9232,0.1702,0.3999\C,0,4.3455,-1.9564,2.10
 64\H,0,2.4196,-1.9999,1.1419\C,0,5.8783,-0.265,1.3182\H,0,5.1431,1.005
 7,-0.26\C,0,5.5906,-1.3299,2.1724\H,0,4.116,-2.7841,2.7728\H,0,6.8456,
 0.2284,1.3697\H,0,6.3338,-1.6696,2.8892\C,0,2.7298,-0.9098,-2.3761\C,0
 ,2.2311,-2.2147,-2.4598\C,0,3.4453,-0.3884,-3.4577\C,0,2.4372,-2.9821,
 -3.6043\H,0,1.6641,-2.6265,-1.6283\C,0,3.654,-1.1525,-4.606\H,0,3.8247
 ,0.6286,-3.4014\C,0,3.1486,-2.4501,-4.6812\H,0,2.04,-3.9925,-3.6598\H,
 0,4.2059,-0.7334,-5.4435\H,0,3.3072,-3.0458,-5.5766\\Version=AS64L-G16
 RevC.01\HF=-2091.5319557\RMSD=3.615e-09\Dipole=-0.7928237,-0.9367427,0
 .3943559\Quadrupole=-28.2074921,14.8055751,13.401917,2.760796,13.21997
 43,-0.9108281\PG=C01 [X(C31H50B1Li1N1O6P1)]\\@
 The archive entry for this job was punched.


 BETTER TO HUNT IN FIELDS, FOR HEALTH UNBOUGHT
 THAN FEE THE DOCTOR FOR A NAUSEOUS DRAUGHT.
 THE WISE, FOR CURE, ON EXERCISE DEPEND;
 GOD NEVER MADE HIS WORK FOR MAN TO MEND.
     -- JOHN DRYDEN (1631-1700)
 Job cpu time:       0 days  8 hours 47 minutes 38.8 seconds.
 Elapsed time:       0 days  2 hours 13 minutes  3.4 seconds.
 File lengths (MBytes):  RWF=   1333 Int=      0 D2E=      0 Chk=     95 Scr=      1
 Normal termination of Gaussian 16 at Wed Oct  8 19:22:02 2025.
