Job Start Time: Wed Oct  8 17:06:14 MDT 2025
SLURM Job ID: 768213
SLURM Job Name: syn-product-phos-full-c3_tzpop-sp
 Entering Gaussian System, Link 0=/opt/apps/Gaussian/G16C/g16/g16
 Initial command:
 /opt/apps/Gaussian/G16C/g16/l1.exe "/tmp/768213/Gau-2793229.inp" -scrdir="/tmp/768213/"
 Entering Link 1 = /opt/apps/Gaussian/G16C/g16/l1.exe PID=   2793230.
  
 Copyright (c) 1988-2019, Gaussian, Inc.  All Rights Reserved.
  
 This is part of the Gaussian(R) 16 program.  It is based on
 the Gaussian(R) 09 system (copyright 2009, Gaussian, Inc.),
 the Gaussian(R) 03 system (copyright 2003, Gaussian, Inc.),
 the Gaussian(R) 98 system (copyright 1998, Gaussian, Inc.),
 the Gaussian(R) 94 system (copyright 1995, Gaussian, Inc.),
 the Gaussian 92(TM) system (copyright 1992, Gaussian, Inc.),
 the Gaussian 90(TM) system (copyright 1990, Gaussian, Inc.),
 the Gaussian 88(TM) system (copyright 1988, Gaussian, Inc.),
 the Gaussian 86(TM) system (copyright 1986, Carnegie Mellon
 University), and the Gaussian 82(TM) system (copyright 1983,
 Carnegie Mellon University). Gaussian is a federally registered
 trademark of Gaussian, Inc.
  
 This software contains proprietary and confidential information,
 including trade secrets, belonging to Gaussian, Inc.
  
 This software is provided under written license and may be
 used, copied, transmitted, or stored only in accord with that
 written license.
  
 The following legend is applicable only to US Government
 contracts under FAR:
  
                    RESTRICTED RIGHTS LEGEND
  
 Use, reproduction and disclosure by the US Government is
 subject to restrictions as set forth in subparagraphs (a)
 and (c) of the Commercial Computer Software - Restricted
 Rights clause in FAR 52.227-19.
  
 Gaussian, Inc.
 340 Quinnipiac St., Bldg. 40, Wallingford CT 06492
  
  
 ---------------------------------------------------------------
 Warning -- This program may not be used in any manner that
 competes with the business of Gaussian, Inc. or will provide
 assistance to any competitor of Gaussian, Inc.  The licensee
 of this program is prohibited from giving any competitor of
 Gaussian, Inc. access to this program.  By using this program,
 the user acknowledges that Gaussian, Inc. is engaged in the
 business of creating and licensing software in the field of
 computational chemistry and represents and warrants to the
 licensee that it is not a competitor of Gaussian, Inc. and that
 it will not use this program in any manner prohibited above.
 ---------------------------------------------------------------
  

 Cite this work as:
 Gaussian 16, Revision C.01,
 M. J. Frisch, G. W. Trucks, H. B. Schlegel, G. E. Scuseria, 
 M. A. Robb, J. R. Cheeseman, G. Scalmani, V. Barone, 
 G. A. Petersson, H. Nakatsuji, X. Li, M. Caricato, A. V. Marenich, 
 J. Bloino, B. G. Janesko, R. Gomperts, B. Mennucci, H. P. Hratchian, 
 J. V. Ortiz, A. F. Izmaylov, J. L. Sonnenberg, D. Williams-Young, 
 F. Ding, F. Lipparini, F. Egidi, J. Goings, B. Peng, A. Petrone, 
 T. Henderson, D. Ranasinghe, V. G. Zakrzewski, J. Gao, N. Rega, 
 G. Zheng, W. Liang, M. Hada, M. Ehara, K. Toyota, R. Fukuda, 
 J. Hasegawa, M. Ishida, T. Nakajima, Y. Honda, O. Kitao, H. Nakai, 
 T. Vreven, K. Throssell, J. A. Montgomery, Jr., J. E. Peralta, 
 F. Ogliaro, M. J. Bearpark, J. J. Heyd, E. N. Brothers, K. N. Kudin, 
 V. N. Staroverov, T. A. Keith, R. Kobayashi, J. Normand, 
 K. Raghavachari, A. P. Rendell, J. C. Burant, S. S. Iyengar, 
 J. Tomasi, M. Cossi, J. M. Millam, M. Klene, C. Adamo, R. Cammi, 
 J. W. Ochterski, R. L. Martin, K. Morokuma, O. Farkas, 
 J. B. Foresman, and D. J. Fox, Gaussian, Inc., Wallingford CT, 2019.
 
 ******************************************
 Gaussian 16:  AS64L-G16RevC.01  3-Jul-2019
                 8-Oct-2025 
 ******************************************
 %chk=syn-product-phos-full-c3_tzpop-sp.chk
 %nprocshared=4
 Will use up to    4 processors via shared memory.
 %mem=8GB
 ----------------------------------------------------------------------
 # wb97xd/6-311++g** nosymm int=ultrafine scrf=(smd,solvent=tetrahydrof
 uran)
 ----------------------------------------------------------------------
 1/38=1,172=1/1;
 2/12=2,15=1,17=6,18=5,40=1/2;
 3/5=4,6=6,7=1111,11=2,25=1,30=1,70=32201,72=20,74=-58,75=-5/1,2,3;
 4//1;
 5/5=2,38=5,53=20/2;
 6/7=2,8=2,9=2,10=2,28=1/1;
 99/5=1,9=1/99;
 ---------------------------------
 syn-product-phos-full-c3_tzpop-sp
 ---------------------------------
 Symbolic Z-matrix:
 Charge =  0 Multiplicity = 1
 C                    -2.4585   -2.1715   -0.0943 
 C                    -1.9663   -3.016     1.117 
 H                    -2.8667   -3.4405    1.581 
 C                    -1.0349   -4.1735    0.7465 
 H                    -1.4735   -4.8276   -0.0178 
 H                    -0.0745   -3.8021    0.3703 
 H                    -0.83     -4.7855    1.6337 
 C                    -1.3333   -1.8522   -1.0862 
 H                    -1.7022   -1.1925   -1.8793 
 H                    -0.4836   -1.3489   -0.619 
 H                    -0.956    -2.7615   -1.5712 
 B                    -3.0372   -0.845     0.551 
 C                    -3.5743   -2.918    -0.847 
 H                    -4.4185   -3.16     -0.1915 
 H                    -3.9626   -2.3128   -1.6771 
 H                    -3.199    -3.8563   -1.2779 
 O                    -2.4716    0.4213    0.4422 
 O                    -4.2656   -0.798     1.1593 
 C                    -4.6563    0.5848    1.2937 
 C                    -3.2827    1.3326    1.2466 
 C                    -5.4261    0.7635    2.5931 
 H                    -5.6532    1.8223    2.7616 
 H                    -6.3739    0.2175    2.5377 
 H                    -4.8643    0.3852    3.4507 
 C                    -5.5583    0.9053    0.101 
 H                    -5.0234    0.7923   -0.8486 
 H                    -6.4032    0.2089    0.0984 
 H                    -5.9532    1.9248    0.1588 
 C                    -2.6071    1.4404    2.6106 
 H                    -1.584     1.8022    2.4759 
 H                    -3.1362    2.1502    3.2551 
 H                    -2.56      0.4692    3.1111 
 C                    -3.3331    2.6912    0.5662 
 H                    -4.0283    3.3477    1.102 
 H                    -2.3425    3.1528    0.588 
 H                    -3.6614    2.6152   -0.4731 
 P                     2.0003   -0.6527    0.5821 
 O                     1.1185    0.298    -0.2263 
 O                     1.4936   -1.1828    1.9067 
 N                    -1.3891   -2.1072    2.119 
 H                    -1.2632   -2.6062    2.998 
 H                    -0.4485   -1.7975    1.8524 
 Li                   -0.5814    1.0817   -0.1474 
 C                     0.8879    2.8034    1.815 
 O                    -0.0727    2.8806    0.7452 
 C                     0.3769    3.8641   -0.1906 
 C                     1.8899    3.7206   -0.18 
 C                     2.1655    3.4997    1.3132 
 H                     0.4698    3.2991    2.6992 
 H                     1.0378    1.7449    2.0391 
 H                    -0.1011    3.6463   -1.1473 
 H                     0.0661    4.864     0.1487 
 H                     2.1779    2.8358   -0.7563 
 H                     2.4019    4.5982   -0.5853 
 H                     3.0566    2.8926    1.4902 
 H                     2.3012    4.4604    1.8215 
 C                    -2.2385    1.3915   -2.7411 
 O                    -1.0092    1.5725   -2.0297 
 C                     0.069     1.5015   -2.966 
 C                    -0.3668    0.4334   -3.9586 
 C                    -1.8847    0.6697   -4.0575 
 H                    -2.9026    0.8162   -2.092 
 H                    -2.6914    2.3736   -2.9262 
 H                     0.1938    2.4787   -3.4565 
 H                     0.9668    1.2546   -2.3965 
 H                     0.1409    0.5282   -4.9226 
 H                    -0.1543   -0.5598   -3.5505 
 H                    -2.1248    1.3041   -4.916 
 H                    -2.4384   -0.2669   -4.1675 
 C                     2.4075   -2.0549   -0.5221 
 C                     2.1958   -1.9574   -1.9005 
 C                     2.922    -3.2453    0.0028 
 C                     2.4884   -3.0296   -2.7423 
 H                     1.7806   -1.0395   -2.3076 
 C                     3.218    -4.3191   -0.8352 
 H                     3.0787   -3.3355    1.0749 
 C                     3.0003   -4.2128   -2.2097 
 H                     2.3118   -2.944    -3.8117 
 H                     3.6121   -5.2413   -0.4161 
 H                     3.2267   -5.0515   -2.863 
 C                     3.5971    0.1992    0.852 
 C                     4.2569    0.8286   -0.21 
 C                     4.152     0.2677    2.132 
 C                     5.4441    1.5236    0.0053 
 H                     3.8354    0.7826   -1.2117 
 C                     5.3402    0.9659    2.3529 
 H                     3.6399   -0.2202    2.9572 
 C                     5.9858    1.5966    1.2905 
 H                     5.946     2.0122   -0.8259 
 H                     5.7597    1.0188    3.3543 
 H                     6.9104    2.1422    1.4609 
 
 Symmetry turned off by external request.
 Stoichiometry    C31H50BLiNO6P
 Framework group  C1[X(C31H50BLiNO6P)]
 Deg. of freedom   267
 Full point group                 C1      NOp   1
                          Input orientation:                          
 ---------------------------------------------------------------------
 Center     Atomic      Atomic             Coordinates (Angstroms)
 Number     Number       Type             X           Y           Z
 ---------------------------------------------------------------------
      1          6           0       -2.458500   -2.171500   -0.094300
      2          6           0       -1.966300   -3.016000    1.117000
      3          1           0       -2.866700   -3.440500    1.581000
      4          6           0       -1.034900   -4.173500    0.746500
      5          1           0       -1.473500   -4.827600   -0.017800
      6          1           0       -0.074500   -3.802100    0.370300
      7          1           0       -0.830000   -4.785500    1.633700
      8          6           0       -1.333300   -1.852200   -1.086200
      9          1           0       -1.702200   -1.192500   -1.879300
     10          1           0       -0.483600   -1.348900   -0.619000
     11          1           0       -0.956000   -2.761500   -1.571200
     12          5           0       -3.037200   -0.845000    0.551000
     13          6           0       -3.574300   -2.918000   -0.847000
     14          1           0       -4.418500   -3.160000   -0.191500
     15          1           0       -3.962600   -2.312800   -1.677100
     16          1           0       -3.199000   -3.856300   -1.277900
     17          8           0       -2.471600    0.421300    0.442200
     18          8           0       -4.265600   -0.798000    1.159300
     19          6           0       -4.656300    0.584800    1.293700
     20          6           0       -3.282700    1.332600    1.246600
     21          6           0       -5.426100    0.763500    2.593100
     22          1           0       -5.653200    1.822300    2.761600
     23          1           0       -6.373900    0.217500    2.537700
     24          1           0       -4.864300    0.385200    3.450700
     25          6           0       -5.558300    0.905300    0.101000
     26          1           0       -5.023400    0.792300   -0.848600
     27          1           0       -6.403200    0.208900    0.098400
     28          1           0       -5.953200    1.924800    0.158800
     29          6           0       -2.607100    1.440400    2.610600
     30          1           0       -1.584000    1.802200    2.475900
     31          1           0       -3.136200    2.150200    3.255100
     32          1           0       -2.560000    0.469200    3.111100
     33          6           0       -3.333100    2.691200    0.566200
     34          1           0       -4.028300    3.347700    1.102000
     35          1           0       -2.342500    3.152800    0.588000
     36          1           0       -3.661400    2.615200   -0.473100
     37         15           0        2.000300   -0.652700    0.582100
     38          8           0        1.118500    0.298000   -0.226300
     39          8           0        1.493600   -1.182800    1.906700
     40          7           0       -1.389100   -2.107200    2.119000
     41          1           0       -1.263200   -2.606200    2.998000
     42          1           0       -0.448500   -1.797500    1.852400
     43          3           0       -0.581400    1.081700   -0.147400
     44          6           0        0.887900    2.803400    1.815000
     45          8           0       -0.072700    2.880600    0.745200
     46          6           0        0.376900    3.864100   -0.190600
     47          6           0        1.889900    3.720600   -0.180000
     48          6           0        2.165500    3.499700    1.313200
     49          1           0        0.469800    3.299100    2.699200
     50          1           0        1.037800    1.744900    2.039100
     51          1           0       -0.101100    3.646300   -1.147300
     52          1           0        0.066100    4.864000    0.148700
     53          1           0        2.177900    2.835800   -0.756300
     54          1           0        2.401900    4.598200   -0.585300
     55          1           0        3.056600    2.892600    1.490200
     56          1           0        2.301200    4.460400    1.821500
     57          6           0       -2.238500    1.391500   -2.741100
     58          8           0       -1.009200    1.572500   -2.029700
     59          6           0        0.069000    1.501500   -2.966000
     60          6           0       -0.366800    0.433400   -3.958600
     61          6           0       -1.884700    0.669700   -4.057500
     62          1           0       -2.902600    0.816200   -2.092000
     63          1           0       -2.691400    2.373600   -2.926200
     64          1           0        0.193800    2.478700   -3.456500
     65          1           0        0.966800    1.254600   -2.396500
     66          1           0        0.140900    0.528200   -4.922600
     67          1           0       -0.154300   -0.559800   -3.550500
     68          1           0       -2.124800    1.304100   -4.916000
     69          1           0       -2.438400   -0.266900   -4.167500
     70          6           0        2.407500   -2.054900   -0.522100
     71          6           0        2.195800   -1.957400   -1.900500
     72          6           0        2.922000   -3.245300    0.002800
     73          6           0        2.488400   -3.029600   -2.742300
     74          1           0        1.780600   -1.039500   -2.307600
     75          6           0        3.218000   -4.319100   -0.835200
     76          1           0        3.078700   -3.335500    1.074900
     77          6           0        3.000300   -4.212800   -2.209700
     78          1           0        2.311800   -2.944000   -3.811700
     79          1           0        3.612100   -5.241300   -0.416100
     80          1           0        3.226700   -5.051500   -2.863000
     81          6           0        3.597100    0.199200    0.852000
     82          6           0        4.256900    0.828600   -0.210000
     83          6           0        4.152000    0.267700    2.132000
     84          6           0        5.444100    1.523600    0.005300
     85          1           0        3.835400    0.782600   -1.211700
     86          6           0        5.340200    0.965900    2.352900
     87          1           0        3.639900   -0.220200    2.957200
     88          6           0        5.985800    1.596600    1.290500
     89          1           0        5.946000    2.012200   -0.825900
     90          1           0        5.759700    1.018800    3.354300
     91          1           0        6.910400    2.142200    1.460900
 ---------------------------------------------------------------------
 Rotational constants (GHZ):           0.1102308           0.0717553           0.0609519
 Standard basis: 6-311++G(d,p) (5D, 7F)
  1260 basis functions,  1940 primitive gaussians,  1301 cartesian basis functions
   157 alpha electrons      157 beta electrons
       nuclear repulsion energy      5691.9618199280 Hartrees.
 NAtoms=   91 NActive=   91 NUniq=   91 SFac= 1.00D+00 NAtFMM=   60 NAOKFM=T Big=T
 Integral buffers will be    131072 words long.
 Raffenetti 2 integral format.
 Two-electron integral symmetry is turned off.
 Nuclear repulsion after empirical dispersion term =     5691.8462437973 Hartrees.
 ------------------------------------------------------------------------------
 Polarizable Continuum Model (PCM)
 =================================
 Model                : PCM.
 Atomic radii         : SMD-Coulomb.
 Polarization charges : Total charges.
 Charge compensation  : None.
 Solution method      : On-the-fly selection.
 Cavity type          : VdW (van der Waals Surface) (Alpha=1.000).
 Cavity algorithm     : GePol (No added spheres)
                        Default sphere list used, NSphG=   91.
                        Lebedev-Laikov grids with approx.  5.0 points / Ang**2.
                        Smoothing algorithm: York/Karplus (Gamma=1.0000).
                        Polarization charges: spherical gaussians, with
                                              point-specific exponents (IZeta= 3).
                        Self-potential: point-specific (ISelfS= 7).
                        Self-field    : sphere-specific E.n sum rule (ISelfD= 2).
 Solvent              : TetraHydroFuran, Eps=   7.425700 Eps(inf)=   1.974025
 ------------------------------------------------------------------------------
 ------------------------------------------------------------------------------
 Atomic radii for non-electrostatic terms: SMD-CDS.
 ------------------------------------------------------------------------------
 Nuclear repulsion after PCM non-electrostatic terms =     5691.8366057470 Hartrees.
 One-electron integrals computed using PRISM.
 NBasis=  1260 RedAO= T EigKep=  1.21D-06  NBF=  1260
 NBsUse=  1252 1.00D-06 EigRej=  7.68D-07 NBFU=  1252
 ExpMin= 7.40D-03 ExpMax= 7.75D+04 ExpMxC= 2.65D+03 IAcc=3 IRadAn=         5 AccDes= 0.00D+00
 Harris functional with IExCor= 4639 and IRadAn=       5 diagonalized for initial guess.
 HarFok:  IExCor= 4639 AccDes= 0.00D+00 IRadAn=         5 IDoV= 1 UseB2=F ITyADJ=14
 ICtDFT=  3500011 ScaDFX=  1.000000  1.000000  1.000000  1.000000
 FoFCou: FMM=F IPFlag=           0 FMFlag=      100000 FMFlg1=        2001
         NFxFlg=           0 DoJE=T BraDBF=F KetDBF=T FulRan=T
         wScrn=  0.000000 ICntrl=       500 IOpCl=  0 I1Cent=   200000004 NGrid=           0
         NMat0=    1 NMatS0=      1 NMatT0=    0 NMatD0=    1 NMtDS0=    0 NMtDT0=    0
 Symmetry not used in FoFCou.
 Requested convergence on RMS density matrix=1.00D-08 within 128 cycles.
 Requested convergence on MAX density matrix=1.00D-06.
 Requested convergence on             energy=1.00D-06.
 No special actions if energy rises.
 Inv3:  Mode=1 IEnd=    91543728.
 Iteration    1 A*A^-1 deviation from unit magnitude is 5.00D-15 for   5519.
 Iteration    1 A*A^-1 deviation from orthogonality  is 3.65D-15 for   3310   1400.
 Iteration    1 A^-1*A deviation from unit magnitude is 5.00D-15 for   5519.
 Iteration    1 A^-1*A deviation from orthogonality  is 7.04D-14 for   2576   2507.
 Error on total polarization charges =  0.07398
 SCF Done:  E(RwB97XD) =  -2091.53484308     A.U. after   15 cycles
            NFock= 15  Conv=0.73D-08     -V/T= 2.0040
 SMD-CDS (non-electrostatic) energy       (kcal/mol) =      -6.05
 (included in total energy above)

 **********************************************************************

            Population analysis using the SCF Density.

 **********************************************************************

 Alpha  occ. eigenvalues --  -77.26134 -19.25982 -19.25666 -19.25468 -19.24237
 Alpha  occ. eigenvalues --  -19.17599 -19.16815 -14.38521 -10.34677 -10.34401
 Alpha  occ. eigenvalues --  -10.32543 -10.32158 -10.32082 -10.31815 -10.29534
 Alpha  occ. eigenvalues --  -10.28812 -10.28786 -10.28749 -10.28640 -10.28597
 Alpha  occ. eigenvalues --  -10.28584 -10.28584 -10.28527 -10.28514 -10.28494
 Alpha  occ. eigenvalues --  -10.28202 -10.28124 -10.27920 -10.27709 -10.27230
 Alpha  occ. eigenvalues --  -10.27202 -10.26690 -10.26643 -10.26513 -10.26183
 Alpha  occ. eigenvalues --  -10.26002 -10.25833 -10.25252 -10.25122  -6.87043
 Alpha  occ. eigenvalues --   -6.70467  -4.85182  -4.85158  -4.85149  -1.99904
 Alpha  occ. eigenvalues --   -1.16613  -1.15015  -1.14362  -1.09528  -1.06818
 Alpha  occ. eigenvalues --   -1.00704  -0.96903  -0.95584  -0.95432  -0.90631
 Alpha  occ. eigenvalues --   -0.88004  -0.87632  -0.87413  -0.85012  -0.84594
 Alpha  occ. eigenvalues --   -0.84378  -0.84285  -0.84048  -0.83751  -0.83180
 Alpha  occ. eigenvalues --   -0.79959  -0.79909  -0.76959  -0.76710  -0.71963
 Alpha  occ. eigenvalues --   -0.71334  -0.70620  -0.69629  -0.69310  -0.68992
 Alpha  occ. eigenvalues --   -0.68807  -0.68637  -0.68470  -0.67922  -0.64532
 Alpha  occ. eigenvalues --   -0.64251  -0.63438  -0.61302  -0.60712  -0.60051
 Alpha  occ. eigenvalues --   -0.59308  -0.58098  -0.57971  -0.57887  -0.56887
 Alpha  occ. eigenvalues --   -0.55984  -0.55103  -0.53996  -0.53804  -0.53539
 Alpha  occ. eigenvalues --   -0.53499  -0.53374  -0.53062  -0.52912  -0.52710
 Alpha  occ. eigenvalues --   -0.52535  -0.51374  -0.50657  -0.50457  -0.50309
 Alpha  occ. eigenvalues --   -0.50138  -0.49993  -0.49450  -0.49265  -0.48569
 Alpha  occ. eigenvalues --   -0.48457  -0.48337  -0.48184  -0.48037  -0.47744
 Alpha  occ. eigenvalues --   -0.46960  -0.46914  -0.46032  -0.45725  -0.45578
 Alpha  occ. eigenvalues --   -0.45379  -0.45194  -0.44691  -0.44483  -0.44123
 Alpha  occ. eigenvalues --   -0.43917  -0.43333  -0.43264  -0.42999  -0.42859
 Alpha  occ. eigenvalues --   -0.42772  -0.42666  -0.42345  -0.41953  -0.41888
 Alpha  occ. eigenvalues --   -0.41819  -0.41615  -0.41270  -0.40891  -0.40430
 Alpha  occ. eigenvalues --   -0.40112  -0.39187  -0.38641  -0.38208  -0.36941
 Alpha  occ. eigenvalues --   -0.36257  -0.35596  -0.35197  -0.34954  -0.34452
 Alpha  occ. eigenvalues --   -0.33847  -0.33536  -0.33100  -0.32804  -0.32641
 Alpha  occ. eigenvalues --   -0.31500  -0.30705
 Alpha virt. eigenvalues --    0.02138   0.02481   0.02539   0.02735   0.03422
 Alpha virt. eigenvalues --    0.05000   0.05361   0.05661   0.05742   0.05854
 Alpha virt. eigenvalues --    0.05956   0.06036   0.06134   0.06830   0.06929
 Alpha virt. eigenvalues --    0.07004   0.07086   0.07354   0.07480   0.07527
 Alpha virt. eigenvalues --    0.07592   0.07785   0.07930   0.07997   0.08582
 Alpha virt. eigenvalues --    0.08757   0.08928   0.09214   0.09389   0.09754
 Alpha virt. eigenvalues --    0.09926   0.10070   0.10517   0.10694   0.10858
 Alpha virt. eigenvalues --    0.11141   0.11481   0.11836   0.12059   0.12178
 Alpha virt. eigenvalues --    0.12450   0.12727   0.12999   0.13140   0.13413
 Alpha virt. eigenvalues --    0.13642   0.13708   0.13766   0.13981   0.14297
 Alpha virt. eigenvalues --    0.14460   0.14724   0.14925   0.15090   0.15276
 Alpha virt. eigenvalues --    0.15545   0.15669   0.16027   0.16184   0.16316
 Alpha virt. eigenvalues --    0.16579   0.16681   0.16703   0.16901   0.16984
 Alpha virt. eigenvalues --    0.17162   0.17355   0.17514   0.17628   0.17731
 Alpha virt. eigenvalues --    0.17776   0.17941   0.18132   0.18196   0.18350
 Alpha virt. eigenvalues --    0.18358   0.18529   0.18678   0.18844   0.18898
 Alpha virt. eigenvalues --    0.18992   0.19085   0.19246   0.19294   0.19606
 Alpha virt. eigenvalues --    0.19807   0.19895   0.20025   0.20116   0.20220
 Alpha virt. eigenvalues --    0.20358   0.20501   0.20527   0.20721   0.20811
 Alpha virt. eigenvalues --    0.20949   0.21010   0.21178   0.21392   0.21702
 Alpha virt. eigenvalues --    0.21774   0.21822   0.21894   0.22133   0.22245
 Alpha virt. eigenvalues --    0.22360   0.22606   0.22793   0.22879   0.22994
 Alpha virt. eigenvalues --    0.23146   0.23232   0.23340   0.23393   0.23617
 Alpha virt. eigenvalues --    0.23667   0.23721   0.23817   0.24087   0.24215
 Alpha virt. eigenvalues --    0.24354   0.24437   0.24679   0.24802   0.24924
 Alpha virt. eigenvalues --    0.25116   0.25137   0.25279   0.25452   0.25575
 Alpha virt. eigenvalues --    0.25659   0.25933   0.25998   0.26073   0.26148
 Alpha virt. eigenvalues --    0.26394   0.26501   0.26682   0.26870   0.26999
 Alpha virt. eigenvalues --    0.27048   0.27219   0.27244   0.27468   0.27593
 Alpha virt. eigenvalues --    0.27659   0.27788   0.28025   0.28174   0.28365
 Alpha virt. eigenvalues --    0.28477   0.28740   0.28796   0.28988   0.29012
 Alpha virt. eigenvalues --    0.29181   0.29324   0.29415   0.29746   0.29787
 Alpha virt. eigenvalues --    0.29987   0.30021   0.30279   0.30411   0.30528
 Alpha virt. eigenvalues --    0.30720   0.30793   0.31115   0.31184   0.31427
 Alpha virt. eigenvalues --    0.31507   0.31586   0.31908   0.32086   0.32115
 Alpha virt. eigenvalues --    0.32233   0.32383   0.32404   0.32711   0.32942
 Alpha virt. eigenvalues --    0.33087   0.33376   0.33392   0.33674   0.33835
 Alpha virt. eigenvalues --    0.33873   0.34097   0.34208   0.34310   0.34591
 Alpha virt. eigenvalues --    0.34842   0.34954   0.35096   0.35349   0.35515
 Alpha virt. eigenvalues --    0.35627   0.35855   0.35947   0.36195   0.36402
 Alpha virt. eigenvalues --    0.36554   0.36774   0.36896   0.37093   0.37260
 Alpha virt. eigenvalues --    0.37371   0.37673   0.37758   0.37883   0.37999
 Alpha virt. eigenvalues --    0.38158   0.38219   0.38417   0.38587   0.38790
 Alpha virt. eigenvalues --    0.38892   0.39128   0.39188   0.39354   0.39491
 Alpha virt. eigenvalues --    0.39792   0.39896   0.39919   0.40163   0.40249
 Alpha virt. eigenvalues --    0.40532   0.40665   0.40765   0.40904   0.41044
 Alpha virt. eigenvalues --    0.41177   0.41402   0.41490   0.41659   0.41902
 Alpha virt. eigenvalues --    0.41987   0.42258   0.42421   0.42469   0.42719
 Alpha virt. eigenvalues --    0.42921   0.43031   0.43297   0.43524   0.43623
 Alpha virt. eigenvalues --    0.43845   0.44054   0.44301   0.44445   0.44689
 Alpha virt. eigenvalues --    0.44711   0.45037   0.45233   0.45324   0.45494
 Alpha virt. eigenvalues --    0.45808   0.46043   0.46187   0.46483   0.46571
 Alpha virt. eigenvalues --    0.46723   0.46822   0.46999   0.47377   0.47933
 Alpha virt. eigenvalues --    0.48086   0.48289   0.48564   0.48818   0.49054
 Alpha virt. eigenvalues --    0.49592   0.49894   0.50100   0.50358   0.50571
 Alpha virt. eigenvalues --    0.50898   0.51405   0.51638   0.52624   0.52783
 Alpha virt. eigenvalues --    0.53064   0.53333   0.53462   0.53691   0.54244
 Alpha virt. eigenvalues --    0.54516   0.55438   0.55558   0.55903   0.56176
 Alpha virt. eigenvalues --    0.56439   0.56701   0.57189   0.57362   0.57602
 Alpha virt. eigenvalues --    0.57947   0.58000   0.58756   0.58832   0.59480
 Alpha virt. eigenvalues --    0.59783   0.60084   0.60280   0.60743   0.61009
 Alpha virt. eigenvalues --    0.61186   0.61516   0.61668   0.61881   0.62302
 Alpha virt. eigenvalues --    0.62441   0.62894   0.63127   0.63871   0.64290
 Alpha virt. eigenvalues --    0.64560   0.64917   0.64994   0.65126   0.65242
 Alpha virt. eigenvalues --    0.65631   0.65896   0.66021   0.66537   0.66709
 Alpha virt. eigenvalues --    0.67056   0.67432   0.67476   0.67834   0.68048
 Alpha virt. eigenvalues --    0.68522   0.68976   0.69231   0.69379   0.69853
 Alpha virt. eigenvalues --    0.69927   0.70260   0.70653   0.70862   0.71049
 Alpha virt. eigenvalues --    0.71208   0.71458   0.71673   0.72034   0.72096
 Alpha virt. eigenvalues --    0.72533   0.72679   0.72905   0.73251   0.73617
 Alpha virt. eigenvalues --    0.74146   0.74366   0.74496   0.74676   0.75056
 Alpha virt. eigenvalues --    0.75169   0.75762   0.75965   0.76212   0.76265
 Alpha virt. eigenvalues --    0.76678   0.76882   0.77430   0.77868   0.78470
 Alpha virt. eigenvalues --    0.78589   0.78720   0.78769   0.79009   0.79431
 Alpha virt. eigenvalues --    0.79528   0.79883   0.80361   0.80529   0.80650
 Alpha virt. eigenvalues --    0.80930   0.81137   0.81475   0.81581   0.81856
 Alpha virt. eigenvalues --    0.81989   0.82103   0.82525   0.82792   0.82949
 Alpha virt. eigenvalues --    0.83182   0.83312   0.83693   0.83776   0.84013
 Alpha virt. eigenvalues --    0.84117   0.84306   0.84376   0.84811   0.84882
 Alpha virt. eigenvalues --    0.85151   0.85484   0.85653   0.85912   0.86090
 Alpha virt. eigenvalues --    0.86482   0.86814   0.86924   0.87105   0.87227
 Alpha virt. eigenvalues --    0.87510   0.87712   0.87808   0.87948   0.88131
 Alpha virt. eigenvalues --    0.88922   0.89009   0.89267   0.89556   0.89625
 Alpha virt. eigenvalues --    0.89812   0.90255   0.90370   0.90537   0.91075
 Alpha virt. eigenvalues --    0.91097   0.91471   0.91837   0.92073   0.92296
 Alpha virt. eigenvalues --    0.92498   0.92594   0.92997   0.93190   0.93464
 Alpha virt. eigenvalues --    0.93997   0.94344   0.94497   0.95045   0.95396
 Alpha virt. eigenvalues --    0.95488   0.96019   0.96378   0.96414   0.96697
 Alpha virt. eigenvalues --    0.96904   0.97187   0.97522   0.97631   0.98060
 Alpha virt. eigenvalues --    0.98366   0.98574   0.98908   0.99001   0.99640
 Alpha virt. eigenvalues --    0.99946   1.00272   1.00790   1.01338   1.01437
 Alpha virt. eigenvalues --    1.01836   1.02437   1.02554   1.03410   1.03697
 Alpha virt. eigenvalues --    1.04267   1.04600   1.05655   1.05846   1.06056
 Alpha virt. eigenvalues --    1.06498   1.06712   1.07332   1.07568   1.08558
 Alpha virt. eigenvalues --    1.08975   1.09009   1.09294   1.09993   1.10275
 Alpha virt. eigenvalues --    1.10873   1.11642   1.12072   1.12397   1.13187
 Alpha virt. eigenvalues --    1.13309   1.13747   1.13931   1.14693   1.14854
 Alpha virt. eigenvalues --    1.15088   1.15868   1.16290   1.16923   1.17516
 Alpha virt. eigenvalues --    1.18253   1.18295   1.18681   1.19119   1.19628
 Alpha virt. eigenvalues --    1.20214   1.20579   1.20750   1.21875   1.22418
 Alpha virt. eigenvalues --    1.22426   1.23213   1.23488   1.24204   1.24303
 Alpha virt. eigenvalues --    1.25120   1.25404   1.25822   1.26000   1.27224
 Alpha virt. eigenvalues --    1.27986   1.28372   1.28885   1.29246   1.30286
 Alpha virt. eigenvalues --    1.30643   1.31067   1.31597   1.32109   1.32172
 Alpha virt. eigenvalues --    1.33259   1.34025   1.34599   1.35161   1.35465
 Alpha virt. eigenvalues --    1.35603   1.36113   1.36919   1.37397   1.38040
 Alpha virt. eigenvalues --    1.38560   1.39201   1.39442   1.39677   1.40029
 Alpha virt. eigenvalues --    1.41488   1.41904   1.42208   1.42606   1.43540
 Alpha virt. eigenvalues --    1.44074   1.44647   1.45155   1.45518   1.46001
 Alpha virt. eigenvalues --    1.46573   1.47381   1.47548   1.48182   1.48830
 Alpha virt. eigenvalues --    1.49288   1.49975   1.50115   1.51390   1.52022
 Alpha virt. eigenvalues --    1.52581   1.54021   1.54605   1.54879   1.55359
 Alpha virt. eigenvalues --    1.56369   1.56687   1.56858   1.57589   1.58140
 Alpha virt. eigenvalues --    1.58230   1.59747   1.59786   1.60221   1.60781
 Alpha virt. eigenvalues --    1.61274   1.61689   1.62292   1.62509   1.63239
 Alpha virt. eigenvalues --    1.63350   1.63494   1.63756   1.64289   1.64512
 Alpha virt. eigenvalues --    1.64753   1.65263   1.65599   1.65828   1.66333
 Alpha virt. eigenvalues --    1.66530   1.66878   1.66966   1.67297   1.67384
 Alpha virt. eigenvalues --    1.67785   1.68128   1.68263   1.68894   1.69431
 Alpha virt. eigenvalues --    1.69510   1.69926   1.70037   1.70311   1.71097
 Alpha virt. eigenvalues --    1.71414   1.71658   1.71927   1.72405   1.72869
 Alpha virt. eigenvalues --    1.73019   1.73493   1.73695   1.74167   1.74614
 Alpha virt. eigenvalues --    1.74712   1.75069   1.75177   1.75727   1.75809
 Alpha virt. eigenvalues --    1.76075   1.76455   1.76742   1.76889   1.77364
 Alpha virt. eigenvalues --    1.77910   1.78282   1.78544   1.78722   1.78965
 Alpha virt. eigenvalues --    1.79103   1.79453   1.80048   1.80514   1.80672
 Alpha virt. eigenvalues --    1.81047   1.81426   1.81536   1.82020   1.82369
 Alpha virt. eigenvalues --    1.82740   1.82984   1.83123   1.83580   1.84243
 Alpha virt. eigenvalues --    1.84982   1.85046   1.85696   1.85832   1.85931
 Alpha virt. eigenvalues --    1.86204   1.86650   1.87049   1.87506   1.88029
 Alpha virt. eigenvalues --    1.88304   1.88707   1.89000   1.89564   1.89852
 Alpha virt. eigenvalues --    1.90144   1.90313   1.90711   1.91213   1.91396
 Alpha virt. eigenvalues --    1.91860   1.92297   1.92571   1.92870   1.93442
 Alpha virt. eigenvalues --    1.93758   1.94233   1.94473   1.94806   1.95170
 Alpha virt. eigenvalues --    1.95510   1.96269   1.96492   1.96658   1.97307
 Alpha virt. eigenvalues --    1.97773   1.98130   1.98397   1.98749   1.99195
 Alpha virt. eigenvalues --    1.99252   1.99993   2.00528   2.01223   2.01683
 Alpha virt. eigenvalues --    2.02240   2.02355   2.02674   2.03015   2.03467
 Alpha virt. eigenvalues --    2.03946   2.04454   2.04679   2.04799   2.05197
 Alpha virt. eigenvalues --    2.05433   2.05844   2.06423   2.06813   2.06848
 Alpha virt. eigenvalues --    2.07116   2.07458   2.08006   2.08092   2.08972
 Alpha virt. eigenvalues --    2.09102   2.09608   2.10098   2.10344   2.10605
 Alpha virt. eigenvalues --    2.11346   2.12153   2.12420   2.12946   2.13246
 Alpha virt. eigenvalues --    2.13374   2.13627   2.13854   2.13925   2.15039
 Alpha virt. eigenvalues --    2.15458   2.15981   2.16519   2.16886   2.17302
 Alpha virt. eigenvalues --    2.18005   2.18314   2.18596   2.19255   2.20451
 Alpha virt. eigenvalues --    2.20820   2.20928   2.21395   2.22227   2.22629
 Alpha virt. eigenvalues --    2.22967   2.23519   2.23840   2.24937   2.25670
 Alpha virt. eigenvalues --    2.26054   2.27015   2.27597   2.27660   2.27861
 Alpha virt. eigenvalues --    2.28966   2.29562   2.30746   2.31184   2.31705
 Alpha virt. eigenvalues --    2.32655   2.32909   2.33324   2.34349   2.34889
 Alpha virt. eigenvalues --    2.35884   2.36509   2.37085   2.38068   2.38883
 Alpha virt. eigenvalues --    2.39646   2.39896   2.40335   2.41273   2.41448
 Alpha virt. eigenvalues --    2.42418   2.42790   2.43185   2.43504   2.43963
 Alpha virt. eigenvalues --    2.44148   2.44407   2.44819   2.45745   2.45934
 Alpha virt. eigenvalues --    2.46983   2.48004   2.48459   2.49058   2.49570
 Alpha virt. eigenvalues --    2.50592   2.51730   2.52552   2.52873   2.53814
 Alpha virt. eigenvalues --    2.54237   2.55315   2.57391   2.57827   2.58362
 Alpha virt. eigenvalues --    2.59641   2.60354   2.60649   2.61214   2.62317
 Alpha virt. eigenvalues --    2.62636   2.63037   2.63390   2.64048   2.64252
 Alpha virt. eigenvalues --    2.64547   2.64897   2.65369   2.65480   2.65874
 Alpha virt. eigenvalues --    2.66096   2.66180   2.66500   2.66596   2.68179
 Alpha virt. eigenvalues --    2.68494   2.68710   2.69350   2.69859   2.70415
 Alpha virt. eigenvalues --    2.70880   2.71585   2.72230   2.72460   2.72753
 Alpha virt. eigenvalues --    2.73166   2.73734   2.74594   2.75330   2.75645
 Alpha virt. eigenvalues --    2.75749   2.76033   2.76491   2.76845   2.76968
 Alpha virt. eigenvalues --    2.77452   2.78139   2.78709   2.79279   2.80666
 Alpha virt. eigenvalues --    2.81166   2.81511   2.81760   2.82427   2.82949
 Alpha virt. eigenvalues --    2.83745   2.84083   2.84733   2.85598   2.86094
 Alpha virt. eigenvalues --    2.86288   2.86589   2.87404   2.87670   2.87872
 Alpha virt. eigenvalues --    2.88400   2.88773   2.89096   2.89379   2.89735
 Alpha virt. eigenvalues --    2.90105   2.90800   2.91276   2.91533   2.92075
 Alpha virt. eigenvalues --    2.92405   2.92816   2.93020   2.93397   2.94001
 Alpha virt. eigenvalues --    2.94430   2.94625   2.94859   2.95451   2.95774
 Alpha virt. eigenvalues --    2.96357   2.96603   2.97490   2.97772   2.98220
 Alpha virt. eigenvalues --    2.98579   2.98693   2.99191   2.99336   2.99582
 Alpha virt. eigenvalues --    3.00573   3.00947   3.01148   3.01638   3.02264
 Alpha virt. eigenvalues --    3.02953   3.03138   3.03701   3.04319   3.04553
 Alpha virt. eigenvalues --    3.04687   3.05055   3.05351   3.06204   3.06640
 Alpha virt. eigenvalues --    3.06828   3.07660   3.08041   3.08751   3.08830
 Alpha virt. eigenvalues --    3.10128   3.10727   3.10938   3.11020   3.11820
 Alpha virt. eigenvalues --    3.12215   3.12693   3.12884   3.14384   3.15454
 Alpha virt. eigenvalues --    3.15647   3.16235   3.16402   3.17450   3.17969
 Alpha virt. eigenvalues --    3.18275   3.19291   3.19633   3.19785   3.20373
 Alpha virt. eigenvalues --    3.21759   3.22966   3.23433   3.23550   3.24226
 Alpha virt. eigenvalues --    3.25189   3.25685   3.26188   3.26705   3.27107
 Alpha virt. eigenvalues --    3.27912   3.28637   3.29628   3.30448   3.31931
 Alpha virt. eigenvalues --    3.32427   3.32940   3.33828   3.34638   3.35006
 Alpha virt. eigenvalues --    3.36202   3.37165   3.37489   3.38729   3.40622
 Alpha virt. eigenvalues --    3.41831   3.42739   3.43509   3.44816   3.45313
 Alpha virt. eigenvalues --    3.45608   3.46690   3.47407   3.48375   3.49846
 Alpha virt. eigenvalues --    3.50692   3.52059   3.52340   3.53240   3.54832
 Alpha virt. eigenvalues --    3.55625   3.56445   3.64297   3.65133   3.65503
 Alpha virt. eigenvalues --    3.65815   3.66399   3.68271   3.70440   3.74334
 Alpha virt. eigenvalues --    3.74600   3.75328   3.76242   3.79021   3.79365
 Alpha virt. eigenvalues --    3.79955   3.81128   3.86951   3.88367   3.89114
 Alpha virt. eigenvalues --    3.89855   3.90549   3.92036   3.92612   3.93548
 Alpha virt. eigenvalues --    3.94643   3.94824   3.95175   3.95685   3.96516
 Alpha virt. eigenvalues --    3.97224   3.97754   3.99189   3.99893   4.00535
 Alpha virt. eigenvalues --    4.01225   4.02364   4.03001   4.11384   4.12552
 Alpha virt. eigenvalues --    4.12737   4.13422   4.13882   4.15592   4.15795
 Alpha virt. eigenvalues --    4.18400   4.19264   4.23802   4.24030   4.25728
 Alpha virt. eigenvalues --    4.26392   4.28676   4.28826   4.29345   4.30263
 Alpha virt. eigenvalues --    4.30823   4.31404   4.33062   4.34798   4.40376
 Alpha virt. eigenvalues --    4.40442   4.42994   4.45554   4.46940   4.47158
 Alpha virt. eigenvalues --    4.48042   4.50166   4.52595   4.74843   4.89237
 Alpha virt. eigenvalues --    4.95859   4.96125   5.01802   5.38077   5.38369
 Alpha virt. eigenvalues --    5.38720   5.39869   5.43793   5.47410   5.50065
 Alpha virt. eigenvalues --    5.51451   5.53515   5.56142   5.64296   5.67472
 Alpha virt. eigenvalues --    5.68901   5.72957   5.74416   5.77291   5.79570
 Alpha virt. eigenvalues --    5.88906   7.69422  14.38316  14.41304  14.51087
 Alpha virt. eigenvalues --   15.03288  23.79444  23.82996  23.92801  23.96639
 Alpha virt. eigenvalues --   24.00618  24.02248  24.03059  24.04617  24.05604
 Alpha virt. eigenvalues --   24.05717  24.10774  24.11855  24.12430  24.12709
 Alpha virt. eigenvalues --   24.13005  24.13468  24.13629  24.14784  24.15093
 Alpha virt. eigenvalues --   24.15824  24.16284  24.17395  24.18063  24.19891
 Alpha virt. eigenvalues --   24.21369  24.21979  24.22370  24.23646  24.24058
 Alpha virt. eigenvalues --   24.32876  24.33199  35.82569  50.14450  50.15035
 Alpha virt. eigenvalues --   50.17404  50.18432  50.19957  50.22689 163.94669
          Condensed to atoms (all electrons):
 Mulliken charges:
               1
     1  C   -0.755034
     2  C    0.589195
     3  H    0.230139
     4  C   -0.877070
     5  H    0.177964
     6  H    0.148690
     7  H    0.190144
     8  C   -0.577186
     9  H    0.154349
    10  H    0.074210
    11  H    0.233855
    12  B    0.715827
    13  C   -0.696480
    14  H    0.189319
    15  H    0.182717
    16  H    0.163979
    17  O    0.017023
    18  O    0.043202
    19  C   -0.403721
    20  C   -0.187918
    21  C   -0.804447
    22  H    0.206899
    23  H    0.205768
    24  H    0.202072
    25  C   -0.222824
    26  H    0.169949
    27  H    0.230856
    28  H    0.222087
    29  C   -0.298834
    30  H    0.117843
    31  H    0.242378
    32  H    0.195381
    33  C   -0.770019
    34  H    0.278561
    35  H    0.089978
    36  H    0.174303
    37  P   -0.295338
    38  O   -0.076342
    39  O   -0.092033
    40  N   -0.601524
    41  H    0.336433
    42  H    0.509188
    43  Li  -0.313701
    44  C   -0.023593
    45  O    0.057207
    46  C   -0.414251
    47  C   -0.327841
    48  C   -0.655621
    49  H    0.234122
    50  H    0.297981
    51  H    0.134715
    52  H    0.207439
    53  H    0.173588
    54  H    0.259680
    55  H    0.135991
    56  H    0.255883
    57  C    0.086689
    58  O    0.041850
    59  C   -0.010894
    60  C   -0.556370
    61  C   -0.572430
    62  H    0.121709
    63  H    0.248271
    64  H    0.229440
    65  H    0.084071
    66  H    0.258574
    67  H    0.184320
    68  H    0.243827
    69  H    0.210059
    70  C    0.268941
    71  C    0.118010
    72  C   -0.167314
    73  C   -0.492777
    74  H    0.211748
    75  C   -0.382763
    76  H    0.311386
    77  C   -0.635660
    78  H    0.278287
    79  H    0.278322
    80  H    0.253824
    81  C   -0.226886
    82  C   -0.199843
    83  C    0.033870
    84  C   -0.372306
    85  H    0.292622
    86  C   -0.400227
    87  H    0.300834
    88  C   -0.503448
    89  H    0.278371
    90  H    0.277619
    91  H    0.253138
 Sum of Mulliken charges =  -0.00000
 Mulliken charges with hydrogens summed into heavy atoms:
               1
     1  C   -0.755034
     2  C    0.819334
     4  C   -0.360272
     8  C   -0.114772
    12  B    0.715827
    13  C   -0.160466
    17  O    0.017023
    18  O    0.043202
    19  C   -0.403721
    20  C   -0.187918
    21  C   -0.189708
    25  C    0.400067
    29  C    0.256768
    33  C   -0.227176
    37  P   -0.295338
    38  O   -0.076342
    39  O   -0.092033
    40  N    0.244097
    43  Li  -0.313701
    44  C    0.508509
    45  O    0.057207
    46  C   -0.072097
    47  C    0.105427
    48  C   -0.263747
    57  C    0.456669
    58  O    0.041850
    59  C    0.302617
    60  C   -0.113476
    61  C   -0.118543
    70  C    0.268941
    71  C    0.329758
    72  C    0.144072
    73  C   -0.214489
    75  C   -0.104441
    77  C   -0.381836
    81  C   -0.226886
    82  C    0.092779
    83  C    0.334703
    84  C   -0.093935
    86  C   -0.122607
    88  C   -0.250310
 Electronic spatial extent (au):  <R**2>=          20405.6014
 Charge=             -0.0000 electrons
 Dipole moment (field-independent basis, Debye):
    X=             -3.2916    Y=              7.1209    Z=             -5.5490  Tot=              9.6090
 Quadrupole moment (field-independent basis, Debye-Ang):
   XX=           -242.4677   YY=           -234.3316   ZZ=           -235.7139
   XY=             -3.8658   XZ=              0.3689   YZ=              3.5091
 Traceless Quadrupole moment (field-independent basis, Debye-Ang):
   XX=             -4.9633   YY=              3.1727   ZZ=              1.7905
   XY=             -3.8658   XZ=              0.3689   YZ=              3.5091
 Octapole moment (field-independent basis, Debye-Ang**2):
  XXX=            -50.2860  YYY=             52.2429  ZZZ=            -74.9337  XYY=             23.2445
  XXY=            114.3587  XXZ=             13.8020  XZZ=             -6.6437  YZZ=             35.0016
  YYZ=             -9.9785  XYZ=              4.8819
 Hexadecapole moment (field-independent basis, Debye-Ang**3):
 XXXX=         -14362.1190 YYYY=          -7670.2776 ZZZZ=          -4780.2712 XXXY=            232.6799
 XXXZ=            234.1068 YYYX=            -36.4533 YYYZ=           -414.4116 ZZZX=            156.7894
 ZZZY=           -455.8330 XXYY=          -3639.2957 XXZZ=          -3152.8069 YYZZ=          -2064.3728
 XXYZ=            -69.7018 YYXZ=            -35.1827 ZZXY=              3.7000
 N-N= 5.691836605747D+03 E-N=-1.627876272919D+04  KE= 2.083185364522D+03
 Unable to Open any file for archive entry.
 1\1\GINC-NODE07\SP\RwB97XD\6-311++G(d,p)\C31H50B1Li1N1O6P1\WHUGHES2\08
 -Oct-2025\0\\# wb97xd/6-311++g** nosymm int=ultrafine scrf=(smd,solven
 t=tetrahydrofuran)\\syn-product-phos-full-c3_tzpop-sp\\0,1\C,0,-2.4585
 ,-2.1715,-0.0943\C,0,-1.9663,-3.016,1.117\H,0,-2.8667,-3.4405,1.581\C,
 0,-1.0349,-4.1735,0.7465\H,0,-1.4735,-4.8276,-0.0178\H,0,-0.0745,-3.80
 21,0.3703\H,0,-0.83,-4.7855,1.6337\C,0,-1.3333,-1.8522,-1.0862\H,0,-1.
 7022,-1.1925,-1.8793\H,0,-0.4836,-1.3489,-0.619\H,0,-0.956,-2.7615,-1.
 5712\B,0,-3.0372,-0.845,0.551\C,0,-3.5743,-2.918,-0.847\H,0,-4.4185,-3
 .16,-0.1915\H,0,-3.9626,-2.3128,-1.6771\H,0,-3.199,-3.8563,-1.2779\O,0
 ,-2.4716,0.4213,0.4422\O,0,-4.2656,-0.798,1.1593\C,0,-4.6563,0.5848,1.
 2937\C,0,-3.2827,1.3326,1.2466\C,0,-5.4261,0.7635,2.5931\H,0,-5.6532,1
 .8223,2.7616\H,0,-6.3739,0.2175,2.5377\H,0,-4.8643,0.3852,3.4507\C,0,-
 5.5583,0.9053,0.101\H,0,-5.0234,0.7923,-0.8486\H,0,-6.4032,0.2089,0.09
 84\H,0,-5.9532,1.9248,0.1588\C,0,-2.6071,1.4404,2.6106\H,0,-1.584,1.80
 22,2.4759\H,0,-3.1362,2.1502,3.2551\H,0,-2.56,0.4692,3.1111\C,0,-3.333
 1,2.6912,0.5662\H,0,-4.0283,3.3477,1.102\H,0,-2.3425,3.1528,0.588\H,0,
 -3.6614,2.6152,-0.4731\P,0,2.0003,-0.6527,0.5821\O,0,1.1185,0.298,-0.2
 263\O,0,1.4936,-1.1828,1.9067\N,0,-1.3891,-2.1072,2.119\H,0,-1.2632,-2
 .6062,2.998\H,0,-0.4485,-1.7975,1.8524\Li,0,-0.5814,1.0817,-0.1474\C,0
 ,0.8879,2.8034,1.815\O,0,-0.0727,2.8806,0.7452\C,0,0.3769,3.8641,-0.19
 06\C,0,1.8899,3.7206,-0.18\C,0,2.1655,3.4997,1.3132\H,0,0.4698,3.2991,
 2.6992\H,0,1.0378,1.7449,2.0391\H,0,-0.1011,3.6463,-1.1473\H,0,0.0661,
 4.864,0.1487\H,0,2.1779,2.8358,-0.7563\H,0,2.4019,4.5982,-0.5853\H,0,3
 .0566,2.8926,1.4902\H,0,2.3012,4.4604,1.8215\C,0,-2.2385,1.3915,-2.741
 1\O,0,-1.0092,1.5725,-2.0297\C,0,0.069,1.5015,-2.966\C,0,-0.3668,0.433
 4,-3.9586\C,0,-1.8847,0.6697,-4.0575\H,0,-2.9026,0.8162,-2.092\H,0,-2.
 6914,2.3736,-2.9262\H,0,0.1938,2.4787,-3.4565\H,0,0.9668,1.2546,-2.396
 5\H,0,0.1409,0.5282,-4.9226\H,0,-0.1543,-0.5598,-3.5505\H,0,-2.1248,1.
 3041,-4.916\H,0,-2.4384,-0.2669,-4.1675\C,0,2.4075,-2.0549,-0.5221\C,0
 ,2.1958,-1.9574,-1.9005\C,0,2.922,-3.2453,0.0028\C,0,2.4884,-3.0296,-2
 .7423\H,0,1.7806,-1.0395,-2.3076\C,0,3.218,-4.3191,-0.8352\H,0,3.0787,
 -3.3355,1.0749\C,0,3.0003,-4.2128,-2.2097\H,0,2.3118,-2.944,-3.8117\H,
 0,3.6121,-5.2413,-0.4161\H,0,3.2267,-5.0515,-2.863\C,0,3.5971,0.1992,0
 .852\C,0,4.2569,0.8286,-0.21\C,0,4.152,0.2677,2.132\C,0,5.4441,1.5236,
 0.0053\H,0,3.8354,0.7826,-1.2117\C,0,5.3402,0.9659,2.3529\H,0,3.6399,-
 0.2202,2.9572\C,0,5.9858,1.5966,1.2905\H,0,5.946,2.0122,-0.8259\H,0,5.
 7597,1.0188,3.3543\H,0,6.9104,2.1422,1.4609\\Version=AS64L-G16RevC.01\
 HF=-2091.5348431\RMSD=7.305e-09\Dipole=-1.2950168,2.8015704,-2.1831468
 \Quadrupole=-3.690068,2.3588546,1.3312134,-2.8741498,0.2742948,2.60890
 29\PG=C01 [X(C31H50B1Li1N1O6P1)]\\@
 The archive entry for this job was punched.


 Ideas are like rabbits. You get a couple and learn
 how to handle them, and pretty soon you have a dozen.
                                    -- John Steinbeck
 Job cpu time:       0 days  8 hours 37 minutes 30.2 seconds.
 Elapsed time:       0 days  2 hours 10 minutes 29.3 seconds.
 File lengths (MBytes):  RWF=   1334 Int=      0 D2E=      0 Chk=     95 Scr=      1
 Normal termination of Gaussian 16 at Wed Oct  8 19:16:44 2025.
