Job Start Time: Wed Oct  8 17:18:51 MDT 2025
SLURM Job ID: 768217
SLURM Job Name: syn-product-phos-full-c9_tzpop-sp
 Entering Gaussian System, Link 0=/opt/apps/Gaussian/G16C/g16/g16
 Initial command:
 /opt/apps/Gaussian/G16C/g16/l1.exe "/tmp/768217/Gau-2210760.inp" -scrdir="/tmp/768217/"
 Entering Link 1 = /opt/apps/Gaussian/G16C/g16/l1.exe PID=   2210761.
  
 Copyright (c) 1988-2019, Gaussian, Inc.  All Rights Reserved.
  
 This is part of the Gaussian(R) 16 program.  It is based on
 the Gaussian(R) 09 system (copyright 2009, Gaussian, Inc.),
 the Gaussian(R) 03 system (copyright 2003, Gaussian, Inc.),
 the Gaussian(R) 98 system (copyright 1998, Gaussian, Inc.),
 the Gaussian(R) 94 system (copyright 1995, Gaussian, Inc.),
 the Gaussian 92(TM) system (copyright 1992, Gaussian, Inc.),
 the Gaussian 90(TM) system (copyright 1990, Gaussian, Inc.),
 the Gaussian 88(TM) system (copyright 1988, Gaussian, Inc.),
 the Gaussian 86(TM) system (copyright 1986, Carnegie Mellon
 University), and the Gaussian 82(TM) system (copyright 1983,
 Carnegie Mellon University). Gaussian is a federally registered
 trademark of Gaussian, Inc.
  
 This software contains proprietary and confidential information,
 including trade secrets, belonging to Gaussian, Inc.
  
 This software is provided under written license and may be
 used, copied, transmitted, or stored only in accord with that
 written license.
  
 The following legend is applicable only to US Government
 contracts under FAR:
  
                    RESTRICTED RIGHTS LEGEND
  
 Use, reproduction and disclosure by the US Government is
 subject to restrictions as set forth in subparagraphs (a)
 and (c) of the Commercial Computer Software - Restricted
 Rights clause in FAR 52.227-19.
  
 Gaussian, Inc.
 340 Quinnipiac St., Bldg. 40, Wallingford CT 06492
  
  
 ---------------------------------------------------------------
 Warning -- This program may not be used in any manner that
 competes with the business of Gaussian, Inc. or will provide
 assistance to any competitor of Gaussian, Inc.  The licensee
 of this program is prohibited from giving any competitor of
 Gaussian, Inc. access to this program.  By using this program,
 the user acknowledges that Gaussian, Inc. is engaged in the
 business of creating and licensing software in the field of
 computational chemistry and represents and warrants to the
 licensee that it is not a competitor of Gaussian, Inc. and that
 it will not use this program in any manner prohibited above.
 ---------------------------------------------------------------
  

 Cite this work as:
 Gaussian 16, Revision C.01,
 M. J. Frisch, G. W. Trucks, H. B. Schlegel, G. E. Scuseria, 
 M. A. Robb, J. R. Cheeseman, G. Scalmani, V. Barone, 
 G. A. Petersson, H. Nakatsuji, X. Li, M. Caricato, A. V. Marenich, 
 J. Bloino, B. G. Janesko, R. Gomperts, B. Mennucci, H. P. Hratchian, 
 J. V. Ortiz, A. F. Izmaylov, J. L. Sonnenberg, D. Williams-Young, 
 F. Ding, F. Lipparini, F. Egidi, J. Goings, B. Peng, A. Petrone, 
 T. Henderson, D. Ranasinghe, V. G. Zakrzewski, J. Gao, N. Rega, 
 G. Zheng, W. Liang, M. Hada, M. Ehara, K. Toyota, R. Fukuda, 
 J. Hasegawa, M. Ishida, T. Nakajima, Y. Honda, O. Kitao, H. Nakai, 
 T. Vreven, K. Throssell, J. A. Montgomery, Jr., J. E. Peralta, 
 F. Ogliaro, M. J. Bearpark, J. J. Heyd, E. N. Brothers, K. N. Kudin, 
 V. N. Staroverov, T. A. Keith, R. Kobayashi, J. Normand, 
 K. Raghavachari, A. P. Rendell, J. C. Burant, S. S. Iyengar, 
 J. Tomasi, M. Cossi, J. M. Millam, M. Klene, C. Adamo, R. Cammi, 
 J. W. Ochterski, R. L. Martin, K. Morokuma, O. Farkas, 
 J. B. Foresman, and D. J. Fox, Gaussian, Inc., Wallingford CT, 2019.
 
 ******************************************
 Gaussian 16:  AS64L-G16RevC.01  3-Jul-2019
                 8-Oct-2025 
 ******************************************
 %chk=syn-product-phos-full-c9_tzpop-sp.chk
 %nprocshared=4
 Will use up to    4 processors via shared memory.
 %mem=8GB
 ----------------------------------------------------------------------
 # wb97xd/6-311++g** nosymm int=ultrafine scrf=(smd,solvent=tetrahydrof
 uran)
 ----------------------------------------------------------------------
 1/38=1,172=1/1;
 2/12=2,15=1,17=6,18=5,40=1/2;
 3/5=4,6=6,7=1111,11=2,25=1,30=1,70=32201,72=20,74=-58,75=-5/1,2,3;
 4//1;
 5/5=2,38=5,53=20/2;
 6/7=2,8=2,9=2,10=2,28=1/1;
 99/5=1,9=1/99;
 ---------------------------------
 syn-product-phos-full-c9_tzpop-sp
 ---------------------------------
 Symbolic Z-matrix:
 Charge =  0 Multiplicity = 1
 C                    -2.7771    0.6343    2.3912 
 C                    -3.8282    0.313     3.4937 
 H                    -3.9939    1.2678    4.027 
 C                    -5.1758   -0.1382    2.9308 
 H                    -5.0817   -1.1186    2.4507 
 H                    -5.9171   -0.2251    3.7351 
 H                    -5.5697    0.5751    2.1999 
 C                    -3.177     1.9596    1.7102 
 H                    -4.1246    1.8828    1.165 
 H                    -3.2829    2.7578    2.4586 
 H                    -2.4118    2.2869    1.0002 
 B                    -2.6255   -0.4965    1.2901 
 C                    -1.3844    0.8339    3.0306 
 H                    -1.4245    1.6085    3.8108 
 H                    -0.9934   -0.0869    3.4769 
 H                    -0.6575    1.1645    2.2825 
 O                    -2.2895   -0.1894   -0.0232 
 O                    -2.7716   -1.84      1.4749 
 C                    -2.3327   -2.5124    0.2681 
 C                    -2.5176   -1.4008   -0.8107 
 C                    -3.1901   -3.7491    0.0551 
 H                    -2.9888   -4.4777    0.8474 
 H                    -4.2575   -3.5128    0.0723 
 H                    -2.9496   -4.2176   -0.906 
 C                    -0.8694   -2.8987    0.4713 
 H                    -0.2355   -2.0128    0.5811 
 H                    -0.7833   -3.5117    1.3749 
 H                    -0.4951   -3.4835   -0.3757 
 C                    -3.947    -1.3036   -1.34 
 H                    -4.0525   -0.3773   -1.9135 
 H                    -4.1786   -2.145    -2.0013 
 H                    -4.6821   -1.2867   -0.5278 
 C                    -1.5293   -1.4831   -1.9607 
 H                    -1.5642   -2.4848   -2.4038 
 H                    -1.7864   -0.7595   -2.7384 
 H                    -0.5103   -1.2859   -1.6233 
 P                     2.2488   -0.2157   -0.7124 
 O                     0.888     0.0068   -0.0452 
 O                     2.6001    0.5729   -1.9534 
 N                    -3.3584   -0.7174    4.4307 
 H                    -2.5891   -0.3595    4.9914 
 H                    -4.1051   -0.9261    5.0907 
 Li                   -0.6034    1.0328   -0.4399 
 C                    -0.2349    4.0723   -0.3496 
 O                    -0.1591    2.8571    0.393 
 C                     1.0386    2.9597    1.1691 
 C                     2.0639    3.6434    0.2539 
 C                     1.1951    4.3225   -0.8317 
 H                    -0.9624    3.9333   -1.1495 
 H                    -0.5802    4.8769    0.3167 
 H                     0.8268    3.5637    2.063 
 H                     1.321     1.9511    1.4679 
 H                     2.6714    4.3611    0.8127 
 H                     2.7335    2.9041   -0.1933 
 H                     1.4039    5.3908   -0.9395 
 H                     1.3553    3.8443   -1.8022 
 C                    -2.3859    2.093    -2.6866 
 O                    -1.1136    1.6531   -2.223 
 C                    -0.235     1.6889   -3.3485 
 C                    -0.6022    2.9826   -4.0782 
 C                    -2.0886    3.2057   -3.7058 
 H                    -2.9061    1.2501   -3.1638 
 H                    -2.9642    2.4162   -1.8176 
 H                     0.7882    1.6283   -2.9707 
 H                    -0.4314    0.8085   -3.9798 
 H                     0.0143    3.8114   -3.7177 
 H                    -0.447     2.8928   -5.1569 
 H                    -2.2377    4.1947   -3.263 
 H                    -2.7504    3.1258   -4.5726 
 C                     3.5154    0.0549    0.5809 
 C                     4.8349    0.3485    0.2206 
 C                     3.1855   -0.0269    1.9382 
 C                     5.8072    0.5573    1.1977 
 H                     5.0974    0.4224   -0.8318 
 C                     4.1551    0.1813    2.9184 
 H                     2.1607   -0.2497    2.225 
 C                     5.4679    0.474     2.5486 
 H                     6.8284    0.7887    0.9059 
 H                     3.8861    0.1169    3.9697 
 H                     6.2249    0.6378    3.3112 
 C                     2.346    -2.009    -1.0958 
 C                     2.0731   -2.4377   -2.3991 
 C                     2.5939   -2.9696   -0.109 
 C                     2.0319   -3.7969   -2.7078 
 H                     1.8921   -1.6985   -3.1756 
 C                     2.5624   -4.3289   -0.4151 
 H                     2.8092   -2.6601    0.9111 
 C                     2.2757   -4.746    -1.715 
 H                     1.8149   -4.115    -3.7245 
 H                     2.7575   -5.063     0.3626 
 H                     2.2479   -5.806    -1.954 
 
 Symmetry turned off by external request.
 Stoichiometry    C31H50BLiNO6P
 Framework group  C1[X(C31H50BLiNO6P)]
 Deg. of freedom   267
 Full point group                 C1      NOp   1
                          Input orientation:                          
 ---------------------------------------------------------------------
 Center     Atomic      Atomic             Coordinates (Angstroms)
 Number     Number       Type             X           Y           Z
 ---------------------------------------------------------------------
      1          6           0       -2.777100    0.634300    2.391200
      2          6           0       -3.828200    0.313000    3.493700
      3          1           0       -3.993900    1.267800    4.027000
      4          6           0       -5.175800   -0.138200    2.930800
      5          1           0       -5.081700   -1.118600    2.450700
      6          1           0       -5.917100   -0.225100    3.735100
      7          1           0       -5.569700    0.575100    2.199900
      8          6           0       -3.177000    1.959600    1.710200
      9          1           0       -4.124600    1.882800    1.165000
     10          1           0       -3.282900    2.757800    2.458600
     11          1           0       -2.411800    2.286900    1.000200
     12          5           0       -2.625500   -0.496500    1.290100
     13          6           0       -1.384400    0.833900    3.030600
     14          1           0       -1.424500    1.608500    3.810800
     15          1           0       -0.993400   -0.086900    3.476900
     16          1           0       -0.657500    1.164500    2.282500
     17          8           0       -2.289500   -0.189400   -0.023200
     18          8           0       -2.771600   -1.840000    1.474900
     19          6           0       -2.332700   -2.512400    0.268100
     20          6           0       -2.517600   -1.400800   -0.810700
     21          6           0       -3.190100   -3.749100    0.055100
     22          1           0       -2.988800   -4.477700    0.847400
     23          1           0       -4.257500   -3.512800    0.072300
     24          1           0       -2.949600   -4.217600   -0.906000
     25          6           0       -0.869400   -2.898700    0.471300
     26          1           0       -0.235500   -2.012800    0.581100
     27          1           0       -0.783300   -3.511700    1.374900
     28          1           0       -0.495100   -3.483500   -0.375700
     29          6           0       -3.947000   -1.303600   -1.340000
     30          1           0       -4.052500   -0.377300   -1.913500
     31          1           0       -4.178600   -2.145000   -2.001300
     32          1           0       -4.682100   -1.286700   -0.527800
     33          6           0       -1.529300   -1.483100   -1.960700
     34          1           0       -1.564200   -2.484800   -2.403800
     35          1           0       -1.786400   -0.759500   -2.738400
     36          1           0       -0.510300   -1.285900   -1.623300
     37         15           0        2.248800   -0.215700   -0.712400
     38          8           0        0.888000    0.006800   -0.045200
     39          8           0        2.600100    0.572900   -1.953400
     40          7           0       -3.358400   -0.717400    4.430700
     41          1           0       -2.589100   -0.359500    4.991400
     42          1           0       -4.105100   -0.926100    5.090700
     43          3           0       -0.603400    1.032800   -0.439900
     44          6           0       -0.234900    4.072300   -0.349600
     45          8           0       -0.159100    2.857100    0.393000
     46          6           0        1.038600    2.959700    1.169100
     47          6           0        2.063900    3.643400    0.253900
     48          6           0        1.195100    4.322500   -0.831700
     49          1           0       -0.962400    3.933300   -1.149500
     50          1           0       -0.580200    4.876900    0.316700
     51          1           0        0.826800    3.563700    2.063000
     52          1           0        1.321000    1.951100    1.467900
     53          1           0        2.671400    4.361100    0.812700
     54          1           0        2.733500    2.904100   -0.193300
     55          1           0        1.403900    5.390800   -0.939500
     56          1           0        1.355300    3.844300   -1.802200
     57          6           0       -2.385900    2.093000   -2.686600
     58          8           0       -1.113600    1.653100   -2.223000
     59          6           0       -0.235000    1.688900   -3.348500
     60          6           0       -0.602200    2.982600   -4.078200
     61          6           0       -2.088600    3.205700   -3.705800
     62          1           0       -2.906100    1.250100   -3.163800
     63          1           0       -2.964200    2.416200   -1.817600
     64          1           0        0.788200    1.628300   -2.970700
     65          1           0       -0.431400    0.808500   -3.979800
     66          1           0        0.014300    3.811400   -3.717700
     67          1           0       -0.447000    2.892800   -5.156900
     68          1           0       -2.237700    4.194700   -3.263000
     69          1           0       -2.750400    3.125800   -4.572600
     70          6           0        3.515400    0.054900    0.580900
     71          6           0        4.834900    0.348500    0.220600
     72          6           0        3.185500   -0.026900    1.938200
     73          6           0        5.807200    0.557300    1.197700
     74          1           0        5.097400    0.422400   -0.831800
     75          6           0        4.155100    0.181300    2.918400
     76          1           0        2.160700   -0.249700    2.225000
     77          6           0        5.467900    0.474000    2.548600
     78          1           0        6.828400    0.788700    0.905900
     79          1           0        3.886100    0.116900    3.969700
     80          1           0        6.224900    0.637800    3.311200
     81          6           0        2.346000   -2.009000   -1.095800
     82          6           0        2.073100   -2.437700   -2.399100
     83          6           0        2.593900   -2.969600   -0.109000
     84          6           0        2.031900   -3.796900   -2.707800
     85          1           0        1.892100   -1.698500   -3.175600
     86          6           0        2.562400   -4.328900   -0.415100
     87          1           0        2.809200   -2.660100    0.911100
     88          6           0        2.275700   -4.746000   -1.715000
     89          1           0        1.814900   -4.115000   -3.724500
     90          1           0        2.757500   -5.063000    0.362600
     91          1           0        2.247900   -5.806000   -1.954000
 ---------------------------------------------------------------------
 Rotational constants (GHZ):           0.0932562           0.0722596           0.0659263
 Standard basis: 6-311++G(d,p) (5D, 7F)
  1260 basis functions,  1940 primitive gaussians,  1301 cartesian basis functions
   157 alpha electrons      157 beta electrons
       nuclear repulsion energy      5652.6706716084 Hartrees.
 NAtoms=   91 NActive=   91 NUniq=   91 SFac= 1.00D+00 NAtFMM=   60 NAOKFM=T Big=T
 Integral buffers will be    131072 words long.
 Raffenetti 2 integral format.
 Two-electron integral symmetry is turned off.
 Nuclear repulsion after empirical dispersion term =     5652.5580743522 Hartrees.
 ------------------------------------------------------------------------------
 Polarizable Continuum Model (PCM)
 =================================
 Model                : PCM.
 Atomic radii         : SMD-Coulomb.
 Polarization charges : Total charges.
 Charge compensation  : None.
 Solution method      : On-the-fly selection.
 Cavity type          : VdW (van der Waals Surface) (Alpha=1.000).
 Cavity algorithm     : GePol (No added spheres)
                        Default sphere list used, NSphG=   91.
                        Lebedev-Laikov grids with approx.  5.0 points / Ang**2.
                        Smoothing algorithm: York/Karplus (Gamma=1.0000).
                        Polarization charges: spherical gaussians, with
                                              point-specific exponents (IZeta= 3).
                        Self-potential: point-specific (ISelfS= 7).
                        Self-field    : sphere-specific E.n sum rule (ISelfD= 2).
 Solvent              : TetraHydroFuran, Eps=   7.425700 Eps(inf)=   1.974025
 ------------------------------------------------------------------------------
 ------------------------------------------------------------------------------
 Atomic radii for non-electrostatic terms: SMD-CDS.
 ------------------------------------------------------------------------------
 Nuclear repulsion after PCM non-electrostatic terms =     5652.5488225928 Hartrees.
 One-electron integrals computed using PRISM.
 NBasis=  1260 RedAO= T EigKep=  1.00D-06  NBF=  1260
 NBsUse=  1252 1.00D-06 EigRej=  9.51D-07 NBFU=  1252
 ExpMin= 7.40D-03 ExpMax= 7.75D+04 ExpMxC= 2.65D+03 IAcc=3 IRadAn=         5 AccDes= 0.00D+00
 Harris functional with IExCor= 4639 and IRadAn=       5 diagonalized for initial guess.
 HarFok:  IExCor= 4639 AccDes= 0.00D+00 IRadAn=         5 IDoV= 1 UseB2=F ITyADJ=14
 ICtDFT=  3500011 ScaDFX=  1.000000  1.000000  1.000000  1.000000
 FoFCou: FMM=F IPFlag=           0 FMFlag=      100000 FMFlg1=        2001
         NFxFlg=           0 DoJE=T BraDBF=F KetDBF=T FulRan=T
         wScrn=  0.000000 ICntrl=       500 IOpCl=  0 I1Cent=   200000004 NGrid=           0
         NMat0=    1 NMatS0=      1 NMatT0=    0 NMatD0=    1 NMtDS0=    0 NMtDT0=    0
 Symmetry not used in FoFCou.
 Requested convergence on RMS density matrix=1.00D-08 within 128 cycles.
 Requested convergence on MAX density matrix=1.00D-06.
 Requested convergence on             energy=1.00D-06.
 No special actions if energy rises.
 Inv3:  Mode=1 IEnd=    92840907.
 Iteration    1 A*A^-1 deviation from unit magnitude is 3.70D-14 for   5554.
 Iteration    1 A*A^-1 deviation from orthogonality  is 5.97D-15 for   5554   4541.
 Iteration    1 A^-1*A deviation from unit magnitude is 3.70D-14 for   5554.
 Iteration    1 A^-1*A deviation from orthogonality  is 4.29D-15 for   3005   2964.
 Error on total polarization charges =  0.07574
 SCF Done:  E(RwB97XD) =  -2091.52335781     A.U. after   17 cycles
            NFock= 17  Conv=0.20D-08     -V/T= 2.0040
 SMD-CDS (non-electrostatic) energy       (kcal/mol) =      -5.81
 (included in total energy above)

 **********************************************************************

            Population analysis using the SCF Density.

 **********************************************************************

 Alpha  occ. eigenvalues --  -77.26033 -19.26062 -19.25793 -19.25624 -19.24558
 Alpha  occ. eigenvalues --  -19.17554 -19.16483 -14.39894 -10.34654 -10.34095
 Alpha  occ. eigenvalues --  -10.32717 -10.32198 -10.31734 -10.31667 -10.30329
 Alpha  occ. eigenvalues --  -10.28782 -10.28652 -10.28614 -10.28607 -10.28561
 Alpha  occ. eigenvalues --  -10.28540 -10.28523 -10.28493 -10.28430 -10.28427
 Alpha  occ. eigenvalues --  -10.28165 -10.28133 -10.27867 -10.27603 -10.27325
 Alpha  occ. eigenvalues --  -10.26996 -10.26981 -10.26794 -10.26565 -10.26363
 Alpha  occ. eigenvalues --  -10.26256 -10.25982 -10.25952 -10.25511  -6.87179
 Alpha  occ. eigenvalues --   -6.70341  -4.85056  -4.85044  -4.85016  -1.99750
 Alpha  occ. eigenvalues --   -1.16763  -1.15438  -1.14913  -1.09543  -1.06535
 Alpha  occ. eigenvalues --   -1.00384  -0.97979  -0.95530  -0.95343  -0.90677
 Alpha  occ. eigenvalues --   -0.88044  -0.87685  -0.87201  -0.85001  -0.84484
 Alpha  occ. eigenvalues --   -0.84326  -0.84206  -0.83927  -0.83535  -0.83137
 Alpha  occ. eigenvalues --   -0.81502  -0.79729  -0.76879  -0.76777  -0.71493
 Alpha  occ. eigenvalues --   -0.71227  -0.70489  -0.69590  -0.69302  -0.69200
 Alpha  occ. eigenvalues --   -0.68933  -0.68664  -0.68413  -0.67822  -0.65151
 Alpha  occ. eigenvalues --   -0.64431  -0.63347  -0.61367  -0.60698  -0.60322
 Alpha  occ. eigenvalues --   -0.58705  -0.58074  -0.57905  -0.57592  -0.57149
 Alpha  occ. eigenvalues --   -0.55759  -0.55523  -0.54975  -0.54111  -0.53965
 Alpha  occ. eigenvalues --   -0.53658  -0.53493  -0.53338  -0.53154  -0.52975
 Alpha  occ. eigenvalues --   -0.52436  -0.52150  -0.50837  -0.50630  -0.50295
 Alpha  occ. eigenvalues --   -0.50170  -0.50056  -0.49918  -0.48970  -0.48574
 Alpha  occ. eigenvalues --   -0.48225  -0.47888  -0.47810  -0.47753  -0.47571
 Alpha  occ. eigenvalues --   -0.46995  -0.46312  -0.46144  -0.45658  -0.45427
 Alpha  occ. eigenvalues --   -0.45093  -0.44861  -0.44755  -0.44430  -0.44097
 Alpha  occ. eigenvalues --   -0.43946  -0.43523  -0.43303  -0.43227  -0.42896
 Alpha  occ. eigenvalues --   -0.42677  -0.42587  -0.42426  -0.42229  -0.41866
 Alpha  occ. eigenvalues --   -0.41737  -0.41608  -0.41237  -0.41140  -0.40261
 Alpha  occ. eigenvalues --   -0.39792  -0.39656  -0.38872  -0.38624  -0.37424
 Alpha  occ. eigenvalues --   -0.36742  -0.35750  -0.35338  -0.35300  -0.34803
 Alpha  occ. eigenvalues --   -0.33803  -0.33340  -0.32945  -0.32754  -0.32188
 Alpha  occ. eigenvalues --   -0.31423  -0.31362
 Alpha virt. eigenvalues --    0.02266   0.02468   0.02628   0.02745   0.03948
 Alpha virt. eigenvalues --    0.05189   0.05369   0.05414   0.05589   0.05741
 Alpha virt. eigenvalues --    0.05897   0.06024   0.06139   0.06796   0.06954
 Alpha virt. eigenvalues --    0.07083   0.07130   0.07277   0.07450   0.07492
 Alpha virt. eigenvalues --    0.07641   0.07744   0.08035   0.08227   0.08514
 Alpha virt. eigenvalues --    0.08785   0.08924   0.09143   0.09551   0.09754
 Alpha virt. eigenvalues --    0.09942   0.10149   0.10404   0.10564   0.10817
 Alpha virt. eigenvalues --    0.11095   0.11539   0.11620   0.11877   0.12080
 Alpha virt. eigenvalues --    0.12275   0.12465   0.12709   0.12929   0.13189
 Alpha virt. eigenvalues --    0.13316   0.13553   0.13850   0.14043   0.14183
 Alpha virt. eigenvalues --    0.14500   0.14629   0.14888   0.15228   0.15350
 Alpha virt. eigenvalues --    0.15454   0.15652   0.15724   0.15919   0.16084
 Alpha virt. eigenvalues --    0.16273   0.16336   0.16658   0.16792   0.16946
 Alpha virt. eigenvalues --    0.17036   0.17176   0.17375   0.17463   0.17696
 Alpha virt. eigenvalues --    0.17843   0.17907   0.18112   0.18205   0.18412
 Alpha virt. eigenvalues --    0.18485   0.18637   0.18724   0.18788   0.18949
 Alpha virt. eigenvalues --    0.19037   0.19298   0.19381   0.19513   0.19654
 Alpha virt. eigenvalues --    0.19791   0.20118   0.20139   0.20277   0.20346
 Alpha virt. eigenvalues --    0.20499   0.20569   0.20638   0.20855   0.21102
 Alpha virt. eigenvalues --    0.21186   0.21310   0.21413   0.21468   0.21676
 Alpha virt. eigenvalues --    0.21830   0.21950   0.22078   0.22177   0.22290
 Alpha virt. eigenvalues --    0.22325   0.22538   0.22665   0.22718   0.22918
 Alpha virt. eigenvalues --    0.22974   0.23107   0.23189   0.23264   0.23437
 Alpha virt. eigenvalues --    0.23634   0.23696   0.23809   0.23925   0.24003
 Alpha virt. eigenvalues --    0.24186   0.24325   0.24407   0.24606   0.24696
 Alpha virt. eigenvalues --    0.24867   0.25071   0.25217   0.25385   0.25552
 Alpha virt. eigenvalues --    0.25637   0.25696   0.25821   0.25976   0.26203
 Alpha virt. eigenvalues --    0.26297   0.26461   0.26571   0.26766   0.26936
 Alpha virt. eigenvalues --    0.27012   0.27085   0.27273   0.27331   0.27566
 Alpha virt. eigenvalues --    0.27743   0.27870   0.27957   0.28185   0.28366
 Alpha virt. eigenvalues --    0.28417   0.28703   0.28854   0.28982   0.29127
 Alpha virt. eigenvalues --    0.29208   0.29298   0.29599   0.29695   0.29798
 Alpha virt. eigenvalues --    0.29888   0.30158   0.30259   0.30608   0.30727
 Alpha virt. eigenvalues --    0.30883   0.31070   0.31161   0.31277   0.31448
 Alpha virt. eigenvalues --    0.31549   0.31715   0.31911   0.32157   0.32247
 Alpha virt. eigenvalues --    0.32313   0.32551   0.32575   0.32883   0.32936
 Alpha virt. eigenvalues --    0.33069   0.33403   0.33493   0.33648   0.33859
 Alpha virt. eigenvalues --    0.34206   0.34252   0.34301   0.34449   0.34650
 Alpha virt. eigenvalues --    0.34747   0.35058   0.35175   0.35257   0.35309
 Alpha virt. eigenvalues --    0.35560   0.35741   0.35888   0.35975   0.36139
 Alpha virt. eigenvalues --    0.36452   0.36615   0.36696   0.36792   0.37106
 Alpha virt. eigenvalues --    0.37186   0.37356   0.37491   0.37523   0.37687
 Alpha virt. eigenvalues --    0.37877   0.38101   0.38154   0.38506   0.38695
 Alpha virt. eigenvalues --    0.39014   0.39088   0.39131   0.39242   0.39343
 Alpha virt. eigenvalues --    0.39519   0.39758   0.40103   0.40148   0.40344
 Alpha virt. eigenvalues --    0.40487   0.40580   0.40690   0.40811   0.41065
 Alpha virt. eigenvalues --    0.41202   0.41396   0.41491   0.41685   0.41857
 Alpha virt. eigenvalues --    0.42037   0.42085   0.42387   0.42795   0.42927
 Alpha virt. eigenvalues --    0.43062   0.43176   0.43505   0.43619   0.43782
 Alpha virt. eigenvalues --    0.43998   0.44188   0.44349   0.44756   0.44924
 Alpha virt. eigenvalues --    0.45089   0.45174   0.45309   0.45449   0.45484
 Alpha virt. eigenvalues --    0.45752   0.45925   0.46053   0.46157   0.46654
 Alpha virt. eigenvalues --    0.46897   0.47002   0.47196   0.47538   0.47939
 Alpha virt. eigenvalues --    0.48037   0.48354   0.48566   0.48749   0.49005
 Alpha virt. eigenvalues --    0.49458   0.49821   0.50107   0.50285   0.50434
 Alpha virt. eigenvalues --    0.50677   0.51028   0.51436   0.51644   0.51825
 Alpha virt. eigenvalues --    0.52265   0.52675   0.52896   0.53231   0.53721
 Alpha virt. eigenvalues --    0.54144   0.54445   0.54734   0.55061   0.55309
 Alpha virt. eigenvalues --    0.55617   0.55796   0.56352   0.57086   0.57253
 Alpha virt. eigenvalues --    0.57557   0.57776   0.58129   0.58375   0.58690
 Alpha virt. eigenvalues --    0.59261   0.59500   0.59888   0.60225   0.60476
 Alpha virt. eigenvalues --    0.60947   0.61129   0.61896   0.62182   0.62276
 Alpha virt. eigenvalues --    0.62613   0.62824   0.63238   0.63514   0.63947
 Alpha virt. eigenvalues --    0.64082   0.64495   0.64745   0.65392   0.65630
 Alpha virt. eigenvalues --    0.65732   0.65962   0.66128   0.66247   0.66773
 Alpha virt. eigenvalues --    0.67131   0.67611   0.67865   0.68049   0.68434
 Alpha virt. eigenvalues --    0.68562   0.68832   0.68933   0.69246   0.69425
 Alpha virt. eigenvalues --    0.69510   0.69782   0.70006   0.70211   0.70770
 Alpha virt. eigenvalues --    0.71210   0.71645   0.71814   0.72078   0.72168
 Alpha virt. eigenvalues --    0.72580   0.72920   0.73498   0.73544   0.73831
 Alpha virt. eigenvalues --    0.74033   0.74200   0.74573   0.74916   0.75150
 Alpha virt. eigenvalues --    0.75565   0.75624   0.75927   0.76219   0.76321
 Alpha virt. eigenvalues --    0.76651   0.76981   0.77219   0.77365   0.77820
 Alpha virt. eigenvalues --    0.78027   0.78190   0.78659   0.78755   0.78857
 Alpha virt. eigenvalues --    0.79438   0.79854   0.79927   0.80320   0.80691
 Alpha virt. eigenvalues --    0.80785   0.80836   0.81185   0.81312   0.81767
 Alpha virt. eigenvalues --    0.82082   0.82214   0.82274   0.82656   0.82938
 Alpha virt. eigenvalues --    0.83218   0.83538   0.83607   0.83833   0.83926
 Alpha virt. eigenvalues --    0.84038   0.84230   0.84455   0.84694   0.84897
 Alpha virt. eigenvalues --    0.85159   0.85397   0.85719   0.85854   0.85896
 Alpha virt. eigenvalues --    0.86133   0.86416   0.86983   0.87411   0.87541
 Alpha virt. eigenvalues --    0.87611   0.87964   0.88238   0.88476   0.88766
 Alpha virt. eigenvalues --    0.88832   0.89035   0.89119   0.89388   0.89594
 Alpha virt. eigenvalues --    0.89825   0.90027   0.90276   0.90578   0.90861
 Alpha virt. eigenvalues --    0.91407   0.91749   0.91998   0.92125   0.92511
 Alpha virt. eigenvalues --    0.92595   0.92745   0.93280   0.93448   0.93597
 Alpha virt. eigenvalues --    0.93880   0.94129   0.94532   0.94929   0.95077
 Alpha virt. eigenvalues --    0.95297   0.95438   0.95977   0.96346   0.96444
 Alpha virt. eigenvalues --    0.96734   0.97009   0.97149   0.97539   0.97817
 Alpha virt. eigenvalues --    0.98129   0.98447   0.98860   0.99110   0.99511
 Alpha virt. eigenvalues --    1.00423   1.00831   1.00990   1.01450   1.01653
 Alpha virt. eigenvalues --    1.01729   1.02178   1.02837   1.03052   1.03285
 Alpha virt. eigenvalues --    1.03651   1.04225   1.04641   1.05645   1.05703
 Alpha virt. eigenvalues --    1.06201   1.06637   1.07223   1.07310   1.08933
 Alpha virt. eigenvalues --    1.09277   1.09856   1.10006   1.10255   1.10656
 Alpha virt. eigenvalues --    1.11116   1.11598   1.12116   1.12412   1.12628
 Alpha virt. eigenvalues --    1.12812   1.12967   1.13841   1.14399   1.14774
 Alpha virt. eigenvalues --    1.15048   1.15758   1.16131   1.16871   1.17124
 Alpha virt. eigenvalues --    1.18068   1.18325   1.18366   1.18647   1.19197
 Alpha virt. eigenvalues --    1.20074   1.20777   1.20967   1.21211   1.22074
 Alpha virt. eigenvalues --    1.22166   1.22882   1.23747   1.23967   1.24507
 Alpha virt. eigenvalues --    1.24816   1.25264   1.25824   1.26410   1.26573
 Alpha virt. eigenvalues --    1.26862   1.27378   1.28094   1.28992   1.29327
 Alpha virt. eigenvalues --    1.30214   1.30680   1.30743   1.31383   1.32084
 Alpha virt. eigenvalues --    1.32509   1.33478   1.33842   1.34513   1.34889
 Alpha virt. eigenvalues --    1.35802   1.36275   1.36548   1.37343   1.37988
 Alpha virt. eigenvalues --    1.38585   1.38990   1.39330   1.40165   1.40801
 Alpha virt. eigenvalues --    1.41422   1.41481   1.42157   1.42611   1.42817
 Alpha virt. eigenvalues --    1.43544   1.43675   1.44367   1.44936   1.45568
 Alpha virt. eigenvalues --    1.45757   1.46118   1.47705   1.47884   1.48138
 Alpha virt. eigenvalues --    1.48983   1.49983   1.50086   1.51133   1.51403
 Alpha virt. eigenvalues --    1.52270   1.52561   1.53591   1.53734   1.54381
 Alpha virt. eigenvalues --    1.54714   1.55883   1.56262   1.57012   1.57650
 Alpha virt. eigenvalues --    1.57843   1.58617   1.59777   1.60017   1.60246
 Alpha virt. eigenvalues --    1.60873   1.61037   1.61729   1.62158   1.62566
 Alpha virt. eigenvalues --    1.63050   1.63218   1.63428   1.63689   1.63994
 Alpha virt. eigenvalues --    1.64301   1.64827   1.64992   1.65467   1.65636
 Alpha virt. eigenvalues --    1.65975   1.66455   1.66856   1.67027   1.67453
 Alpha virt. eigenvalues --    1.67806   1.67938   1.68437   1.68894   1.69157
 Alpha virt. eigenvalues --    1.69255   1.69667   1.70142   1.70464   1.70780
 Alpha virt. eigenvalues --    1.70946   1.71331   1.71843   1.71867   1.72051
 Alpha virt. eigenvalues --    1.72343   1.72889   1.73156   1.73560   1.73834
 Alpha virt. eigenvalues --    1.74076   1.74476   1.74660   1.75276   1.75369
 Alpha virt. eigenvalues --    1.75520   1.75802   1.76362   1.76487   1.77080
 Alpha virt. eigenvalues --    1.77324   1.77419   1.77833   1.78140   1.78805
 Alpha virt. eigenvalues --    1.78826   1.78982   1.79336   1.79789   1.80011
 Alpha virt. eigenvalues --    1.80406   1.80835   1.81168   1.81443   1.81935
 Alpha virt. eigenvalues --    1.82240   1.82658   1.83222   1.83339   1.83574
 Alpha virt. eigenvalues --    1.84267   1.84692   1.84893   1.85219   1.85832
 Alpha virt. eigenvalues --    1.86179   1.86218   1.86750   1.86888   1.87524
 Alpha virt. eigenvalues --    1.87870   1.87888   1.88479   1.89129   1.89440
 Alpha virt. eigenvalues --    1.89790   1.90256   1.90753   1.90975   1.91283
 Alpha virt. eigenvalues --    1.91582   1.91713   1.92100   1.92705   1.93030
 Alpha virt. eigenvalues --    1.93287   1.94165   1.94296   1.94699   1.95404
 Alpha virt. eigenvalues --    1.95966   1.96128   1.96451   1.96645   1.97574
 Alpha virt. eigenvalues --    1.97723   1.98312   1.98610   1.98665   1.99192
 Alpha virt. eigenvalues --    1.99563   1.99879   2.00491   2.00679   2.01430
 Alpha virt. eigenvalues --    2.01898   2.02233   2.02653   2.03148   2.03257
 Alpha virt. eigenvalues --    2.03443   2.03924   2.04035   2.04401   2.04517
 Alpha virt. eigenvalues --    2.04901   2.05970   2.06091   2.06349   2.06989
 Alpha virt. eigenvalues --    2.07442   2.07726   2.08002   2.08146   2.08681
 Alpha virt. eigenvalues --    2.09185   2.09347   2.10283   2.10763   2.11428
 Alpha virt. eigenvalues --    2.11538   2.12006   2.12674   2.12837   2.13087
 Alpha virt. eigenvalues --    2.13700   2.13784   2.14047   2.14734   2.15096
 Alpha virt. eigenvalues --    2.15680   2.16119   2.16315   2.16780   2.17312
 Alpha virt. eigenvalues --    2.17741   2.18443   2.18984   2.19352   2.19451
 Alpha virt. eigenvalues --    2.20107   2.20701   2.21786   2.21873   2.22408
 Alpha virt. eigenvalues --    2.22860   2.23714   2.24040   2.24319   2.25468
 Alpha virt. eigenvalues --    2.25692   2.25959   2.26573   2.27572   2.28351
 Alpha virt. eigenvalues --    2.28550   2.28993   2.30057   2.30335   2.30978
 Alpha virt. eigenvalues --    2.31905   2.32406   2.33456   2.33601   2.34756
 Alpha virt. eigenvalues --    2.35498   2.36001   2.36544   2.37041   2.37747
 Alpha virt. eigenvalues --    2.38118   2.39258   2.40023   2.40255   2.40550
 Alpha virt. eigenvalues --    2.40884   2.42125   2.42742   2.43161   2.43572
 Alpha virt. eigenvalues --    2.43939   2.44603   2.45020   2.45751   2.46205
 Alpha virt. eigenvalues --    2.47151   2.48568   2.49499   2.50156   2.50594
 Alpha virt. eigenvalues --    2.51289   2.52042   2.52327   2.54020   2.54169
 Alpha virt. eigenvalues --    2.54446   2.55659   2.57073   2.59336   2.59805
 Alpha virt. eigenvalues --    2.59988   2.60186   2.60967   2.61218   2.61585
 Alpha virt. eigenvalues --    2.61783   2.62114   2.62547   2.63272   2.63740
 Alpha virt. eigenvalues --    2.64346   2.64600   2.65059   2.65127   2.65723
 Alpha virt. eigenvalues --    2.66560   2.66882   2.67172   2.68122   2.68444
 Alpha virt. eigenvalues --    2.68740   2.68902   2.69249   2.69620   2.69741
 Alpha virt. eigenvalues --    2.70343   2.71121   2.71421   2.71740   2.72485
 Alpha virt. eigenvalues --    2.73134   2.73446   2.74179   2.74398   2.74758
 Alpha virt. eigenvalues --    2.74965   2.76251   2.76325   2.76766   2.77121
 Alpha virt. eigenvalues --    2.77374   2.78226   2.78510   2.80072   2.80766
 Alpha virt. eigenvalues --    2.81058   2.81547   2.82627   2.82695   2.83343
 Alpha virt. eigenvalues --    2.83857   2.84185   2.84594   2.85863   2.86073
 Alpha virt. eigenvalues --    2.86293   2.86437   2.87141   2.87568   2.88090
 Alpha virt. eigenvalues --    2.88201   2.88750   2.88872   2.89148   2.89730
 Alpha virt. eigenvalues --    2.90177   2.90368   2.91181   2.91263   2.91476
 Alpha virt. eigenvalues --    2.91717   2.92444   2.93013   2.93780   2.93804
 Alpha virt. eigenvalues --    2.94018   2.94098   2.94607   2.95385   2.95532
 Alpha virt. eigenvalues --    2.96453   2.97069   2.97143   2.97568   2.97756
 Alpha virt. eigenvalues --    2.97949   2.98172   2.99030   2.99115   2.99253
 Alpha virt. eigenvalues --    2.99653   3.00336   3.00871   3.01275   3.01587
 Alpha virt. eigenvalues --    3.01991   3.02223   3.02825   3.03665   3.03901
 Alpha virt. eigenvalues --    3.04372   3.05481   3.05623   3.06114   3.06321
 Alpha virt. eigenvalues --    3.07263   3.07944   3.08121   3.08443   3.08658
 Alpha virt. eigenvalues --    3.09185   3.10061   3.10150   3.10981   3.11578
 Alpha virt. eigenvalues --    3.11779   3.12685   3.13015   3.13224   3.14075
 Alpha virt. eigenvalues --    3.15175   3.16287   3.16415   3.17153   3.17603
 Alpha virt. eigenvalues --    3.18640   3.19837   3.20298   3.20691   3.21697
 Alpha virt. eigenvalues --    3.22156   3.22385   3.23636   3.24072   3.24386
 Alpha virt. eigenvalues --    3.24583   3.25691   3.26564   3.27291   3.27397
 Alpha virt. eigenvalues --    3.27709   3.28682   3.29707   3.30796   3.31567
 Alpha virt. eigenvalues --    3.31682   3.32633   3.33182   3.33570   3.35013
 Alpha virt. eigenvalues --    3.35197   3.36327   3.36769   3.37154   3.38629
 Alpha virt. eigenvalues --    3.39667   3.40144   3.41695   3.43479   3.45423
 Alpha virt. eigenvalues --    3.46646   3.47052   3.47747   3.49101   3.49530
 Alpha virt. eigenvalues --    3.51438   3.51720   3.52276   3.53202   3.53760
 Alpha virt. eigenvalues --    3.55004   3.56035   3.64042   3.64351   3.65263
 Alpha virt. eigenvalues --    3.66099   3.66396   3.69043   3.69708   3.73735
 Alpha virt. eigenvalues --    3.73983   3.74167   3.74592   3.76015   3.77472
 Alpha virt. eigenvalues --    3.79013   3.80841   3.86939   3.88099   3.88931
 Alpha virt. eigenvalues --    3.90297   3.91205   3.92898   3.92960   3.93901
 Alpha virt. eigenvalues --    3.94331   3.94900   3.95330   3.95855   3.96196
 Alpha virt. eigenvalues --    3.97090   3.97274   3.97525   3.99029   4.00846
 Alpha virt. eigenvalues --    4.01617   4.04497   4.05476   4.09850   4.11453
 Alpha virt. eigenvalues --    4.12205   4.14797   4.15584   4.15924   4.15980
 Alpha virt. eigenvalues --    4.19235   4.20248   4.20973   4.22066   4.22786
 Alpha virt. eigenvalues --    4.26853   4.27652   4.28224   4.28553   4.29150
 Alpha virt. eigenvalues --    4.30819   4.31032   4.34216   4.34589   4.39532
 Alpha virt. eigenvalues --    4.41793   4.42394   4.42998   4.46354   4.46908
 Alpha virt. eigenvalues --    4.49475   4.50270   4.50970   4.67899   4.87554
 Alpha virt. eigenvalues --    4.95496   4.96301   4.98126   5.34815   5.37966
 Alpha virt. eigenvalues --    5.38658   5.39091   5.40874   5.43636   5.46013
 Alpha virt. eigenvalues --    5.50961   5.53300   5.57603   5.67313   5.68331
 Alpha virt. eigenvalues --    5.69572   5.70820   5.73117   5.79083   5.80014
 Alpha virt. eigenvalues --    5.87873   7.67409  14.38846  14.41470  14.48684
 Alpha virt. eigenvalues --   15.04042  23.79612  23.81916  23.93890  23.97429
 Alpha virt. eigenvalues --   23.98069  24.02663  24.03742  24.03874  24.05217
 Alpha virt. eigenvalues --   24.05770  24.10565  24.11020  24.11755  24.12518
 Alpha virt. eigenvalues --   24.12971  24.13929  24.14058  24.14368  24.15633
 Alpha virt. eigenvalues --   24.16109  24.16982  24.18045  24.19577  24.20251
 Alpha virt. eigenvalues --   24.21308  24.21862  24.22191  24.23716  24.23812
 Alpha virt. eigenvalues --   24.32909  24.33084  35.78755  50.13204  50.14478
 Alpha virt. eigenvalues --   50.16097  50.18454  50.19922  50.24173 163.92076
          Condensed to atoms (all electrons):
 Mulliken charges:
               1
     1  C    0.015260
     2  C   -0.377794
     3  H    0.167808
     4  C   -0.675735
     5  H    0.200248
     6  H    0.195081
     7  H    0.173697
     8  C   -0.707806
     9  H    0.171753
    10  H    0.199582
    11  H    0.113545
    12  B    0.753202
    13  C   -0.594328
    14  H    0.234926
    15  H    0.132579
    16  H    0.122378
    17  O    0.230352
    18  O    0.214029
    19  C   -0.382152
    20  C   -0.616006
    21  C   -0.946076
    22  H    0.220458
    23  H    0.196185
    24  H    0.202636
    25  C   -0.262267
    26  H    0.078573
    27  H    0.222222
    28  H    0.230999
    29  C   -0.171726
    30  H    0.147903
    31  H    0.241849
    32  H    0.188741
    33  C   -0.781982
    34  H    0.272915
    35  H    0.197801
    36  H    0.500001
    37  P   -0.070447
    38  O    0.023618
    39  O   -0.097408
    40  N   -0.350255
    41  H    0.294878
    42  H    0.295285
    43  Li  -1.204412
    44  C   -0.092716
    45  O    0.103351
    46  C    0.148140
    47  C   -0.645590
    48  C   -0.508040
    49  H    0.193655
    50  H    0.251788
    51  H    0.286945
    52  H    0.012360
    53  H    0.243502
    54  H    0.204458
    55  H    0.244971
    56  H    0.222161
    57  C   -0.090215
    58  O    0.194777
    59  C   -0.120858
    60  C   -0.628695
    61  C   -0.548126
    62  H    0.187690
    63  H    0.214754
    64  H    0.339462
    65  H    0.231590
    66  H    0.157900
    67  H    0.234359
    68  H    0.220249
    69  H    0.213858
    70  C    0.030549
    71  C   -0.030904
    72  C    0.119595
    73  C   -0.565445
    74  H    0.282879
    75  C   -0.293797
    76  H    0.249136
    77  C   -0.563572
    78  H    0.276720
    79  H    0.283557
    80  H    0.252380
    81  C   -0.341504
    82  C    0.077852
    83  C   -0.205598
    84  C   -0.440471
    85  H    0.331609
    86  C   -0.229995
    87  H    0.257881
    88  C   -0.556177
    89  H    0.268087
    90  H    0.277472
    91  H    0.247906
 Sum of Mulliken charges =  -0.00000
 Mulliken charges with hydrogens summed into heavy atoms:
               1
     1  C    0.015260
     2  C   -0.209985
     4  C   -0.106709
     8  C   -0.222926
    12  B    0.753202
    13  C   -0.104444
    17  O    0.230352
    18  O    0.214029
    19  C   -0.382152
    20  C   -0.616006
    21  C   -0.326797
    25  C    0.269526
    29  C    0.406767
    33  C    0.188735
    37  P   -0.070447
    38  O    0.023618
    39  O   -0.097408
    40  N    0.239908
    43  Li  -1.204412
    44  C    0.352727
    45  O    0.103351
    46  C    0.447445
    47  C   -0.197630
    48  C   -0.040908
    57  C    0.312229
    58  O    0.194777
    59  C    0.450194
    60  C   -0.236436
    61  C   -0.114019
    70  C    0.030549
    71  C    0.251974
    72  C    0.368731
    73  C   -0.288724
    75  C   -0.010240
    77  C   -0.311192
    81  C   -0.341504
    82  C    0.409460
    83  C    0.052283
    84  C   -0.172384
    86  C    0.047478
    88  C   -0.308272
 Electronic spatial extent (au):  <R**2>=          20584.0145
 Charge=              0.0000 electrons
 Dipole moment (field-independent basis, Debye):
    X=             -6.7744    Y=              3.7594    Z=             -0.3863  Tot=              7.7572
 Quadrupole moment (field-independent basis, Debye-Ang):
   XX=           -252.0101   YY=           -230.2940   ZZ=           -231.1429
   XY=             -3.9993   XZ=             22.3031   YZ=              5.0415
 Traceless Quadrupole moment (field-independent basis, Debye-Ang):
   XX=            -14.1945   YY=              7.5217   ZZ=              6.6728
   XY=             -3.9993   XZ=             22.3031   YZ=              5.0415
 Octapole moment (field-independent basis, Debye-Ang**2):
  XXX=            -44.1731  YYY=             20.0227  ZZZ=             38.3822  XYY=             -5.8951
  XXY=             36.9124  XXZ=             59.6091  XZZ=            -55.9774  YZZ=             30.5442
  YYZ=            -48.4593  XYZ=             -2.4117
 Hexadecapole moment (field-independent basis, Debye-Ang**3):
 XXXX=         -12110.0996 YYYY=          -7870.3608 ZZZZ=          -6211.8826 XXXY=            307.1080
 XXXZ=            635.7843 YYYX=             26.7340 YYYZ=            139.7181 ZZZX=            423.9264
 ZZZY=            103.5013 XXYY=          -3630.4309 XXZZ=          -3046.7603 YYZZ=          -2519.8689
 XXYZ=             62.9896 YYXZ=            238.1083 ZZXY=            -57.2208
 N-N= 5.652548822593D+03 E-N=-1.619986558783D+04  KE= 2.083155096720D+03
 Unable to Open any file for archive entry.
 1\1\GINC-NODE19\SP\RwB97XD\6-311++G(d,p)\C31H50B1Li1N1O6P1\WHUGHES2\08
 -Oct-2025\0\\# wb97xd/6-311++g** nosymm int=ultrafine scrf=(smd,solven
 t=tetrahydrofuran)\\syn-product-phos-full-c9_tzpop-sp\\0,1\C,0,-2.7771
 ,0.6343,2.3912\C,0,-3.8282,0.313,3.4937\H,0,-3.9939,1.2678,4.027\C,0,-
 5.1758,-0.1382,2.9308\H,0,-5.0817,-1.1186,2.4507\H,0,-5.9171,-0.2251,3
 .7351\H,0,-5.5697,0.5751,2.1999\C,0,-3.177,1.9596,1.7102\H,0,-4.1246,1
 .8828,1.165\H,0,-3.2829,2.7578,2.4586\H,0,-2.4118,2.2869,1.0002\B,0,-2
 .6255,-0.4965,1.2901\C,0,-1.3844,0.8339,3.0306\H,0,-1.4245,1.6085,3.81
 08\H,0,-0.9934,-0.0869,3.4769\H,0,-0.6575,1.1645,2.2825\O,0,-2.2895,-0
 .1894,-0.0232\O,0,-2.7716,-1.84,1.4749\C,0,-2.3327,-2.5124,0.2681\C,0,
 -2.5176,-1.4008,-0.8107\C,0,-3.1901,-3.7491,0.0551\H,0,-2.9888,-4.4777
 ,0.8474\H,0,-4.2575,-3.5128,0.0723\H,0,-2.9496,-4.2176,-0.906\C,0,-0.8
 694,-2.8987,0.4713\H,0,-0.2355,-2.0128,0.5811\H,0,-0.7833,-3.5117,1.37
 49\H,0,-0.4951,-3.4835,-0.3757\C,0,-3.947,-1.3036,-1.34\H,0,-4.0525,-0
 .3773,-1.9135\H,0,-4.1786,-2.145,-2.0013\H,0,-4.6821,-1.2867,-0.5278\C
 ,0,-1.5293,-1.4831,-1.9607\H,0,-1.5642,-2.4848,-2.4038\H,0,-1.7864,-0.
 7595,-2.7384\H,0,-0.5103,-1.2859,-1.6233\P,0,2.2488,-0.2157,-0.7124\O,
 0,0.888,0.0068,-0.0452\O,0,2.6001,0.5729,-1.9534\N,0,-3.3584,-0.7174,4
 .4307\H,0,-2.5891,-0.3595,4.9914\H,0,-4.1051,-0.9261,5.0907\Li,0,-0.60
 34,1.0328,-0.4399\C,0,-0.2349,4.0723,-0.3496\O,0,-0.1591,2.8571,0.393\
 C,0,1.0386,2.9597,1.1691\C,0,2.0639,3.6434,0.2539\C,0,1.1951,4.3225,-0
 .8317\H,0,-0.9624,3.9333,-1.1495\H,0,-0.5802,4.8769,0.3167\H,0,0.8268,
 3.5637,2.063\H,0,1.321,1.9511,1.4679\H,0,2.6714,4.3611,0.8127\H,0,2.73
 35,2.9041,-0.1933\H,0,1.4039,5.3908,-0.9395\H,0,1.3553,3.8443,-1.8022\
 C,0,-2.3859,2.093,-2.6866\O,0,-1.1136,1.6531,-2.223\C,0,-0.235,1.6889,
 -3.3485\C,0,-0.6022,2.9826,-4.0782\C,0,-2.0886,3.2057,-3.7058\H,0,-2.9
 061,1.2501,-3.1638\H,0,-2.9642,2.4162,-1.8176\H,0,0.7882,1.6283,-2.970
 7\H,0,-0.4314,0.8085,-3.9798\H,0,0.0143,3.8114,-3.7177\H,0,-0.447,2.89
 28,-5.1569\H,0,-2.2377,4.1947,-3.263\H,0,-2.7504,3.1258,-4.5726\C,0,3.
 5154,0.0549,0.5809\C,0,4.8349,0.3485,0.2206\C,0,3.1855,-0.0269,1.9382\
 C,0,5.8072,0.5573,1.1977\H,0,5.0974,0.4224,-0.8318\C,0,4.1551,0.1813,2
 .9184\H,0,2.1607,-0.2497,2.225\C,0,5.4679,0.474,2.5486\H,0,6.8284,0.78
 87,0.9059\H,0,3.8861,0.1169,3.9697\H,0,6.2249,0.6378,3.3112\C,0,2.346,
 -2.009,-1.0958\C,0,2.0731,-2.4377,-2.3991\C,0,2.5939,-2.9696,-0.109\C,
 0,2.0319,-3.7969,-2.7078\H,0,1.8921,-1.6985,-3.1756\C,0,2.5624,-4.3289
 ,-0.4151\H,0,2.8092,-2.6601,0.9111\C,0,2.2757,-4.746,-1.715\H,0,1.8149
 ,-4.115,-3.7245\H,0,2.7575,-5.063,0.3626\H,0,2.2479,-5.806,-1.954\\Ver
 sion=AS64L-G16RevC.01\HF=-2091.5233578\RMSD=1.965e-09\Dipole=-2.665235
 2,1.4790734,-0.1519818\Quadrupole=-10.553239,5.5921866,4.9610524,-2.97
 33457,16.5818254,3.7482393\PG=C01 [X(C31H50B1Li1N1O6P1)]\\@
 The archive entry for this job was punched.


 LAWS OF PROGRAMMING DEFINITION:  A WORKING PROGRAM
                                  IS ONE THAT HAS
                                  ONLY UNOBSERVED
                                  BUGS.
 Job cpu time:       0 days  7 hours 50 minutes 24.6 seconds.
 Elapsed time:       0 days  1 hours 58 minutes 35.7 seconds.
 File lengths (MBytes):  RWF=   1341 Int=      0 D2E=      0 Chk=     95 Scr=      1
 Normal termination of Gaussian 16 at Wed Oct  8 19:17:27 2025.
