Job Start Time: Mon Aug 25 14:23:55 MDT 2025
SLURM Job ID: 764983
SLURM Job Name: thf-dzpop
 Entering Gaussian System, Link 0=/opt/apps/Gaussian/G16C/g16/g16
 Initial command:
 /opt/apps/Gaussian/G16C/g16/l1.exe "/tmp/764983/Gau-3844535.inp" -scrdir="/tmp/764983/"
 Entering Link 1 = /opt/apps/Gaussian/G16C/g16/l1.exe PID=   3844536.
  
 Copyright (c) 1988-2019, Gaussian, Inc.  All Rights Reserved.
  
 This is part of the Gaussian(R) 16 program.  It is based on
 the Gaussian(R) 09 system (copyright 2009, Gaussian, Inc.),
 the Gaussian(R) 03 system (copyright 2003, Gaussian, Inc.),
 the Gaussian(R) 98 system (copyright 1998, Gaussian, Inc.),
 the Gaussian(R) 94 system (copyright 1995, Gaussian, Inc.),
 the Gaussian 92(TM) system (copyright 1992, Gaussian, Inc.),
 the Gaussian 90(TM) system (copyright 1990, Gaussian, Inc.),
 the Gaussian 88(TM) system (copyright 1988, Gaussian, Inc.),
 the Gaussian 86(TM) system (copyright 1986, Carnegie Mellon
 University), and the Gaussian 82(TM) system (copyright 1983,
 Carnegie Mellon University). Gaussian is a federally registered
 trademark of Gaussian, Inc.
  
 This software contains proprietary and confidential information,
 including trade secrets, belonging to Gaussian, Inc.
  
 This software is provided under written license and may be
 used, copied, transmitted, or stored only in accord with that
 written license.
  
 The following legend is applicable only to US Government
 contracts under FAR:
  
                    RESTRICTED RIGHTS LEGEND
  
 Use, reproduction and disclosure by the US Government is
 subject to restrictions as set forth in subparagraphs (a)
 and (c) of the Commercial Computer Software - Restricted
 Rights clause in FAR 52.227-19.
  
 Gaussian, Inc.
 340 Quinnipiac St., Bldg. 40, Wallingford CT 06492
  
  
 ---------------------------------------------------------------
 Warning -- This program may not be used in any manner that
 competes with the business of Gaussian, Inc. or will provide
 assistance to any competitor of Gaussian, Inc.  The licensee
 of this program is prohibited from giving any competitor of
 Gaussian, Inc. access to this program.  By using this program,
 the user acknowledges that Gaussian, Inc. is engaged in the
 business of creating and licensing software in the field of
 computational chemistry and represents and warrants to the
 licensee that it is not a competitor of Gaussian, Inc. and that
 it will not use this program in any manner prohibited above.
 ---------------------------------------------------------------
  

 Cite this work as:
 Gaussian 16, Revision C.01,
 M. J. Frisch, G. W. Trucks, H. B. Schlegel, G. E. Scuseria, 
 M. A. Robb, J. R. Cheeseman, G. Scalmani, V. Barone, 
 G. A. Petersson, H. Nakatsuji, X. Li, M. Caricato, A. V. Marenich, 
 J. Bloino, B. G. Janesko, R. Gomperts, B. Mennucci, H. P. Hratchian, 
 J. V. Ortiz, A. F. Izmaylov, J. L. Sonnenberg, D. Williams-Young, 
 F. Ding, F. Lipparini, F. Egidi, J. Goings, B. Peng, A. Petrone, 
 T. Henderson, D. Ranasinghe, V. G. Zakrzewski, J. Gao, N. Rega, 
 G. Zheng, W. Liang, M. Hada, M. Ehara, K. Toyota, R. Fukuda, 
 J. Hasegawa, M. Ishida, T. Nakajima, Y. Honda, O. Kitao, H. Nakai, 
 T. Vreven, K. Throssell, J. A. Montgomery, Jr., J. E. Peralta, 
 F. Ogliaro, M. J. Bearpark, J. J. Heyd, E. N. Brothers, K. N. Kudin, 
 V. N. Staroverov, T. A. Keith, R. Kobayashi, J. Normand, 
 K. Raghavachari, A. P. Rendell, J. C. Burant, S. S. Iyengar, 
 J. Tomasi, M. Cossi, J. M. Millam, M. Klene, C. Adamo, R. Cammi, 
 J. W. Ochterski, R. L. Martin, K. Morokuma, O. Farkas, 
 J. B. Foresman, and D. J. Fox, Gaussian, Inc., Wallingford CT, 2019.
 
 ******************************************
 Gaussian 16:  AS64L-G16RevC.01  3-Jul-2019
                25-Aug-2025 
 ******************************************
 %nproc=16
 Will use up to   16 processors via shared memory.
 %mem=32gb
 %chk=THF-dzpop.chk
 ----------------------------------------------------------------------
 #p wb97xd/6-31+g* nosymm int=ultrafine opt=(tight) freq scrf=(solvent=
 tetrahydrofuran,smd)
 ----------------------------------------------------------------------
 1/7=10,18=20,19=15,26=6,38=1/1,3;
 2/9=110,12=2,15=1,17=6,18=5,40=1/2;
 3/5=1,6=6,7=11,11=2,25=1,30=1,70=32201,71=1,72=20,74=-58,75=-5/1,2,3;
 4//1;
 5/5=2,38=5,53=20/2;
 6/7=2,8=2,9=2,10=2,28=1/1;
 7/30=1/1,2,3,16;
 1/7=10,18=20,19=15,26=6/3(2);
 2/9=110,15=1/2;
 99//99;
 2/9=110,15=1/2;
 3/5=1,6=6,7=11,11=2,25=1,30=1,70=32205,71=1,72=20,74=-58,75=-5/1,2,3;
 4/5=5,16=3,69=1/1;
 5/5=2,38=5,53=20/2;
 7/30=1/1,2,3,16;
 1/7=10,18=20,19=15,26=6/3(-5);
 2/9=110,15=1/2;
 6/7=2,8=2,9=2,10=2,19=2,28=1/1;
 99/9=1/99;
 Leave Link    1 at Mon Aug 25 14:23:55 2025, MaxMem=  4294967296 cpu:               0.0 elap:               0.0
 (Enter /opt/apps/Gaussian/G16C/g16/l101.exe)
 ---
 THF
 ---
 Symbolic Z-matrix:
 Charge =  0 Multiplicity = 1
 C                    -1.64663   0.33963   0.73568 
 O                    -1.12193  -0.42385  -0.42001 
 C                     0.05805   0.37663  -0.54307 
 C                    -0.42441   1.84863  -0.5499 
 C                    -1.78832   1.69119   0.09551 
 H                    -2.57757  -0.03533   1.10672 
 H                    -0.94656   0.34728   1.54484 
 H                     0.59984   0.19581   0.36174 
 H                     0.69008   0.16004  -1.37885 
 H                     0.30828   2.41249  -0.01126 
 H                    -0.57996   2.3144   -1.50056 
 H                    -2.07381   2.51736   0.71264 
 H                    -2.532     1.56541  -0.66346 
 
 ITRead=  0  0  0  0  0  0  0  0  0  0  0  0  0
 MicOpt= -1 -1 -1 -1 -1 -1 -1 -1 -1 -1 -1 -1 -1
 NAtoms=     13 NQM=       13 NQMF=       0 NMMI=      0 NMMIF=      0
                NMic=       0 NMicF=      0.
                    Isotopes and Nuclear Properties:
 (Nuclear quadrupole moments (NQMom) in fm**2, nuclear magnetic moments (NMagM)
  in nuclear magnetons)

  Atom         1           2           3           4           5           6           7           8           9          10
 IAtWgt=          12          16          12          12          12           1           1           1           1           1
 AtmWgt=  12.0000000  15.9949146  12.0000000  12.0000000  12.0000000   1.0078250   1.0078250   1.0078250   1.0078250   1.0078250
 NucSpn=           0           0           0           0           0           1           1           1           1           1
 AtZEff=  -0.0000000  -0.0000000  -0.0000000  -0.0000000  -0.0000000  -0.0000000  -0.0000000  -0.0000000  -0.0000000  -0.0000000
 NQMom=    0.0000000   0.0000000   0.0000000   0.0000000   0.0000000   0.0000000   0.0000000   0.0000000   0.0000000   0.0000000
 NMagM=    0.0000000   0.0000000   0.0000000   0.0000000   0.0000000   2.7928460   2.7928460   2.7928460   2.7928460   2.7928460
 AtZNuc=   6.0000000   8.0000000   6.0000000   6.0000000   6.0000000   1.0000000   1.0000000   1.0000000   1.0000000   1.0000000

  Atom        11          12          13
 IAtWgt=           1           1           1
 AtmWgt=   1.0078250   1.0078250   1.0078250
 NucSpn=           1           1           1
 AtZEff=  -0.0000000  -0.0000000  -0.0000000
 NQMom=    0.0000000   0.0000000   0.0000000
 NMagM=    2.7928460   2.7928460   2.7928460
 AtZNuc=   1.0000000   1.0000000   1.0000000
 Leave Link  101 at Mon Aug 25 14:23:55 2025, MaxMem=  4294967296 cpu:               0.2 elap:               0.1
 (Enter /opt/apps/Gaussian/G16C/g16/l103.exe)

 GradGradGradGradGradGradGradGradGradGradGradGradGradGradGradGradGradGrad
 Berny optimization.
 Initialization pass.
                           ----------------------------
                           !    Initial Parameters    !
                           ! (Angstroms and Degrees)  !
 --------------------------                            --------------------------
 ! Name  Definition              Value          Derivative Info.                !
 --------------------------------------------------------------------------------
 ! R1    R(1,2)                  1.4812         estimate D2E/DX2                !
 ! R2    R(1,5)                  1.5022         estimate D2E/DX2                !
 ! R3    R(1,6)                  1.07           estimate D2E/DX2                !
 ! R4    R(1,7)                  1.07           estimate D2E/DX2                !
 ! R5    R(2,3)                  1.4312         estimate D2E/DX2                !
 ! R6    R(3,4)                  1.5491         estimate D2E/DX2                !
 ! R7    R(3,8)                  1.07           estimate D2E/DX2                !
 ! R8    R(3,9)                  1.07           estimate D2E/DX2                !
 ! R9    R(4,5)                  1.5171         estimate D2E/DX2                !
 ! R10   R(4,10)                 1.07           estimate D2E/DX2                !
 ! R11   R(4,11)                 1.07           estimate D2E/DX2                !
 ! R12   R(5,12)                 1.07           estimate D2E/DX2                !
 ! R13   R(5,13)                 1.07           estimate D2E/DX2                !
 ! A1    A(2,1,5)               99.4778         estimate D2E/DX2                !
 ! A2    A(2,1,6)              113.4621         estimate D2E/DX2                !
 ! A3    A(2,1,7)              111.2207         estimate D2E/DX2                !
 ! A4    A(5,1,6)              112.3957         estimate D2E/DX2                !
 ! A5    A(5,1,7)              112.1821         estimate D2E/DX2                !
 ! A6    A(6,1,7)              108.0299         estimate D2E/DX2                !
 ! A7    A(1,2,3)               94.0634         estimate D2E/DX2                !
 ! A8    A(2,3,4)              105.9664         estimate D2E/DX2                !
 ! A9    A(2,3,8)              104.492          estimate D2E/DX2                !
 ! A10   A(2,3,9)              116.1647         estimate D2E/DX2                !
 ! A11   A(4,3,8)              108.7843         estimate D2E/DX2                !
 ! A12   A(4,3,9)              111.8934         estimate D2E/DX2                !
 ! A13   A(8,3,9)              109.1002         estimate D2E/DX2                !
 ! A14   A(3,4,5)              100.3418         estimate D2E/DX2                !
 ! A15   A(3,4,10)             106.5747         estimate D2E/DX2                !
 ! A16   A(3,4,11)             117.5703         estimate D2E/DX2                !
 ! A17   A(5,4,10)             117.1386         estimate D2E/DX2                !
 ! A18   A(5,4,11)             107.0047         estimate D2E/DX2                !
 ! A19   A(10,4,11)            108.5064         estimate D2E/DX2                !
 ! A20   A(1,5,4)              100.945          estimate D2E/DX2                !
 ! A21   A(1,5,12)             118.2984         estimate D2E/DX2                !
 ! A22   A(1,5,13)             105.1928         estimate D2E/DX2                !
 ! A23   A(4,5,12)             113.8976         estimate D2E/DX2                !
 ! A24   A(4,5,13)             109.5901         estimate D2E/DX2                !
 ! A25   A(12,5,13)            108.3265         estimate D2E/DX2                !
 ! D1    D(5,1,2,3)             61.2144         estimate D2E/DX2                !
 ! D2    D(6,1,2,3)           -179.2116         estimate D2E/DX2                !
 ! D3    D(7,1,2,3)            -57.1737         estimate D2E/DX2                !
 ! D4    D(2,1,5,4)            -49.5576         estimate D2E/DX2                !
 ! D5    D(2,1,5,12)          -174.4985         estimate D2E/DX2                !
 ! D6    D(2,1,5,13)            64.4202         estimate D2E/DX2                !
 ! D7    D(6,1,5,4)           -169.914          estimate D2E/DX2                !
 ! D8    D(6,1,5,12)            65.1451         estimate D2E/DX2                !
 ! D9    D(6,1,5,13)           -55.9362         estimate D2E/DX2                !
 ! D10   D(7,1,5,4)             68.1119         estimate D2E/DX2                !
 ! D11   D(7,1,5,12)           -56.8291         estimate D2E/DX2                !
 ! D12   D(7,1,5,13)          -177.9103         estimate D2E/DX2                !
 ! D13   D(1,2,3,4)            -50.0184         estimate D2E/DX2                !
 ! D14   D(1,2,3,8)             64.8089         estimate D2E/DX2                !
 ! D15   D(1,2,3,9)           -174.9562         estimate D2E/DX2                !
 ! D16   D(2,3,4,5)             20.6156         estimate D2E/DX2                !
 ! D17   D(2,3,4,10)           143.1695         estimate D2E/DX2                !
 ! D18   D(2,3,4,11)           -94.8927         estimate D2E/DX2                !
 ! D19   D(8,3,4,5)            -91.2384         estimate D2E/DX2                !
 ! D20   D(8,3,4,10)            31.3155         estimate D2E/DX2                !
 ! D21   D(8,3,4,11)           153.2533         estimate D2E/DX2                !
 ! D22   D(9,3,4,5)            148.1526         estimate D2E/DX2                !
 ! D23   D(9,3,4,10)           -89.2936         estimate D2E/DX2                !
 ! D24   D(9,3,4,11)            32.6443         estimate D2E/DX2                !
 ! D25   D(3,4,5,1)             17.6688         estimate D2E/DX2                !
 ! D26   D(3,4,5,12)           145.5342         estimate D2E/DX2                !
 ! D27   D(3,4,5,13)           -92.9498         estimate D2E/DX2                !
 ! D28   D(10,4,5,1)           -97.1272         estimate D2E/DX2                !
 ! D29   D(10,4,5,12)           30.7383         estimate D2E/DX2                !
 ! D30   D(10,4,5,13)          152.2542         estimate D2E/DX2                !
 ! D31   D(11,4,5,1)           140.8848         estimate D2E/DX2                !
 ! D32   D(11,4,5,12)          -91.2498         estimate D2E/DX2                !
 ! D33   D(11,4,5,13)           30.2662         estimate D2E/DX2                !
 --------------------------------------------------------------------------------
 Trust Radius=3.00D-01 FncErr=5.00D-06 GrdErr=5.00D-06 EigMax=2.50D+02 EigMin=1.00D-04
 Number of steps in this run=     81 maximum allowed number of steps=    100.
 GradGradGradGradGradGradGradGradGradGradGradGradGradGradGradGradGradGrad

 Leave Link  103 at Mon Aug 25 14:23:55 2025, MaxMem=  4294967296 cpu:               0.0 elap:               0.0
 (Enter /opt/apps/Gaussian/G16C/g16/l202.exe)
                          Input orientation:                          
 ---------------------------------------------------------------------
 Center     Atomic      Atomic             Coordinates (Angstroms)
 Number     Number       Type             X           Y           Z
 ---------------------------------------------------------------------
      1          6           0       -1.646633    0.339632    0.735684
      2          8           0       -1.121934   -0.423847   -0.420013
      3          6           0        0.058053    0.376628   -0.543071
      4          6           0       -0.424413    1.848632   -0.549896
      5          6           0       -1.788324    1.691194    0.095507
      6          1           0       -2.577565   -0.035328    1.106723
      7          1           0       -0.946558    0.347281    1.544842
      8          1           0        0.599836    0.195813    0.361737
      9          1           0        0.690081    0.160036   -1.378851
     10          1           0        0.308276    2.412491   -0.011259
     11          1           0       -0.579965    2.314404   -1.500559
     12          1           0       -2.073807    2.517360    0.712638
     13          1           0       -2.531998    1.565409   -0.663457
 ---------------------------------------------------------------------
                    Distance matrix (angstroms):
                    1          2          3          4          5
     1  C    0.000000
     2  O    1.481163   0.000000
     3  C    2.131323   1.431179   0.000000
     4  C    2.328867   2.380665   1.549070   0.000000
     5  C    1.502206   2.276672   2.354778   1.517098   0.000000
     6  H    1.070000   2.144932   3.136560   3.306018   2.150892
     7  H    1.070000   2.118030   2.317215   2.629566   2.148312
     8  H    2.281917   1.989876   1.070000   2.147550   2.830257
     9  H    3.156540   2.131593   1.070000   2.186463   3.265068
    10  H    2.945562   3.202717   2.119004   1.070000   2.219775
    11  H    3.168326   2.993214   2.253625   1.070000   2.096652
    12  H    2.219349   3.292363   3.271753   2.182129   1.070000
    13  H    2.060097   2.450446   2.852378   2.129561   1.070000
                    6          7          8          9         10
     6  H    0.000000
     7  H    1.731624   0.000000
     8  H    3.271744   1.952951   0.000000
     9  H    4.110202   3.355835   1.743293   0.000000
    10  H    3.945856   2.874222   2.266671   2.662638   0.000000
    11  H    4.038510   3.643958   3.057532   2.503823   1.736838
    12  H    2.631595   2.583118   3.558241   4.191704   2.491855
    13  H    2.387043   2.978934   3.568642   3.587292   3.034810
                   11         12         13
    11  H    0.000000
    12  H    2.677871   0.000000
    13  H    2.252148   1.734874   0.000000
 Symmetry turned off by external request.
 Stoichiometry    C4H8O
 Framework group  C1[X(C4H8O)]
 Deg. of freedom    33
 Full point group                 C1      NOp   1
 Rotational constants (GHZ):           7.4805506           6.9337635           4.2944616
 Leave Link  202 at Mon Aug 25 14:23:55 2025, MaxMem=  4294967296 cpu:               0.0 elap:               0.0
 (Enter /opt/apps/Gaussian/G16C/g16/l301.exe)
 Standard basis: 6-31+G(d) (6D, 7F)
 Ernie: Thresh=  0.10000D-02 Tol=  0.10000D-05 Strict=F.
   111 basis functions,   192 primitive gaussians,   111 cartesian basis functions
    20 alpha electrons       20 beta electrons
       nuclear repulsion energy       193.4472092957 Hartrees.
 IExCor= 4639 DFT=T Ex+Corr=wB97XD ExCW=0 ScaHFX=  1.000000
 ScaDFX=  1.000000  1.000000  1.000000  1.000000 ScalE2=  1.000000  1.000000
 IRadAn=      5 IRanWt=     -1 IRanGd=            0 ICorTp=0 IEmpDi=121
 HFx  wShort=  0.000000 wLong=  0.200000 cFull=  0.222036 cShort=  0.000000 cLong=  0.777964
 DFx  wShort=  0.000000 wLong=  0.200000 cFull=  0.000000 cShort=  0.000000 cLong=  1.000000
 NAtoms=   13 NActive=   13 NUniq=   13 SFac= 1.00D+00 NAtFMM=   60 NAOKFM=F Big=F
 Integral buffers will be    131072 words long.
 Raffenetti 2 integral format.
 Two-electron integral symmetry is turned off.
 R6Disp:  Grimme-D2 Dispersion energy=       -0.0055733330 Hartrees.
 Nuclear repulsion after empirical dispersion term =      193.4416359626 Hartrees.
 ------------------------------------------------------------------------------
 Polarizable Continuum Model (PCM)
 =================================
 Model                : PCM.
 Atomic radii         : SMD-Coulomb.
 Polarization charges : Total charges.
 Charge compensation  : None.
 Solution method      : On-the-fly selection.
 Cavity type          : VdW (van der Waals Surface) (Alpha=1.000).
 Cavity algorithm     : GePol (No added spheres)
                        Default sphere list used, NSphG=   13.
                        Lebedev-Laikov grids with approx.  5.0 points / Ang**2.
                        Smoothing algorithm: York/Karplus (Gamma=1.0000).
                        Polarization charges: spherical gaussians, with
                                              point-specific exponents (IZeta= 3).
                        Self-potential: point-specific (ISelfS= 7).
                        Self-field    : sphere-specific E.n sum rule (ISelfD= 2).
 1st derivatives      : Analytical E(r).r(x)/FMM algorithm (CHGder, D1EAlg=3).
                        Cavity 1st derivative terms included.
 Solvent              : TetraHydroFuran, Eps=   7.425700 Eps(inf)=   1.974025
 ------------------------------------------------------------------------------
 Spheres list:
 ISph  on   Nord     Re0    Alpha      Xe            Ye            Ze
    1   C      1    1.8500  1.000     -1.646633      0.339632      0.735684
    2   O      2    2.2940  1.000     -1.121934     -0.423847     -0.420013
    3   C      3    1.8500  1.000      0.058053      0.376628     -0.543071
    4   C      4    1.8500  1.000     -0.424413      1.848632     -0.549896
    5   C      5    1.8500  1.000     -1.788324      1.691194      0.095507
    6   H      6    1.2000  1.000     -2.577565     -0.035328      1.106723
    7   H      7    1.2000  1.000     -0.946558      0.347281      1.544842
    8   H      8    1.2000  1.000      0.599836      0.195813      0.361737
    9   H      9    1.2000  1.000      0.690081      0.160036     -1.378851
   10   H     10    1.2000  1.000      0.308276      2.412491     -0.011259
   11   H     11    1.2000  1.000     -0.579965      2.314404     -1.500559
   12   H     12    1.2000  1.000     -2.073807      2.517360      0.712638
   13   H     13    1.2000  1.000     -2.531998      1.565409     -0.663457
 ------------------------------------------------------------------------------
 GePol: Number of generator spheres                  =      13
 GePol: Total number of spheres                      =      13
 GePol: Number of exposed spheres                    =      13 (100.00%)
 GePol: Number of points                             =     971
 GePol: Average weight of points                     =       0.12
 GePol: Minimum weight of points                     =   0.93D-08
 GePol: Maximum weight of points                     =    0.17992
 GePol: Number of points with low weight             =      46
 GePol: Fraction of low-weight points (<1% of avg)   =       4.74%
 GePol: Cavity surface area                          =    114.072 Ang**2
 GePol: Cavity volume                                =     97.813 Ang**3
 ------------------------------------------------------------------------------
 Atomic radii for non-electrostatic terms: SMD-CDS.
 ------------------------------------------------------------------------------
 PCM non-electrostatic energy =        -0.0024575056 Hartrees.
 Nuclear repulsion after PCM non-electrostatic terms =      193.4391784570 Hartrees.
 Leave Link  301 at Mon Aug 25 14:23:55 2025, MaxMem=  4294967296 cpu:               0.1 elap:               0.0
 (Enter /opt/apps/Gaussian/G16C/g16/l302.exe)
 NPDir=0 NMtPBC=     1 NCelOv=     1 NCel=       1 NClECP=     1 NCelD=      1
         NCelK=      1 NCelE2=     1 NClLst=     1 CellRange=     0.0.
 One-electron integrals computed using PRISM.
 NBasis=   111 RedAO= T EigKep=  3.85D-05  NBF=   111
 NBsUse=   111 1.00D-06 EigRej= -1.00D+00 NBFU=   111
 Precomputing XC quadrature grid using
 IXCGrd= 4 IRadAn=           5 IRanWt=          -1 IRanGd=           0 AccXCQ= 0.00D+00.
 Generated NRdTot=       0 NPtTot=           0 NUsed=           0 NTot=          32
 NSgBfM=   111   111   111   111   111 MxSgAt=    13 MxSgA2=    13.
 Leave Link  302 at Mon Aug 25 14:23:55 2025, MaxMem=  4294967296 cpu:               0.7 elap:               0.1
 (Enter /opt/apps/Gaussian/G16C/g16/l303.exe)
 DipDrv:  MaxL=1.
 Leave Link  303 at Mon Aug 25 14:23:55 2025, MaxMem=  4294967296 cpu:               0.1 elap:               0.0
 (Enter /opt/apps/Gaussian/G16C/g16/l401.exe)
 ExpMin= 4.38D-02 ExpMax= 5.48D+03 ExpMxC= 8.25D+02 IAcc=3 IRadAn=         5 AccDes= 0.00D+00
 Harris functional with IExCor= 4639 and IRadAn=       5 diagonalized for initial guess.
 HarFok:  IExCor= 4639 AccDes= 0.00D+00 IRadAn=         5 IDoV= 1 UseB2=F ITyADJ=14
 ICtDFT=  3500011 ScaDFX=  1.000000  1.000000  1.000000  1.000000
 FoFCou: FMM=F IPFlag=           0 FMFlag=      100000 FMFlg1=           0
         NFxFlg=           0 DoJE=T BraDBF=F KetDBF=T FulRan=T
         wScrn=  0.000000 ICntrl=       500 IOpCl=  0 I1Cent=   200000004 NGrid=           0
         NMat0=    1 NMatS0=      1 NMatT0=    0 NMatD0=    1 NMtDS0=    0 NMtDT0=    0
 Symmetry not used in FoFCou.
 Harris En= -222.029418787164    
 JPrj=0 DoOrth=F DoCkMO=F.
 Leave Link  401 at Mon Aug 25 14:23:55 2025, MaxMem=  4294967296 cpu:               3.8 elap:               0.3
 (Enter /opt/apps/Gaussian/G16C/g16/l502.exe)
 Two-electron integral symmetry not used.
 Closed shell SCF:
 Using DIIS extrapolation, IDIIS=  1040.
 NGot=  4294967296 LenX=  4294939455 LenY=  4294926693
 Requested convergence on RMS density matrix=1.00D-08 within 128 cycles.
 Requested convergence on MAX density matrix=1.00D-06.
 Requested convergence on             energy=1.00D-06.
 No special actions if energy rises.
 Fock matrices will be formed incrementally for  20 cycles.

 Cycle   1  Pass 1  IDiag  1:
 FoFJK:  IHMeth= 1 ICntrl=       0 DoSepK=T KAlg= 0 I1Cent=           0 FoldK=F
 IRaf=         1 NMat=       1 IRICut=       1 DoRegI=T DoRafI=F ISym2E= 0 IDoP0=0 IntGTp=1.
 FoFCou: FMM=F IPFlag=           0 FMFlag=      100000 FMFlg1=           0
         NFxFlg=           0 DoJE=T BraDBF=F KetDBF=F FulRan=T
         wScrn=  0.000000 ICntrl=       500 IOpCl=  0 I1Cent=           0 NGrid=           0
         NMat0=    1 NMatS0=      1 NMatT0=    0 NMatD0=    1 NMtDS0=    0 NMtDT0=    0
 Symmetry not used in FoFCou.
 Inv3:  Mode=1 IEnd=     2828523.
 Iteration    1 A*A^-1 deviation from unit magnitude is 2.78D-15 for    959.
 Iteration    1 A*A^-1 deviation from orthogonality  is 1.50D-15 for    971    406.
 Iteration    1 A^-1*A deviation from unit magnitude is 2.44D-15 for    100.
 Iteration    1 A^-1*A deviation from orthogonality  is 3.94D-10 for    692    646.
 Iteration    2 A*A^-1 deviation from unit magnitude is 1.33D-15 for    168.
 Iteration    2 A*A^-1 deviation from orthogonality  is 1.68D-15 for    384    336.
 Iteration    2 A^-1*A deviation from unit magnitude is 8.88D-16 for    489.
 Iteration    2 A^-1*A deviation from orthogonality  is 8.02D-16 for    967    137.
 E= -232.284244020071    
 DIIS: error= 4.86D-02 at cycle   1 NSaved=   1.
 NSaved= 1 IEnMin= 1 EnMin= -232.284244020071     IErMin= 1 ErrMin= 4.86D-02
 ErrMax= 4.86D-02  0.00D+00 EMaxC= 1.00D-01 BMatC= 2.47D-01 BMatP= 2.47D-01
 IDIUse=3 WtCom= 5.14D-01 WtEn= 4.86D-01
 Coeff-Com:  0.100D+01
 Coeff-En:   0.100D+01
 Coeff:      0.100D+01
 Gap=     0.539 Goal=   None    Shift=    0.000
 GapD=    0.539 DampG=2.000 DampE=0.500 DampFc=1.0000 IDamp=-1.
 RMSDP=7.81D-03 MaxDP=2.06D-01              OVMax= 8.96D-02

 Cycle   2  Pass 1  IDiag  1:
 RMSU=  7.49D-03    CP:  9.27D-01
 E= -232.292128081156     Delta-E=       -0.007884061085 Rises=F Damp=F
 DIIS: error= 1.96D-02 at cycle   2 NSaved=   2.
 NSaved= 2 IEnMin= 2 EnMin= -232.292128081156     IErMin= 2 ErrMin= 1.96D-02
 ErrMax= 1.96D-02  0.00D+00 EMaxC= 1.00D-01 BMatC= 1.07D-01 BMatP= 2.47D-01
 IDIUse=3 WtCom= 8.04D-01 WtEn= 1.96D-01
 Coeff-Com:  0.367D+00 0.633D+00
 Coeff-En:   0.471D+00 0.529D+00
 Coeff:      0.387D+00 0.613D+00
 Gap=     0.485 Goal=   None    Shift=    0.000
 RMSDP=2.93D-03 MaxDP=8.83D-02 DE=-7.88D-03 OVMax= 8.64D-02

 Cycle   3  Pass 1  IDiag  1:
 RMSU=  2.33D-03    CP:  9.40D-01  7.70D-01
 E= -232.356005945422     Delta-E=       -0.063877864265 Rises=F Damp=F
 DIIS: error= 8.10D-03 at cycle   3 NSaved=   3.
 NSaved= 3 IEnMin= 3 EnMin= -232.356005945422     IErMin= 3 ErrMin= 8.10D-03
 ErrMax= 8.10D-03  0.00D+00 EMaxC= 1.00D-01 BMatC= 1.57D-02 BMatP= 1.07D-01
 IDIUse=3 WtCom= 9.19D-01 WtEn= 8.10D-02
 Coeff-Com:  0.816D-02 0.277D+00 0.715D+00
 Coeff-En:   0.000D+00 0.947D-01 0.905D+00
 Coeff:      0.750D-02 0.262D+00 0.730D+00
 Gap=     0.434 Goal=   None    Shift=    0.000
 RMSDP=1.34D-03 MaxDP=2.89D-02 DE=-6.39D-02 OVMax= 2.84D-02

 Cycle   4  Pass 1  IDiag  1:
 RMSU=  5.78D-04    CP:  9.26D-01  9.12D-01  8.20D-01
 E= -232.366903930594     Delta-E=       -0.010897985172 Rises=F Damp=F
 DIIS: error= 1.05D-03 at cycle   4 NSaved=   4.
 NSaved= 4 IEnMin= 4 EnMin= -232.366903930594     IErMin= 4 ErrMin= 1.05D-03
 ErrMax= 1.05D-03  0.00D+00 EMaxC= 1.00D-01 BMatC= 3.27D-04 BMatP= 1.57D-02
 IDIUse=3 WtCom= 9.89D-01 WtEn= 1.05D-02
 Coeff-Com:  0.558D-03 0.861D-01 0.289D+00 0.625D+00
 Coeff-En:   0.000D+00 0.000D+00 0.000D+00 0.100D+01
 Coeff:      0.552D-03 0.852D-01 0.286D+00 0.629D+00
 Gap=     0.429 Goal=   None    Shift=    0.000
 RMSDP=1.76D-04 MaxDP=2.75D-03 DE=-1.09D-02 OVMax= 2.62D-03

 Cycle   5  Pass 1  IDiag  1:
 RMSU=  1.33D-04    CP:  9.25D-01  9.20D-01  8.58D-01  9.83D-01
 E= -232.367148892167     Delta-E=       -0.000244961573 Rises=F Damp=F
 DIIS: error= 1.52D-04 at cycle   5 NSaved=   5.
 NSaved= 5 IEnMin= 5 EnMin= -232.367148892167     IErMin= 5 ErrMin= 1.52D-04
 ErrMax= 1.52D-04  0.00D+00 EMaxC= 1.00D-01 BMatC= 5.84D-06 BMatP= 3.27D-04
 IDIUse=3 WtCom= 9.98D-01 WtEn= 1.52D-03
 Coeff-Com: -0.603D-03-0.183D-01-0.314D-01 0.809D-01 0.969D+00
 Coeff-En:   0.000D+00 0.000D+00 0.000D+00 0.000D+00 0.100D+01
 Coeff:     -0.603D-03-0.183D-01-0.313D-01 0.808D-01 0.969D+00
 Gap=     0.429 Goal=   None    Shift=    0.000
 RMSDP=1.32D-04 MaxDP=2.87D-03 DE=-2.45D-04 OVMax= 9.92D-04

 Cycle   6  Pass 1  IDiag  1:
 RMSU=  3.56D-05    CP:  9.24D-01  9.30D-01  8.79D-01  1.11D+00  1.15D+00
 E= -232.367156954280     Delta-E=       -0.000008062113 Rises=F Damp=F
 DIIS: error= 2.34D-05 at cycle   6 NSaved=   6.
 NSaved= 6 IEnMin= 6 EnMin= -232.367156954280     IErMin= 6 ErrMin= 2.34D-05
 ErrMax= 2.34D-05  0.00D+00 EMaxC= 1.00D-01 BMatC= 1.10D-07 BMatP= 5.84D-06
 IDIUse=1 WtCom= 1.00D+00 WtEn= 0.00D+00
 Coeff-Com: -0.933D-04-0.429D-02-0.113D-01-0.139D-01 0.627D-01 0.967D+00
 Coeff:     -0.933D-04-0.429D-02-0.113D-01-0.139D-01 0.627D-01 0.967D+00
 Gap=     0.429 Goal=   None    Shift=    0.000
 RMSDP=2.72D-05 MaxDP=5.75D-04 DE=-8.06D-06 OVMax= 3.09D-04

 Cycle   7  Pass 1  IDiag  1:
 RMSU=  6.01D-06    CP:  9.23D-01  9.33D-01  8.82D-01  1.13D+00  1.20D+00
                    CP:  1.24D+00
 E= -232.367157218536     Delta-E=       -0.000000264256 Rises=F Damp=F
 DIIS: error= 5.54D-06 at cycle   7 NSaved=   7.
 NSaved= 7 IEnMin= 7 EnMin= -232.367157218536     IErMin= 7 ErrMin= 5.54D-06
 ErrMax= 5.54D-06  0.00D+00 EMaxC= 1.00D-01 BMatC= 6.70D-09 BMatP= 1.10D-07
 IDIUse=1 WtCom= 1.00D+00 WtEn= 0.00D+00
 Coeff-Com:  0.220D-04 0.505D-03 0.616D-03-0.486D-02-0.459D-01 0.429D-01
 Coeff-Com:  0.101D+01
 Coeff:      0.220D-04 0.505D-03 0.616D-03-0.486D-02-0.459D-01 0.429D-01
 Coeff:      0.101D+01
 Gap=     0.429 Goal=   None    Shift=    0.000
 RMSDP=6.48D-06 MaxDP=1.19D-04 DE=-2.64D-07 OVMax= 9.47D-05

 Cycle   8  Pass 1  IDiag  1:
 RMSU=  2.01D-06    CP:  9.23D-01  9.33D-01  8.83D-01  1.14D+00  1.22D+00
                    CP:  1.33D+00  1.30D+00
 E= -232.367157236085     Delta-E=       -0.000000017549 Rises=F Damp=F
 DIIS: error= 2.27D-06 at cycle   8 NSaved=   8.
 NSaved= 8 IEnMin= 8 EnMin= -232.367157236085     IErMin= 8 ErrMin= 2.27D-06
 ErrMax= 2.27D-06  0.00D+00 EMaxC= 1.00D-01 BMatC= 1.16D-09 BMatP= 6.70D-09
 IDIUse=1 WtCom= 1.00D+00 WtEn= 0.00D+00
 Coeff-Com:  0.146D-04 0.351D-03 0.746D-03-0.598D-03-0.167D-01-0.420D-01
 Coeff-Com:  0.319D+00 0.739D+00
 Coeff:      0.146D-04 0.351D-03 0.746D-03-0.598D-03-0.167D-01-0.420D-01
 Coeff:      0.319D+00 0.739D+00
 Gap=     0.429 Goal=   None    Shift=    0.000
 RMSDP=9.36D-07 MaxDP=1.41D-05 DE=-1.75D-08 OVMax= 1.53D-05

 Cycle   9  Pass 1  IDiag  1:
 RMSU=  4.23D-07    CP:  9.23D-01  9.33D-01  8.83D-01  1.14D+00  1.22D+00
                    CP:  1.34D+00  1.39D+00  1.13D+00
 E= -232.367157237529     Delta-E=       -0.000000001443 Rises=F Damp=F
 DIIS: error= 4.10D-07 at cycle   9 NSaved=   9.
 NSaved= 9 IEnMin= 9 EnMin= -232.367157237529     IErMin= 9 ErrMin= 4.10D-07
 ErrMax= 4.10D-07  0.00D+00 EMaxC= 1.00D-01 BMatC= 5.85D-11 BMatP= 1.16D-09
 IDIUse=1 WtCom= 1.00D+00 WtEn= 0.00D+00
 Coeff-Com: -0.175D-05-0.146D-04 0.395D-04 0.534D-03 0.301D-02-0.101D-01
 Coeff-Com: -0.708D-01 0.978D-01 0.980D+00
 Coeff:     -0.175D-05-0.146D-04 0.395D-04 0.534D-03 0.301D-02-0.101D-01
 Coeff:     -0.708D-01 0.978D-01 0.980D+00
 Gap=     0.429 Goal=   None    Shift=    0.000
 RMSDP=4.25D-07 MaxDP=6.55D-06 DE=-1.44D-09 OVMax= 6.59D-06

 Cycle  10  Pass 1  IDiag  1:
 RMSU=  1.48D-07    CP:  9.23D-01  9.33D-01  8.83D-01  1.14D+00  1.22D+00
                    CP:  1.35D+00  1.43D+00  1.25D+00  1.27D+00
 E= -232.367157237647     Delta-E=       -0.000000000118 Rises=F Damp=F
 DIIS: error= 8.10D-08 at cycle  10 NSaved=  10.
 NSaved=10 IEnMin=10 EnMin= -232.367157237647     IErMin=10 ErrMin= 8.10D-08
 ErrMax= 8.10D-08  0.00D+00 EMaxC= 1.00D-01 BMatC= 1.13D-12 BMatP= 5.85D-11
 IDIUse=1 WtCom= 1.00D+00 WtEn= 0.00D+00
 Coeff-Com: -0.246D-06-0.922D-05-0.265D-04-0.659D-05 0.339D-03 0.208D-02
 Coeff-Com: -0.577D-02-0.312D-01-0.654D-01 0.110D+01
 Coeff:     -0.246D-06-0.922D-05-0.265D-04-0.659D-05 0.339D-03 0.208D-02
 Coeff:     -0.577D-02-0.312D-01-0.654D-01 0.110D+01
 Gap=     0.429 Goal=   None    Shift=    0.000
 RMSDP=8.78D-08 MaxDP=1.66D-06 DE=-1.18D-10 OVMax= 1.36D-06

 Cycle  11  Pass 1  IDiag  1:
 RMSU=  2.08D-08    CP:  9.23D-01  9.33D-01  8.83D-01  1.14D+00  1.22D+00
                    CP:  1.35D+00  1.44D+00  1.27D+00  1.38D+00  1.31D+00
 E= -232.367157237652     Delta-E=       -0.000000000005 Rises=F Damp=F
 DIIS: error= 1.70D-08 at cycle  11 NSaved=  11.
 NSaved=11 IEnMin=11 EnMin= -232.367157237652     IErMin=11 ErrMin= 1.70D-08
 ErrMax= 1.70D-08  0.00D+00 EMaxC= 1.00D-01 BMatC= 8.39D-14 BMatP= 1.13D-12
 IDIUse=1 WtCom= 1.00D+00 WtEn= 0.00D+00
 Coeff-Com: -0.113D-07-0.113D-05-0.588D-05-0.219D-04-0.665D-04 0.701D-03
 Coeff-Com:  0.180D-02-0.873D-02-0.479D-01 0.172D+00 0.882D+00
 Coeff:     -0.113D-07-0.113D-05-0.588D-05-0.219D-04-0.665D-04 0.701D-03
 Coeff:      0.180D-02-0.873D-02-0.479D-01 0.172D+00 0.882D+00
 Gap=     0.429 Goal=   None    Shift=    0.000
 RMSDP=1.43D-08 MaxDP=2.43D-07 DE=-4.83D-12 OVMax= 2.38D-07

 Cycle  12  Pass 1  IDiag  1:
 RMSU=  5.11D-09    CP:  9.23D-01  9.33D-01  8.83D-01  1.14D+00  1.22D+00
                    CP:  1.35D+00  1.44D+00  1.27D+00  1.39D+00  1.35D+00
                    CP:  1.22D+00
 E= -232.367157237648     Delta-E=        0.000000000003 Rises=F Damp=F
 DIIS: error= 6.74D-09 at cycle  12 NSaved=  12.
 NSaved=12 IEnMin=11 EnMin= -232.367157237652     IErMin=12 ErrMin= 6.74D-09
 ErrMax= 6.74D-09  0.00D+00 EMaxC= 1.00D-01 BMatC= 1.46D-14 BMatP= 8.39D-14
 IDIUse=1 WtCom= 1.00D+00 WtEn= 0.00D+00
 Coeff-Com:  0.207D-07 0.105D-06-0.180D-06-0.607D-05-0.394D-04 0.509D-04
 Coeff-Com:  0.943D-03-0.351D-03-0.964D-02-0.362D-01 0.269D+00 0.776D+00
 Coeff:      0.207D-07 0.105D-06-0.180D-06-0.607D-05-0.394D-04 0.509D-04
 Coeff:      0.943D-03-0.351D-03-0.964D-02-0.362D-01 0.269D+00 0.776D+00
 Gap=     0.429 Goal=   None    Shift=    0.000
 RMSDP=4.46D-09 MaxDP=8.57D-08 DE= 3.35D-12 OVMax= 7.04D-08

 Error on total polarization charges =  0.02727
 SCF Done:  E(RwB97XD) =  -232.367157238     A.U. after   12 cycles
            NFock= 12  Conv=0.45D-08     -V/T= 2.0079
 KE= 2.305516204719D+02 PE=-9.277196040055D+02 EE= 2.713616478390D+02
 SMD-CDS (non-electrostatic) energy       (kcal/mol) =      -1.54
 (included in total energy above)
 Leave Link  502 at Mon Aug 25 14:24:02 2025, MaxMem=  4294967296 cpu:              88.3 elap:               6.3
 (Enter /opt/apps/Gaussian/G16C/g16/l601.exe)
 Copying SCF densities to generalized density rwf, IOpCl= 0 IROHF=0.

 **********************************************************************

            Population analysis using the SCF Density.

 **********************************************************************

 Alpha  occ. eigenvalues --  -19.27675 -10.32756 -10.32520 -10.27781 -10.27721
 Alpha  occ. eigenvalues --   -1.13196  -0.88109  -0.81740  -0.71124  -0.66658
 Alpha  occ. eigenvalues --   -0.59024  -0.57220  -0.52996  -0.50517  -0.45960
 Alpha  occ. eigenvalues --   -0.42992  -0.42117  -0.41189  -0.38902  -0.34286
 Alpha virt. eigenvalues --    0.08575   0.09172   0.09453   0.10028   0.11643
 Alpha virt. eigenvalues --    0.12483   0.13772   0.14368   0.14726   0.17380
 Alpha virt. eigenvalues --    0.17737   0.18445   0.19947   0.20532   0.21824
 Alpha virt. eigenvalues --    0.22552   0.24776   0.27396   0.28931   0.30262
 Alpha virt. eigenvalues --    0.31804   0.33489   0.34831   0.35555   0.36945
 Alpha virt. eigenvalues --    0.38672   0.40524   0.41540   0.42747   0.42835
 Alpha virt. eigenvalues --    0.43917   0.46113   0.47906   0.71287   0.72728
 Alpha virt. eigenvalues --    0.74828   0.75615   0.77707   0.80047   0.81956
 Alpha virt. eigenvalues --    0.83690   0.85930   0.87827   0.97048   1.02738
 Alpha virt. eigenvalues --    1.07238   1.09054   1.10668   1.12757   1.16871
 Alpha virt. eigenvalues --    1.20696   1.23176   1.26225   1.27233   1.34762
 Alpha virt. eigenvalues --    1.35799   1.43667   1.47961   1.51636   1.55215
 Alpha virt. eigenvalues --    1.60906   1.68266   1.81563   1.82867   1.91095
 Alpha virt. eigenvalues --    1.94290   2.01789   2.03935   2.10769   2.14909
 Alpha virt. eigenvalues --    2.17415   2.21582   2.26023   2.31427   2.34820
 Alpha virt. eigenvalues --    2.41564   2.45753   2.55538   2.57946   2.60612
 Alpha virt. eigenvalues --    2.65996   2.67623   2.78068   2.87009   2.96080
 Alpha virt. eigenvalues --    3.06332   4.33576   4.37878   4.42845   4.57149
 Alpha virt. eigenvalues --    4.81327
          Condensed to atoms (all electrons):
               1          2          3          4          5          6
     1  C    5.667779   0.183789  -0.387430   0.071443  -0.003434   0.370213
     2  O    0.183789   8.387892   0.147616  -0.088504  -0.101017  -0.032667
     3  C   -0.387430   0.147616   5.683941   0.015302   0.044825   0.019535
     4  C    0.071443  -0.088504   0.015302   5.834380   0.006641   0.013427
     5  C   -0.003434  -0.101017   0.044825   0.006641   5.878696  -0.032138
     6  H    0.370213  -0.032667   0.019535   0.013427  -0.032138   0.472656
     7  H    0.446973  -0.037787  -0.030890   0.013021  -0.100311  -0.032037
     8  H   -0.016848  -0.058905   0.462397  -0.091243  -0.006976   0.000128
     9  H    0.016380  -0.031555   0.377184  -0.033196   0.007964  -0.000141
    10  H    0.001493   0.008232  -0.065671   0.418788  -0.038657  -0.000087
    11  H    0.025034   0.003337  -0.037058   0.413394  -0.073288  -0.000160
    12  H   -0.026971   0.008622   0.014355  -0.030217   0.360631   0.000654
    13  H   -0.053640   0.000522  -0.012480  -0.056097   0.440140  -0.004931
               7          8          9         10         11         12
     1  C    0.446973  -0.016848   0.016380   0.001493   0.025034  -0.026971
     2  O   -0.037787  -0.058905  -0.031555   0.008232   0.003337   0.008622
     3  C   -0.030890   0.462397   0.377184  -0.065671  -0.037058   0.014355
     4  C    0.013021  -0.091243  -0.033196   0.418788   0.413394  -0.030217
     5  C   -0.100311  -0.006976   0.007964  -0.038657  -0.073288   0.360631
     6  H   -0.032037   0.000128  -0.000141  -0.000087  -0.000160   0.000654
     7  H    0.509957   0.008306   0.000125   0.001524  -0.000010  -0.000114
     8  H    0.008306   0.531125  -0.032407  -0.004941   0.003241   0.000226
     9  H    0.000125  -0.032407   0.473756   0.002332  -0.004081  -0.000071
    10  H    0.001524  -0.004941   0.002332   0.478718  -0.027848  -0.003792
    11  H   -0.000010   0.003241  -0.004081  -0.027848   0.478220   0.001430
    12  H   -0.000114   0.000226  -0.000071  -0.003792   0.001430   0.476815
    13  H    0.004277  -0.000157  -0.000046   0.003086  -0.008127  -0.027388
              13
     1  C   -0.053640
     2  O    0.000522
     3  C   -0.012480
     4  C   -0.056097
     5  C    0.440140
     6  H   -0.004931
     7  H    0.004277
     8  H   -0.000157
     9  H   -0.000046
    10  H    0.003086
    11  H   -0.008127
    12  H   -0.027388
    13  H    0.479527
 Mulliken charges:
               1
     1  C   -0.294781
     2  O   -0.389576
     3  C   -0.231626
     4  C   -0.487140
     5  C   -0.383075
     6  H    0.225549
     7  H    0.216965
     8  H    0.206053
     9  H    0.223757
    10  H    0.226825
    11  H    0.225916
    12  H    0.225821
    13  H    0.235312
 Sum of Mulliken charges =   0.00000
 Mulliken charges with hydrogens summed into heavy atoms:
               1
     1  C    0.147734
     2  O   -0.389576
     3  C    0.198183
     4  C   -0.034399
     5  C    0.078058
 Electronic spatial extent (au):  <R**2>=            583.6126
 Charge=             -0.0000 electrons
 Dipole moment (field-independent basis, Debye):
    X=              0.6012    Y=              2.0851    Z=              1.2226  Tot=              2.4907
 Quadrupole moment (field-independent basis, Debye-Ang):
   XX=            -30.4877   YY=            -31.9903   ZZ=            -30.4400
   XY=             -2.2809   XZ=             -2.5666   YZ=             -0.6119
 Traceless Quadrupole moment (field-independent basis, Debye-Ang):
   XX=              0.4850   YY=             -1.0176   ZZ=              0.5326
   XY=             -2.2809   XZ=             -2.5666   YZ=             -0.6119
 Octapole moment (field-independent basis, Debye-Ang**2):
  XXX=             86.8414  YYY=            -75.8127  ZZZ=             10.9121  XYY=             30.5000
  XXY=            -22.9205  XXZ=              7.5824  XZZ=             30.3378  YZZ=            -24.6955
  YYZ=              4.2038  XYZ=              1.2130
 Hexadecapole moment (field-independent basis, Debye-Ang**3):
 XXXX=           -329.2892 YYYY=           -327.5346 ZZZZ=           -108.6751 XXXY=             76.4457
 XXXZ=             10.3069 YYYX=             75.3235 YYYZ=             16.6918 ZZZX=             16.2023
 ZZZY=             13.4476 XXYY=           -110.6886 XXZZ=            -73.3520 YYZZ=            -71.2829
 XXYZ=              3.4651 YYXZ=              5.8814 ZZXY=             23.7890
 N-N= 1.934391784570D+02 E-N=-9.277196030706D+02  KE= 2.305516204719D+02
 No NMR shielding tensors so no spin-rotation constants.
 Leave Link  601 at Mon Aug 25 14:24:02 2025, MaxMem=  4294967296 cpu:               0.8 elap:               0.1
 (Enter /opt/apps/Gaussian/G16C/g16/l701.exe)
 ... and contract with generalized density number  0.
 Compute integral first derivatives.
 R6Disp: Adding Grimme-D2 dispersion energy 1st derivatives to the gradient.
 D1PCM: PCM CHGder 1st derivatives, ID1Alg=3 FixD1E=F DoIter=F DoCFld=F I1PDM=0.
 GePol: Maximum number of non-zero 1st derivatives   =     307
 Leave Link  701 at Mon Aug 25 14:24:02 2025, MaxMem=  4294967296 cpu:               3.8 elap:               0.3
 (Enter /opt/apps/Gaussian/G16C/g16/l702.exe)
 L702 exits ... SP integral derivatives will be done elsewhere.
 Leave Link  702 at Mon Aug 25 14:24:02 2025, MaxMem=  4294967296 cpu:               0.0 elap:               0.0
 (Enter /opt/apps/Gaussian/G16C/g16/l703.exe)
 Integral derivatives from FoFJK, PRISM(SPDF).
 Compute integral first derivatives, UseDBF=F ICtDFT=           0.
 Calling FoFJK, ICntrl=      2127 FMM=F ISym2X=0 I1Cent= 0 IOpClX= 0 NMat=1 NMatS=1 NMatT=0.
 FoFJK:  IHMeth= 1 ICntrl=    2127 DoSepK=T KAlg= 0 I1Cent=           0 FoldK=F
 IRaf=         1 NMat=       1 IRICut=       1 DoRegI=T DoRafI=F ISym2E= 0 IDoP0=0 IntGTp=1.
 FoFCou: FMM=F IPFlag=           0 FMFlag=      100000 FMFlg1=         800
         NFxFlg=           0 DoJE=F BraDBF=F KetDBF=F FulRan=T
         wScrn=  0.000000 ICntrl=      2527 IOpCl=  0 I1Cent=           0 NGrid=           0
         NMat0=    1 NMatS0=      1 NMatT0=    0 NMatD0=    1 NMtDS0=    0 NMtDT0=    0
 Symmetry not used in FoFCou.
 Leave Link  703 at Mon Aug 25 14:24:03 2025, MaxMem=  4294967296 cpu:              10.0 elap:               0.7
 (Enter /opt/apps/Gaussian/G16C/g16/l716.exe)
 Dipole        = 2.36535054D-01 8.20322063D-01 4.81021593D-01
 -------------------------------------------------------------------
 Center     Atomic                   Forces (Hartrees/Bohr)
 Number     Number              X              Y              Z
 -------------------------------------------------------------------
      1        6          -0.022286415   -0.006567404   -0.025535346
      2        8           0.005594505    0.012612696    0.032868595
      3        6          -0.009282741    0.012503191   -0.016767923
      4        6          -0.001822427   -0.015912708   -0.000263965
      5        6           0.010501065    0.001435198    0.008856086
      6        1          -0.014034593   -0.015150740   -0.001611538
      7        1           0.013335823   -0.004017438    0.013267682
      8        1           0.019665054    0.000280585    0.010751566
      9        1           0.001797969   -0.013784294   -0.016445517
     10        1           0.005316094    0.015013538    0.012770799
     11        1           0.008098381    0.000881203   -0.020474210
     12        1          -0.004134130    0.009699378    0.015188835
     13        1          -0.012748585    0.003006793   -0.012605063
 -------------------------------------------------------------------
 Cartesian Forces:  Max     0.032868595 RMS     0.013178724
 Leave Link  716 at Mon Aug 25 14:24:03 2025, MaxMem=  4294967296 cpu:               0.0 elap:               0.0
 (Enter /opt/apps/Gaussian/G16C/g16/l103.exe)

 GradGradGradGradGradGradGradGradGradGradGradGradGradGradGradGradGradGrad
 Berny optimization.
 FormGI is forming the generalized inverse of G from B-inverse, IUseBI=4.
 Internal  Forces:  Max     0.022132449 RMS     0.008849788
 Search for a local minimum.
 Step number   1 out of a maximum of   81
 All quantities printed in internal units (Hartrees-Bohrs-Radians)
 RMS Force = .88498D-02 SwitMx=.10000D-02 MixMth= 1
 Mixed Optimization -- RFO/linear search
 Second derivative matrix not updated -- first step.
 ITU=  0
     Eigenvalues ---    0.00537   0.01367   0.02854   0.03757   0.04670
     Eigenvalues ---    0.05370   0.05484   0.05991   0.06338   0.06378
     Eigenvalues ---    0.06594   0.06827   0.07423   0.09206   0.10225
     Eigenvalues ---    0.10439   0.11084   0.12133   0.19317   0.20454
     Eigenvalues ---    0.26525   0.29112   0.30651   0.31941   0.37230
     Eigenvalues ---    0.37230   0.37230   0.37230   0.37230   0.37230
     Eigenvalues ---    0.37230   0.37230   0.38319
 RFO step:  Lambda=-3.18975699D-02 EMin= 5.37331830D-03
 Linear search not attempted -- first point.
 Iteration  1 RMS(Cart)=  0.08357478 RMS(Int)=  0.00506742
 Iteration  2 RMS(Cart)=  0.00582937 RMS(Int)=  0.00154317
 Iteration  3 RMS(Cart)=  0.00002742 RMS(Int)=  0.00154297
 Iteration  4 RMS(Cart)=  0.00000002 RMS(Int)=  0.00154297
 ITry= 1 IFail=0 DXMaxC= 3.09D-01 DCOld= 1.00D+10 DXMaxT= 3.00D-01 DXLimC= 3.00D+00 Rises=F
 Variable       Old X    -DE/DX   Delta X   Delta X   Delta X     New X
                                 (Linear)    (Quad)   (Total)
    R1        2.79899  -0.01488   0.00000  -0.04626  -0.04736   2.75164
    R2        2.83876   0.01066   0.00000   0.04084   0.04092   2.87967
    R3        2.02201   0.01696   0.00000   0.04196   0.04196   2.06397
    R4        2.02201   0.01874   0.00000   0.04635   0.04635   2.06836
    R5        2.70454   0.00595   0.00000   0.01523   0.01534   2.71988
    R6        2.92732   0.00372   0.00000   0.00512   0.00555   2.93286
    R7        2.02201   0.01900   0.00000   0.04701   0.04701   2.06901
    R8        2.02201   0.01670   0.00000   0.04131   0.04131   2.06332
    R9        2.86690   0.02213   0.00000   0.06604   0.06646   2.93336
   R10        2.02201   0.01798   0.00000   0.04447   0.04447   2.06648
   R11        2.02201   0.01740   0.00000   0.04305   0.04305   2.06506
   R12        2.02201   0.01735   0.00000   0.04293   0.04293   2.06494
   R13        2.02201   0.01745   0.00000   0.04316   0.04316   2.06517
    A1        1.73622  -0.00336   0.00000   0.01643   0.01104   1.74725
    A2        1.98029  -0.00121   0.00000  -0.03254  -0.03202   1.94827
    A3        1.94117  -0.00542   0.00000  -0.05841  -0.05692   1.88425
    A4        1.96168   0.01013   0.00000   0.06550   0.06702   2.02870
    A5        1.95795   0.00015   0.00000  -0.00129  -0.00153   1.95641
    A6        1.88548  -0.00048   0.00000   0.00875   0.00621   1.89169
    A7        1.64172   0.02168   0.00000   0.14053   0.13728   1.77900
    A8        1.84946  -0.00583   0.00000  -0.00691  -0.00997   1.83949
    A9        1.82373   0.00213   0.00000   0.03926   0.04119   1.86492
   A10        2.02746  -0.00243   0.00000  -0.05891  -0.05836   1.96909
   A11        1.89864  -0.00204   0.00000  -0.01799  -0.01886   1.87979
   A12        1.95291   0.01054   0.00000   0.06033   0.06269   2.01560
   A13        1.90416  -0.00302   0.00000  -0.01637  -0.01644   1.88772
   A14        1.75129  -0.00011   0.00000   0.02296   0.01985   1.77114
   A15        1.86008   0.00183   0.00000   0.02959   0.03098   1.89106
   A16        2.05199  -0.00391   0.00000  -0.06168  -0.06096   1.99103
   A17        2.04445   0.00144   0.00000  -0.02328  -0.02384   2.02061
   A18        1.86758   0.00038   0.00000   0.02927   0.03179   1.89938
   A19        1.89379   0.00019   0.00000  -0.00133  -0.00175   1.89204
   A20        1.76182   0.00449   0.00000   0.04640   0.04164   1.80346
   A21        2.06470  -0.00210   0.00000  -0.02631  -0.02661   2.03809
   A22        1.83596  -0.00228   0.00000  -0.00593  -0.00420   1.83176
   A23        1.98789   0.00572   0.00000   0.03895   0.04065   2.02854
   A24        1.91271  -0.00787   0.00000  -0.05291  -0.05135   1.86136
   A25        1.89065   0.00086   0.00000  -0.00578  -0.00644   1.88422
    D1        1.06839  -0.00897   0.00000  -0.14183  -0.14297   0.92542
    D2       -3.12783   0.00042   0.00000  -0.06938  -0.07228   3.08307
    D3       -0.99787  -0.00519   0.00000  -0.12575  -0.12486  -1.12273
    D4       -0.86494   0.01318   0.00000   0.13921   0.13893  -0.72602
    D5       -3.04557   0.00354   0.00000   0.06832   0.06945  -2.97613
    D6        1.12434   0.00558   0.00000   0.09744   0.09732   1.22166
    D7       -2.96556   0.01212   0.00000   0.13922   0.13906  -2.82650
    D8        1.13700   0.00247   0.00000   0.06833   0.06958   1.20658
    D9       -0.97627   0.00451   0.00000   0.09744   0.09745  -0.87882
   D10        1.18878   0.00516   0.00000   0.08038   0.07891   1.26769
   D11       -0.99185  -0.00448   0.00000   0.00949   0.00943  -0.98242
   D12       -3.10512  -0.00245   0.00000   0.03861   0.03730  -3.06782
   D13       -0.87299   0.00463   0.00000   0.10571   0.10897  -0.76402
   D14        1.13113   0.00084   0.00000   0.09974   0.10137   1.23250
   D15       -3.05356  -0.00285   0.00000   0.07288   0.07517  -2.97840
   D16        0.35981  -0.00856   0.00000  -0.07432  -0.07299   0.28682
   D17        2.49878  -0.00625   0.00000  -0.07757  -0.07690   2.42188
   D18       -1.65619  -0.00718   0.00000  -0.09733  -0.09613  -1.75232
   D19       -1.59241  -0.00728   0.00000  -0.10799  -0.10694  -1.69935
   D20        0.54656  -0.00497   0.00000  -0.11125  -0.11085   0.43571
   D21        2.67478  -0.00591   0.00000  -0.13100  -0.13008   2.54469
   D22        2.58575  -0.00883   0.00000  -0.11370  -0.11321   2.47254
   D23       -1.55847  -0.00651   0.00000  -0.11695  -0.11711  -1.67558
   D24        0.56975  -0.00745   0.00000  -0.13670  -0.13635   0.43340
   D25        0.30838  -0.00421   0.00000  -0.03864  -0.03983   0.26855
   D26        2.54005  -0.00026   0.00000  -0.01536  -0.01554   2.52452
   D27       -1.62228  -0.00102   0.00000  -0.03503  -0.03499  -1.65727
   D28       -1.69519  -0.00699   0.00000  -0.07904  -0.07918  -1.77437
   D29        0.53648  -0.00304   0.00000  -0.05575  -0.05488   0.48160
   D30        2.65734  -0.00380   0.00000  -0.07543  -0.07434   2.58300
   D31        2.45890  -0.00852   0.00000  -0.08473  -0.08546   2.37344
   D32       -1.59261  -0.00456   0.00000  -0.06144  -0.06117  -1.65378
   D33        0.52824  -0.00533   0.00000  -0.08112  -0.08062   0.44762
         Item               Value     Threshold  Converged?
 Maximum Force            0.022132     0.000015     NO 
 RMS     Force            0.008850     0.000010     NO 
 Maximum Displacement     0.308837     0.000060     NO 
 RMS     Displacement     0.082631     0.000040     NO 
 Predicted change in Energy=-2.179460D-02
 Lowest energy point so far.  Saving SCF results.
 GradGradGradGradGradGradGradGradGradGradGradGradGradGradGradGradGradGrad

 Leave Link  103 at Mon Aug 25 14:24:03 2025, MaxMem=  4294967296 cpu:               0.1 elap:               0.0
 (Enter /opt/apps/Gaussian/G16C/g16/l202.exe)
                          Input orientation:                          
 ---------------------------------------------------------------------
 Center     Atomic      Atomic             Coordinates (Angstroms)
 Number     Number       Type             X           Y           Z
 ---------------------------------------------------------------------
      1          6           0       -1.717051    0.327065    0.761786
      2          8           0       -1.068130   -0.413031   -0.311245
      3          6           0        0.099244    0.390334   -0.563087
      4          6           0       -0.402871    1.858869   -0.560709
      5          6           0       -1.785967    1.711320    0.128358
      6          1           0       -2.671611   -0.123852    1.041784
      7          1           0       -1.056186    0.305892    1.634025
      8          1           0        0.763266    0.264103    0.298244
      9          1           0        0.641270    0.080598   -1.458872
     10          1           0        0.329999    2.472417   -0.029412
     11          1           0       -0.548924    2.281711   -1.557727
     12          1           0       -2.092316    2.535072    0.777680
     13          1           0       -2.525672    1.619206   -0.670799
 ---------------------------------------------------------------------
                    Distance matrix (angstroms):
                    1          2          3          4          5
     1  C    0.000000
     2  O    1.456103   0.000000
     3  C    2.249048   1.439298   0.000000
     4  C    2.412983   2.380405   1.552005   0.000000
     5  C    1.523858   2.285040   2.403564   1.552269   0.000000
     6  H    1.092204   2.117891   3.243090   3.412675   2.233063
     7  H    1.094529   2.073902   2.483838   2.766843   2.185141
     8  H    2.524046   2.045482   1.094875   2.154287   2.936305
     9  H    3.248653   2.117254   1.091861   2.249261   3.327166
    10  H    3.069030   3.218696   2.161742   1.093534   2.254212
    11  H    3.250431   3.014121   2.233101   1.092781   2.167603
    12  H    2.239726   3.305454   3.346714   2.258929   1.092719
    13  H    2.091841   2.526597   2.900330   2.139122   1.092841
                    6          7          8          9         10
     6  H    0.000000
     7  H    1.773423   0.000000
     8  H    3.535780   2.257534   0.000000
     9  H    4.155750   3.535269   1.770879   0.000000
    10  H    4.110686   3.063065   2.274144   2.803756   0.000000
    11  H    4.129163   3.787936   3.039278   2.504243   1.773308
    12  H    2.734083   2.603101   3.679879   4.301058   2.554003
    13  H    2.447957   3.032557   3.686796   3.608032   3.048639
                   11         12         13
    11  H    0.000000
    12  H    2.810760   0.000000
    13  H    2.265631   1.767682   0.000000
 Symmetry turned off by external request.
 Stoichiometry    C4H8O
 Framework group  C1[X(C4H8O)]
 Deg. of freedom    33
 Full point group                 C1      NOp   1
 Rotational constants (GHZ):           7.1271863           6.9350740           4.0864313
 Leave Link  202 at Mon Aug 25 14:24:03 2025, MaxMem=  4294967296 cpu:               0.0 elap:               0.0
 (Enter /opt/apps/Gaussian/G16C/g16/l301.exe)
 Standard basis: 6-31+G(d) (6D, 7F)
 Ernie: Thresh=  0.10000D-02 Tol=  0.10000D-05 Strict=F.
   111 basis functions,   192 primitive gaussians,   111 cartesian basis functions
    20 alpha electrons       20 beta electrons
       nuclear repulsion energy       190.6294755007 Hartrees.
 IExCor= 4639 DFT=T Ex+Corr=wB97XD ExCW=0 ScaHFX=  1.000000
 ScaDFX=  1.000000  1.000000  1.000000  1.000000 ScalE2=  1.000000  1.000000
 IRadAn=      5 IRanWt=     -1 IRanGd=            0 ICorTp=0 IEmpDi=121
 HFx  wShort=  0.000000 wLong=  0.200000 cFull=  0.222036 cShort=  0.000000 cLong=  0.777964
 DFx  wShort=  0.000000 wLong=  0.200000 cFull=  0.000000 cShort=  0.000000 cLong=  1.000000
 NAtoms=   13 NActive=   13 NUniq=   13 SFac= 1.00D+00 NAtFMM=   60 NAOKFM=F Big=F
 Integral buffers will be    131072 words long.
 Raffenetti 2 integral format.
 Two-electron integral symmetry is turned off.
 R6Disp:  Grimme-D2 Dispersion energy=       -0.0056062296 Hartrees.
 Nuclear repulsion after empirical dispersion term =      190.6238692711 Hartrees.
 ------------------------------------------------------------------------------
 Polarizable Continuum Model (PCM)
 =================================
 Model                : PCM.
 Atomic radii         : SMD-Coulomb.
 Polarization charges : Total charges.
 Charge compensation  : None.
 Solution method      : On-the-fly selection.
 Cavity type          : VdW (van der Waals Surface) (Alpha=1.000).
 Cavity algorithm     : GePol (No added spheres)
                        Default sphere list used, NSphG=   13.
                        Lebedev-Laikov grids with approx.  5.0 points / Ang**2.
                        Smoothing algorithm: York/Karplus (Gamma=1.0000).
                        Polarization charges: spherical gaussians, with
                                              point-specific exponents (IZeta= 3).
                        Self-potential: point-specific (ISelfS= 7).
                        Self-field    : sphere-specific E.n sum rule (ISelfD= 2).
 1st derivatives      : Analytical E(r).r(x)/FMM algorithm (CHGder, D1EAlg=3).
                        Cavity 1st derivative terms included.
 Solvent              : TetraHydroFuran, Eps=   7.425700 Eps(inf)=   1.974025
 ------------------------------------------------------------------------------
 Spheres list:
 ISph  on   Nord     Re0    Alpha      Xe            Ye            Ze
    1   C      1    1.8500  1.000     -1.717051      0.327065      0.761786
    2   O      2    2.2940  1.000     -1.068130     -0.413031     -0.311245
    3   C      3    1.8500  1.000      0.099244      0.390334     -0.563087
    4   C      4    1.8500  1.000     -0.402871      1.858869     -0.560709
    5   C      5    1.8500  1.000     -1.785967      1.711320      0.128358
    6   H      6    1.2000  1.000     -2.671611     -0.123852      1.041784
    7   H      7    1.2000  1.000     -1.056186      0.305892      1.634025
    8   H      8    1.2000  1.000      0.763266      0.264103      0.298244
    9   H      9    1.2000  1.000      0.641270      0.080598     -1.458872
   10   H     10    1.2000  1.000      0.329999      2.472417     -0.029412
   11   H     11    1.2000  1.000     -0.548924      2.281711     -1.557727
   12   H     12    1.2000  1.000     -2.092316      2.535072      0.777680
   13   H     13    1.2000  1.000     -2.525672      1.619206     -0.670799
 ------------------------------------------------------------------------------
 GePol: Number of generator spheres                  =      13
 GePol: Total number of spheres                      =      13
 GePol: Number of exposed spheres                    =      13 (100.00%)
 GePol: Number of points                             =     991
 GePol: Average weight of points                     =       0.12
 GePol: Minimum weight of points                     =   0.38D-08
 GePol: Maximum weight of points                     =    0.17992
 GePol: Number of points with low weight             =      62
 GePol: Fraction of low-weight points (<1% of avg)   =       6.26%
 GePol: Cavity surface area                          =    115.628 Ang**2
 GePol: Cavity volume                                =     98.853 Ang**3
 ------------------------------------------------------------------------------
 Atomic radii for non-electrostatic terms: SMD-CDS.
 ------------------------------------------------------------------------------
 PCM non-electrostatic energy =        -0.0024488537 Hartrees.
 Nuclear repulsion after PCM non-electrostatic terms =      190.6214204174 Hartrees.
 Leave Link  301 at Mon Aug 25 14:24:03 2025, MaxMem=  4294967296 cpu:               0.1 elap:               0.0
 (Enter /opt/apps/Gaussian/G16C/g16/l302.exe)
 NPDir=0 NMtPBC=     1 NCelOv=     1 NCel=       1 NClECP=     1 NCelD=      1
         NCelK=      1 NCelE2=     1 NClLst=     1 CellRange=     0.0.
 One-electron integrals computed using PRISM.
 NBasis=   111 RedAO= T EigKep=  3.89D-05  NBF=   111
 NBsUse=   111 1.00D-06 EigRej= -1.00D+00 NBFU=   111
 Precomputing XC quadrature grid using
 IXCGrd= 4 IRadAn=           5 IRanWt=          -1 IRanGd=           0 AccXCQ= 0.00D+00.
 Generated NRdTot=       0 NPtTot=           0 NUsed=           0 NTot=          32
 NSgBfM=   111   111   111   111   111 MxSgAt=    13 MxSgA2=    13.
 Leave Link  302 at Mon Aug 25 14:24:03 2025, MaxMem=  4294967296 cpu:               1.0 elap:               0.1
 (Enter /opt/apps/Gaussian/G16C/g16/l303.exe)
 DipDrv:  MaxL=1.
 Leave Link  303 at Mon Aug 25 14:24:03 2025, MaxMem=  4294967296 cpu:               0.1 elap:               0.0
 (Enter /opt/apps/Gaussian/G16C/g16/l401.exe)
 Initial guess from the checkpoint file:  "THF-dzpop.chk"
 B after Tr=     0.027756    0.029217    0.069236
         Rot=    0.999960    0.007940    0.000825   -0.003911 Ang=   1.02 deg.
 Guess basis will be translated and rotated to current coordinates.
 JPrj=2 DoOrth=T DoCkMO=T.
 Generating alternative initial guess.
 ExpMin= 4.38D-02 ExpMax= 5.48D+03 ExpMxC= 8.25D+02 IAcc=3 IRadAn=         5 AccDes= 0.00D+00
 Harris functional with IExCor= 4639 and IRadAn=       5 diagonalized for initial guess.
 HarFok:  IExCor= 4639 AccDes= 0.00D+00 IRadAn=         5 IDoV= 1 UseB2=F ITyADJ=14
 ICtDFT=  3500011 ScaDFX=  1.000000  1.000000  1.000000  1.000000
 FoFCou: FMM=F IPFlag=           0 FMFlag=      100000 FMFlg1=           0
         NFxFlg=           0 DoJE=T BraDBF=F KetDBF=T FulRan=T
         wScrn=  0.000000 ICntrl=       500 IOpCl=  0 I1Cent=   200000004 NGrid=           0
         NMat0=    1 NMatS0=      1 NMatT0=    0 NMatD0=    1 NMtDS0=    0 NMtDT0=    0
 Symmetry not used in FoFCou.
 Harris En= -222.056186470529    
 Leave Link  401 at Mon Aug 25 14:24:03 2025, MaxMem=  4294967296 cpu:               3.3 elap:               0.3
 (Enter /opt/apps/Gaussian/G16C/g16/l502.exe)
 Two-electron integral symmetry not used.
 Closed shell SCF:
 Using DIIS extrapolation, IDIIS=  1040.
 NGot=  4294967296 LenX=  4294939455 LenY=  4294926693
 Requested convergence on RMS density matrix=1.00D-08 within 128 cycles.
 Requested convergence on MAX density matrix=1.00D-06.
 Requested convergence on             energy=1.00D-06.
 No special actions if energy rises.
 Fock matrices will be formed incrementally for  20 cycles.

 Cycle   1  Pass 1  IDiag  1:
 FoFJK:  IHMeth= 1 ICntrl=       0 DoSepK=T KAlg= 0 I1Cent=           0 FoldK=F
 IRaf=         1 NMat=       1 IRICut=       1 DoRegI=T DoRafI=F ISym2E= 0 IDoP0=0 IntGTp=1.
 FoFCou: FMM=F IPFlag=           0 FMFlag=      100000 FMFlg1=           0
         NFxFlg=           0 DoJE=T BraDBF=F KetDBF=F FulRan=T
         wScrn=  0.000000 ICntrl=       500 IOpCl=  0 I1Cent=           0 NGrid=           0
         NMat0=    1 NMatS0=      1 NMatT0=    0 NMatD0=    1 NMtDS0=    0 NMtDT0=    0
 Symmetry not used in FoFCou.
 Inv3:  Mode=1 IEnd=     2946243.
 Iteration    1 A*A^-1 deviation from unit magnitude is 3.44D-15 for    974.
 Iteration    1 A*A^-1 deviation from orthogonality  is 2.02D-15 for    967    900.
 Iteration    1 A^-1*A deviation from unit magnitude is 3.44D-15 for    974.
 Iteration    1 A^-1*A deviation from orthogonality  is 2.55D-15 for    966    732.
 E= -232.372680432001    
 DIIS: error= 4.62D-03 at cycle   1 NSaved=   1.
 NSaved= 1 IEnMin= 1 EnMin= -232.372680432001     IErMin= 1 ErrMin= 4.62D-03
 ErrMax= 4.62D-03  0.00D+00 EMaxC= 1.00D-01 BMatC= 6.68D-03 BMatP= 6.68D-03
 IDIUse=3 WtCom= 9.54D-01 WtEn= 4.62D-02
 Coeff-Com:  0.100D+01
 Coeff-En:   0.100D+01
 Coeff:      0.100D+01
 Gap=     0.870 Goal=   None    Shift=    0.000
 GapD=    0.870 DampG=2.000 DampE=1.000 DampFc=2.0000 IDamp=-1.
 RMSDP=1.65D-03 MaxDP=3.11D-02              OVMax= 3.28D-02

 Cycle   2  Pass 1  IDiag  1:
 RMSU=  1.63D-03    CP:  9.91D-01
 E= -232.384292737580     Delta-E=       -0.011612305579 Rises=F Damp=F
 DIIS: error= 1.56D-03 at cycle   2 NSaved=   2.
 NSaved= 2 IEnMin= 2 EnMin= -232.384292737580     IErMin= 2 ErrMin= 1.56D-03
 ErrMax= 1.56D-03  0.00D+00 EMaxC= 1.00D-01 BMatC= 5.05D-04 BMatP= 6.68D-03
 IDIUse=3 WtCom= 9.84D-01 WtEn= 1.56D-02
 Coeff-Com: -0.612D-01 0.106D+01
 Coeff-En:   0.000D+00 0.100D+01
 Coeff:     -0.603D-01 0.106D+01
 Gap=     0.425 Goal=   None    Shift=    0.000
 RMSDP=5.47D-04 MaxDP=7.72D-03 DE=-1.16D-02 OVMax= 8.80D-03

 Cycle   3  Pass 1  IDiag  1:
 RMSU=  5.28D-04    CP:  9.93D-01  1.07D+00
 E= -232.384994035819     Delta-E=       -0.000701298239 Rises=F Damp=F
 DIIS: error= 1.05D-03 at cycle   3 NSaved=   3.
 NSaved= 3 IEnMin= 3 EnMin= -232.384994035819     IErMin= 3 ErrMin= 1.05D-03
 ErrMax= 1.05D-03  0.00D+00 EMaxC= 1.00D-01 BMatC= 2.18D-04 BMatP= 5.05D-04
 IDIUse=3 WtCom= 9.90D-01 WtEn= 1.05D-02
 Coeff-Com: -0.936D-01 0.435D+00 0.659D+00
 Coeff-En:   0.000D+00 0.000D+00 0.100D+01
 Coeff:     -0.926D-01 0.430D+00 0.663D+00
 Gap=     0.423 Goal=   None    Shift=    0.000
 RMSDP=1.92D-04 MaxDP=2.16D-03 DE=-7.01D-04 OVMax= 2.96D-03

 Cycle   4  Pass 1  IDiag  1:
 RMSU=  1.50D-04    CP:  9.92D-01  1.12D+00  8.34D-01
 E= -232.385218447401     Delta-E=       -0.000224411583 Rises=F Damp=F
 DIIS: error= 1.41D-04 at cycle   4 NSaved=   4.
 NSaved= 4 IEnMin= 4 EnMin= -232.385218447401     IErMin= 4 ErrMin= 1.41D-04
 ErrMax= 1.41D-04  0.00D+00 EMaxC= 1.00D-01 BMatC= 5.37D-06 BMatP= 2.18D-04
 IDIUse=3 WtCom= 9.99D-01 WtEn= 1.41D-03
 Coeff-Com: -0.130D-01 0.174D-01 0.114D+00 0.881D+00
 Coeff-En:   0.000D+00 0.000D+00 0.000D+00 0.100D+01
 Coeff:     -0.130D-01 0.174D-01 0.114D+00 0.881D+00
 Gap=     0.422 Goal=   None    Shift=    0.000
 RMSDP=4.45D-05 MaxDP=7.07D-04 DE=-2.24D-04 OVMax= 8.32D-04

 Cycle   5  Pass 1  IDiag  1:
 RMSU=  2.89D-05    CP:  9.92D-01  1.12D+00  8.82D-01  1.15D+00
 E= -232.385223923726     Delta-E=       -0.000005476324 Rises=F Damp=F
 DIIS: error= 1.00D-04 at cycle   5 NSaved=   5.
 NSaved= 5 IEnMin= 5 EnMin= -232.385223923726     IErMin= 5 ErrMin= 1.00D-04
 ErrMax= 1.00D-04  0.00D+00 EMaxC= 1.00D-01 BMatC= 2.25D-06 BMatP= 5.37D-06
 IDIUse=3 WtCom= 9.99D-01 WtEn= 1.00D-03
 Coeff-Com:  0.428D-02-0.419D-01-0.177D-01 0.437D+00 0.618D+00
 Coeff-En:   0.000D+00 0.000D+00 0.000D+00 0.000D+00 0.100D+01
 Coeff:      0.428D-02-0.418D-01-0.177D-01 0.437D+00 0.618D+00
 Gap=     0.423 Goal=   None    Shift=    0.000
 RMSDP=1.73D-05 MaxDP=3.66D-04 DE=-5.48D-06 OVMax= 3.86D-04

 Cycle   6  Pass 1  IDiag  1:
 RMSU=  1.45D-05    CP:  9.92D-01  1.12D+00  8.93D-01  1.20D+00  9.68D-01
 E= -232.385225735309     Delta-E=       -0.000001811584 Rises=F Damp=F
 DIIS: error= 1.78D-05 at cycle   6 NSaved=   6.
 NSaved= 6 IEnMin= 6 EnMin= -232.385225735309     IErMin= 6 ErrMin= 1.78D-05
 ErrMax= 1.78D-05  0.00D+00 EMaxC= 1.00D-01 BMatC= 7.13D-08 BMatP= 2.25D-06
 IDIUse=1 WtCom= 1.00D+00 WtEn= 0.00D+00
 Coeff-Com:  0.216D-02-0.116D-01-0.139D-01 0.160D-01 0.165D+00 0.843D+00
 Coeff:      0.216D-02-0.116D-01-0.139D-01 0.160D-01 0.165D+00 0.843D+00
 Gap=     0.423 Goal=   None    Shift=    0.000
 RMSDP=6.73D-06 MaxDP=7.91D-05 DE=-1.81D-06 OVMax= 1.09D-04

 Cycle   7  Pass 1  IDiag  1:
 RMSU=  3.97D-06    CP:  9.92D-01  1.12D+00  8.93D-01  1.22D+00  1.10D+00
                    CP:  1.15D+00
 E= -232.385225820976     Delta-E=       -0.000000085667 Rises=F Damp=F
 DIIS: error= 2.23D-06 at cycle   7 NSaved=   7.
 NSaved= 7 IEnMin= 7 EnMin= -232.385225820976     IErMin= 7 ErrMin= 2.23D-06
 ErrMax= 2.23D-06  0.00D+00 EMaxC= 1.00D-01 BMatC= 1.35D-09 BMatP= 7.13D-08
 IDIUse=1 WtCom= 1.00D+00 WtEn= 0.00D+00
 Coeff-Com: -0.127D-03 0.150D-02 0.554D-03-0.210D-01-0.238D-01 0.180D-01
 Coeff-Com:  0.102D+01
 Coeff:     -0.127D-03 0.150D-02 0.554D-03-0.210D-01-0.238D-01 0.180D-01
 Coeff:      0.102D+01
 Gap=     0.423 Goal=   None    Shift=    0.000
 RMSDP=2.17D-06 MaxDP=2.77D-05 DE=-8.57D-08 OVMax= 3.33D-05

 Cycle   8  Pass 1  IDiag  1:
 RMSU=  8.15D-07    CP:  9.92D-01  1.12D+00  8.93D-01  1.22D+00  1.14D+00
                    CP:  1.23D+00  1.22D+00
 E= -232.385225824760     Delta-E=       -0.000000003784 Rises=F Damp=F
 DIIS: error= 8.10D-07 at cycle   8 NSaved=   8.
 NSaved= 8 IEnMin= 8 EnMin= -232.385225824760     IErMin= 8 ErrMin= 8.10D-07
 ErrMax= 8.10D-07  0.00D+00 EMaxC= 1.00D-01 BMatC= 1.91D-10 BMatP= 1.35D-09
 IDIUse=1 WtCom= 1.00D+00 WtEn= 0.00D+00
 Coeff-Com: -0.165D-03 0.110D-02 0.102D-02-0.624D-02-0.161D-01-0.435D-01
 Coeff-Com:  0.251D+00 0.813D+00
 Coeff:     -0.165D-03 0.110D-02 0.102D-02-0.624D-02-0.161D-01-0.435D-01
 Coeff:      0.251D+00 0.813D+00
 Gap=     0.423 Goal=   None    Shift=    0.000
 RMSDP=4.67D-07 MaxDP=5.87D-06 DE=-3.78D-09 OVMax= 8.21D-06

 Cycle   9  Pass 1  IDiag  1:
 RMSU=  2.41D-07    CP:  9.92D-01  1.12D+00  8.93D-01  1.22D+00  1.15D+00
                    CP:  1.25D+00  1.27D+00  1.22D+00
 E= -232.385225825075     Delta-E=       -0.000000000315 Rises=F Damp=F
 DIIS: error= 2.89D-07 at cycle   9 NSaved=   9.
 NSaved= 9 IEnMin= 9 EnMin= -232.385225825075     IErMin= 9 ErrMin= 2.89D-07
 ErrMax= 2.89D-07  0.00D+00 EMaxC= 1.00D-01 BMatC= 2.07D-11 BMatP= 1.91D-10
 IDIUse=1 WtCom= 1.00D+00 WtEn= 0.00D+00
 Coeff-Com: -0.220D-04 0.788D-04 0.170D-03 0.109D-02-0.858D-03-0.114D-01
 Coeff-Com: -0.683D-01 0.200D+00 0.879D+00
 Coeff:     -0.220D-04 0.788D-04 0.170D-03 0.109D-02-0.858D-03-0.114D-01
 Coeff:     -0.683D-01 0.200D+00 0.879D+00
 Gap=     0.423 Goal=   None    Shift=    0.000
 RMSDP=1.69D-07 MaxDP=2.51D-06 DE=-3.15D-10 OVMax= 3.35D-06

 Cycle  10  Pass 1  IDiag  1:
 RMSU=  5.71D-08    CP:  9.92D-01  1.12D+00  8.93D-01  1.22D+00  1.15D+00
                    CP:  1.25D+00  1.28D+00  1.37D+00  1.20D+00
 E= -232.385225825114     Delta-E=       -0.000000000039 Rises=F Damp=F
 DIIS: error= 7.62D-08 at cycle  10 NSaved=  10.
 NSaved=10 IEnMin=10 EnMin= -232.385225825114     IErMin=10 ErrMin= 7.62D-08
 ErrMax= 7.62D-08  0.00D+00 EMaxC= 1.00D-01 BMatC= 4.87D-13 BMatP= 2.07D-11
 IDIUse=1 WtCom= 1.00D+00 WtEn= 0.00D+00
 Coeff-Com:  0.962D-05-0.652D-04-0.640D-04 0.285D-03 0.101D-02 0.293D-02
 Coeff-Com: -0.122D-01-0.559D-01-0.385D-01 0.110D+01
 Coeff:      0.962D-05-0.652D-04-0.640D-04 0.285D-03 0.101D-02 0.293D-02
 Coeff:     -0.122D-01-0.559D-01-0.385D-01 0.110D+01
 Gap=     0.423 Goal=   None    Shift=    0.000
 RMSDP=5.54D-08 MaxDP=8.81D-07 DE=-3.94D-11 OVMax= 9.56D-07

 Cycle  11  Pass 1  IDiag  1:
 RMSU=  1.41D-08    CP:  9.92D-01  1.12D+00  8.93D-01  1.22D+00  1.15D+00
                    CP:  1.25D+00  1.28D+00  1.41D+00  1.32D+00  1.33D+00
 E= -232.385225825118     Delta-E=       -0.000000000004 Rises=F Damp=F
 DIIS: error= 1.35D-08 at cycle  11 NSaved=  11.
 NSaved=11 IEnMin=11 EnMin= -232.385225825118     IErMin=11 ErrMin= 1.35D-08
 ErrMax= 1.35D-08  0.00D+00 EMaxC= 1.00D-01 BMatC= 1.41D-14 BMatP= 4.87D-13
 IDIUse=1 WtCom= 1.00D+00 WtEn= 0.00D+00
 Coeff-Com:  0.271D-06 0.485D-06-0.168D-05-0.521D-04-0.126D-04 0.217D-03
 Coeff-Com:  0.285D-02-0.404D-02-0.244D-01-0.632D-01 0.109D+01
 Coeff:      0.271D-06 0.485D-06-0.168D-05-0.521D-04-0.126D-04 0.217D-03
 Coeff:      0.285D-02-0.404D-02-0.244D-01-0.632D-01 0.109D+01
 Gap=     0.423 Goal=   None    Shift=    0.000
 RMSDP=9.83D-09 MaxDP=1.53D-07 DE=-4.09D-12 OVMax= 1.63D-07

 Error on total polarization charges =  0.02854
 SCF Done:  E(RwB97XD) =  -232.385225825     A.U. after   11 cycles
            NFock= 11  Conv=0.98D-08     -V/T= 2.0096
 KE= 2.301645543048D+02 PE=-9.218576786077D+02 EE= 2.686864780604D+02
 SMD-CDS (non-electrostatic) energy       (kcal/mol) =      -1.54
 (included in total energy above)
 Leave Link  502 at Mon Aug 25 14:24:09 2025, MaxMem=  4294967296 cpu:              79.9 elap:               5.7
 (Enter /opt/apps/Gaussian/G16C/g16/l701.exe)
 ... and contract with generalized density number  0.
 Compute integral first derivatives.
 R6Disp: Adding Grimme-D2 dispersion energy 1st derivatives to the gradient.
 D1PCM: PCM CHGder 1st derivatives, ID1Alg=3 FixD1E=F DoIter=F DoCFld=F I1PDM=0.
 GePol: Maximum number of non-zero 1st derivatives   =     307
 Leave Link  701 at Mon Aug 25 14:24:09 2025, MaxMem=  4294967296 cpu:               6.2 elap:               0.5
 (Enter /opt/apps/Gaussian/G16C/g16/l702.exe)
 L702 exits ... SP integral derivatives will be done elsewhere.
 Leave Link  702 at Mon Aug 25 14:24:09 2025, MaxMem=  4294967296 cpu:               0.0 elap:               0.0
 (Enter /opt/apps/Gaussian/G16C/g16/l703.exe)
 Integral derivatives from FoFJK, PRISM(SPDF).
 Compute integral first derivatives, UseDBF=F ICtDFT=           0.
 Calling FoFJK, ICntrl=      2127 FMM=F ISym2X=0 I1Cent= 0 IOpClX= 0 NMat=1 NMatS=1 NMatT=0.
 FoFJK:  IHMeth= 1 ICntrl=    2127 DoSepK=T KAlg= 0 I1Cent=           0 FoldK=F
 IRaf=         1 NMat=       1 IRICut=       1 DoRegI=T DoRafI=F ISym2E= 0 IDoP0=0 IntGTp=1.
 FoFCou: FMM=F IPFlag=           0 FMFlag=      100000 FMFlg1=         800
         NFxFlg=           0 DoJE=F BraDBF=F KetDBF=F FulRan=T
         wScrn=  0.000000 ICntrl=      2527 IOpCl=  0 I1Cent=           0 NGrid=           0
         NMat0=    1 NMatS0=      1 NMatT0=    0 NMatD0=    1 NMtDS0=    0 NMtDT0=    0
 Symmetry not used in FoFCou.
 Leave Link  703 at Mon Aug 25 14:24:10 2025, MaxMem=  4294967296 cpu:               9.9 elap:               0.7
 (Enter /opt/apps/Gaussian/G16C/g16/l716.exe)
 Dipole        = 1.78640710D-01 7.91524970D-01 3.49766117D-01
 -------------------------------------------------------------------
 Center     Atomic                   Forces (Hartrees/Bohr)
 Number     Number              X              Y              Z
 -------------------------------------------------------------------
      1        6           0.011236941   -0.000870366   -0.015194187
      2        8           0.003606381    0.001338437    0.010743112
      3        6          -0.009710218    0.005614729    0.006481047
      4        6          -0.002534976   -0.005912541    0.001397114
      5        6          -0.000916191    0.000997311   -0.003417082
      6        1          -0.000185891   -0.001952830   -0.006929101
      7        1           0.000847825    0.000615009    0.004887978
      8        1           0.005658417   -0.001620673    0.000492132
      9        1          -0.007398903   -0.003849253   -0.002558000
     10        1          -0.004074721    0.003767519    0.002587393
     11        1           0.004043604   -0.001730029   -0.001971307
     12        1           0.003682207   -0.000594159    0.003246785
     13        1          -0.004254476    0.004196846    0.000234117
 -------------------------------------------------------------------
 Cartesian Forces:  Max     0.015194187 RMS     0.005117967
 Leave Link  716 at Mon Aug 25 14:24:10 2025, MaxMem=  4294967296 cpu:               0.0 elap:               0.0
 (Enter /opt/apps/Gaussian/G16C/g16/l103.exe)

 GradGradGradGradGradGradGradGradGradGradGradGradGradGradGradGradGradGrad
 Berny optimization.
 Using GEDIIS/GDIIS optimizer.
 FormGI is forming the generalized inverse of G from B-inverse, IUseBI=4.
 Internal  Forces:  Max     0.012969545 RMS     0.003167807
 Search for a local minimum.
 Step number   2 out of a maximum of   81
 All quantities printed in internal units (Hartrees-Bohrs-Radians)
 RMS Force = .31678D-02 SwitMx=.10000D-02 MixMth= 1
 Mixed Optimization -- RFO/linear search
 Update second derivatives using D2CorX and points    1    2
 DE= -1.81D-02 DEPred=-2.18D-02 R= 8.29D-01
 TightC=F SS=  1.41D+00  RLast= 6.01D-01 DXNew= 5.0454D-01 1.8015D+00
 Trust test= 8.29D-01 RLast= 6.01D-01 DXMaxT set to 5.05D-01
 ITU=  1  0
 Use linear search instead of GDIIS.
     Eigenvalues ---    0.00526   0.01435   0.02723   0.03618   0.04466
     Eigenvalues ---    0.05158   0.05364   0.05895   0.06244   0.06569
     Eigenvalues ---    0.06659   0.06976   0.07562   0.09528   0.10569
     Eigenvalues ---    0.10755   0.11089   0.12450   0.19970   0.23019
     Eigenvalues ---    0.26843   0.27620   0.30778   0.31670   0.35643
     Eigenvalues ---    0.37230   0.37230   0.37230   0.37230   0.37230
     Eigenvalues ---    0.37230   0.37402   0.41494
 RFO step:  Lambda=-9.22487404D-03 EMin= 5.25668712D-03
 Quartic linear search produced a step of  0.26567.
 Iteration  1 RMS(Cart)=  0.05650439 RMS(Int)=  0.00318444
 Iteration  2 RMS(Cart)=  0.00331347 RMS(Int)=  0.00076697
 Iteration  3 RMS(Cart)=  0.00001007 RMS(Int)=  0.00076691
 Iteration  4 RMS(Cart)=  0.00000000 RMS(Int)=  0.00076691
 ITry= 1 IFail=0 DXMaxC= 1.93D-01 DCOld= 1.00D+10 DXMaxT= 5.05D-01 DXLimC= 3.00D+00 Rises=F
 Variable       Old X    -DE/DX   Delta X   Delta X   Delta X     New X
                                 (Linear)    (Quad)   (Total)
    R1        2.75164  -0.01297  -0.01258  -0.03942  -0.05254   2.69909
    R2        2.87967  -0.00008   0.01087  -0.00562   0.00521   2.88488
    R3        2.06397  -0.00081   0.01115  -0.01151  -0.00036   2.06360
    R4        2.06836   0.00440   0.01231   0.00388   0.01619   2.08455
    R5        2.71988  -0.00978   0.00408  -0.02951  -0.02559   2.69429
    R6        2.93286  -0.00109   0.00147  -0.00622  -0.00444   2.92842
    R7        2.06901   0.00401   0.01249   0.00251   0.01500   2.08401
    R8        2.06332  -0.00048   0.01097  -0.01035   0.00062   2.06394
    R9        2.93336  -0.00489   0.01766  -0.03211  -0.01406   2.91930
   R10        2.06648   0.00064   0.01181  -0.00751   0.00431   2.07079
   R11        2.06506   0.00059   0.01144  -0.00736   0.00408   2.06914
   R12        2.06494   0.00045   0.01141  -0.00777   0.00363   2.06857
   R13        2.06517   0.00235   0.01147  -0.00185   0.00962   2.07479
    A1        1.74725   0.00739   0.00293   0.05850   0.05923   1.80648
    A2        1.94827  -0.00545  -0.00851  -0.05022  -0.05798   1.89028
    A3        1.88425  -0.00090  -0.01512   0.01917   0.00395   1.88820
    A4        2.02870  -0.00196   0.01781  -0.03382  -0.01464   2.01406
    A5        1.95641  -0.00119  -0.00041  -0.00111  -0.00225   1.95416
    A6        1.89169   0.00211   0.00165   0.01138   0.01215   1.90384
    A7        1.77900  -0.00410   0.03647  -0.02204   0.01176   1.79076
    A8        1.83949   0.00459  -0.00265   0.03177   0.02641   1.86590
    A9        1.86492  -0.00102   0.01094   0.02031   0.03084   1.89575
   A10        1.96909  -0.00544  -0.01550  -0.07435  -0.08922   1.87987
   A11        1.87979   0.00059  -0.00501   0.03479   0.02880   1.90859
   A12        2.01560   0.00110   0.01666  -0.01650   0.00056   2.01616
   A13        1.88772   0.00025  -0.00437   0.01104   0.00662   1.89434
   A14        1.77114  -0.00128   0.00527   0.00801   0.01213   1.78327
   A15        1.89106   0.00185   0.00823   0.02634   0.03554   1.92660
   A16        1.99103  -0.00038  -0.01620  -0.01394  -0.03004   1.96099
   A17        2.02061  -0.00136  -0.00633  -0.03675  -0.04319   1.97742
   A18        1.89938   0.00141   0.00845   0.01936   0.02879   1.92817
   A19        1.89204  -0.00033  -0.00047  -0.00409  -0.00442   1.88762
   A20        1.80346  -0.00555   0.01106  -0.02780  -0.01909   1.78437
   A21        2.03809   0.00223  -0.00707  -0.01726  -0.02479   2.01330
   A22        1.83176   0.00134  -0.00112   0.03951   0.03927   1.87103
   A23        2.02854   0.00146   0.01080  -0.02003  -0.00931   2.01923
   A24        1.86136   0.00194  -0.01364   0.03585   0.02277   1.88413
   A25        1.88422  -0.00132  -0.00171   0.00049  -0.00115   1.88307
    D1        0.92542  -0.00022  -0.03798  -0.03983  -0.07810   0.84732
    D2        3.08307  -0.00073  -0.01920  -0.06884  -0.08971   2.99336
    D3       -1.12273  -0.00193  -0.03317  -0.07240  -0.10573  -1.22846
    D4       -0.72602  -0.00087   0.03691   0.01400   0.05112  -0.67490
    D5       -2.97613   0.00026   0.01845   0.07623   0.09480  -2.88133
    D6        1.22166  -0.00038   0.02585   0.05695   0.08281   1.30447
    D7       -2.82650   0.00175   0.03694   0.05249   0.08972  -2.73678
    D8        1.20658   0.00288   0.01849   0.11472   0.13340   1.33998
    D9       -0.87882   0.00225   0.02589   0.09544   0.12141  -0.75740
   D10        1.26769   0.00153   0.02096   0.06624   0.08710   1.35479
   D11       -0.98242   0.00266   0.00251   0.12847   0.13078  -0.85164
   D12       -3.06782   0.00203   0.00991   0.10919   0.11879  -2.94902
   D13       -0.76402   0.00165   0.02895   0.05394   0.08336  -0.68066
   D14        1.23250   0.00397   0.02693   0.11683   0.14457   1.37707
   D15       -2.97840   0.00049   0.01997   0.10068   0.12079  -2.85761
   D16        0.28682  -0.00032  -0.01939  -0.02293  -0.04175   0.24507
   D17        2.42188  -0.00172  -0.02043  -0.04900  -0.06872   2.35316
   D18       -1.75232  -0.00105  -0.02554  -0.04440  -0.06914  -1.82146
   D19       -1.69935  -0.00158  -0.02841  -0.07637  -0.10488  -1.80424
   D20        0.43571  -0.00298  -0.02945  -0.10244  -0.13185   0.30386
   D21        2.54469  -0.00231  -0.03456  -0.09783  -0.13227   2.41242
   D22        2.47254  -0.00306  -0.03008  -0.10573  -0.13609   2.33645
   D23       -1.67558  -0.00446  -0.03111  -0.13180  -0.16306  -1.83864
   D24        0.43340  -0.00379  -0.03622  -0.12720  -0.16348   0.26993
   D25        0.26855  -0.00154  -0.01058  -0.00622  -0.01709   0.25146
   D26        2.52452  -0.00216  -0.00413  -0.06629  -0.07049   2.45403
   D27       -1.65727  -0.00148  -0.00930  -0.05162  -0.06093  -1.71820
   D28       -1.77437  -0.00230  -0.02104  -0.02576  -0.04664  -1.82101
   D29        0.48160  -0.00293  -0.01458  -0.08583  -0.10004   0.38156
   D30        2.58300  -0.00224  -0.01975  -0.07116  -0.09048   2.49251
   D31        2.37344  -0.00202  -0.02270  -0.00955  -0.03230   2.34115
   D32       -1.65378  -0.00264  -0.01625  -0.06962  -0.08569  -1.73947
   D33        0.44762  -0.00196  -0.02142  -0.05495  -0.07614   0.37149
         Item               Value     Threshold  Converged?
 Maximum Force            0.012970     0.000015     NO 
 RMS     Force            0.003168     0.000010     NO 
 Maximum Displacement     0.192582     0.000060     NO 
 RMS     Displacement     0.056618     0.000040     NO 
 Predicted change in Energy=-5.568958D-03
 Lowest energy point so far.  Saving SCF results.
 GradGradGradGradGradGradGradGradGradGradGradGradGradGradGradGradGradGrad

 Leave Link  103 at Mon Aug 25 14:24:10 2025, MaxMem=  4294967296 cpu:               0.1 elap:               0.0
 (Enter /opt/apps/Gaussian/G16C/g16/l202.exe)
                          Input orientation:                          
 ---------------------------------------------------------------------
 Center     Atomic      Atomic             Coordinates (Angstroms)
 Number     Number       Type             X           Y           Z
 ---------------------------------------------------------------------
      1          6           0       -1.708100    0.328878    0.747043
      2          8           0       -1.009608   -0.437460   -0.235236
      3          6           0        0.107683    0.393605   -0.541459
      4          6           0       -0.408095    1.854832   -0.556113
      5          6           0       -1.789189    1.719626    0.122709
      6          1           0       -2.668066   -0.154478    0.940227
      7          1           0       -1.110361    0.327014    1.674150
      8          1           0        0.860392    0.279704    0.256446
      9          1           0        0.539360    0.037594   -1.479431
     10          1           0        0.281221    2.508443   -0.009816
     11          1           0       -0.517569    2.247685   -1.572270
     12          1           0       -2.061187    2.526890    0.810155
     13          1           0       -2.551431    1.677371   -0.666377
 ---------------------------------------------------------------------
                    Distance matrix (angstroms):
                    1          2          3          4          5
     1  C    0.000000
     2  O    1.428298   0.000000
     3  C    2.227441   1.425757   0.000000
     4  C    2.390974   2.391523   1.549653   0.000000
     5  C    1.526613   2.321399   2.407815   1.544830   0.000000
     6  H    1.092012   2.052383   3.193834   3.373992   2.225540
     7  H    1.103097   2.059206   2.529227   2.793112   2.192521
     8  H    2.615388   2.062275   1.102813   2.179527   3.018533
     9  H    3.176965   2.042793   1.092191   2.247786   3.289107
    10  H    3.046429   3.224190   2.187532   1.095812   2.219547
    11  H    3.237034   3.039698   2.211588   1.094940   2.183761
    12  H    2.227085   3.314518   3.328928   2.247456   1.094641
    13  H    2.127768   2.652473   2.955427   2.153495   1.097933
                    6          7          8          9         10
     6  H    0.000000
     7  H    1.787994   0.000000
     8  H    3.620233   2.428167   0.000000
     9  H    4.022340   3.570773   1.781838   0.000000
    10  H    4.085587   3.087211   2.318105   2.886433   0.000000
    11  H    4.087501   3.818327   3.019259   2.451575   1.774070
    12  H    2.752264   2.547550   3.727206   4.266338   2.481847
    13  H    2.439355   3.062387   3.800739   3.592063   3.024181
                   11         12         13
    11  H    0.000000
    12  H    2.852482   0.000000
    13  H    2.298368   1.772617   0.000000
 Symmetry turned off by external request.
 Stoichiometry    C4H8O
 Framework group  C1[X(C4H8O)]
 Deg. of freedom    33
 Full point group                 C1      NOp   1
 Rotational constants (GHZ):           7.2451600           6.8904993           4.0644379
 Leave Link  202 at Mon Aug 25 14:24:10 2025, MaxMem=  4294967296 cpu:               0.0 elap:               0.0
 (Enter /opt/apps/Gaussian/G16C/g16/l301.exe)
 Standard basis: 6-31+G(d) (6D, 7F)
 Ernie: Thresh=  0.10000D-02 Tol=  0.10000D-05 Strict=F.
   111 basis functions,   192 primitive gaussians,   111 cartesian basis functions
    20 alpha electrons       20 beta electrons
       nuclear repulsion energy       190.9635711151 Hartrees.
 IExCor= 4639 DFT=T Ex+Corr=wB97XD ExCW=0 ScaHFX=  1.000000
 ScaDFX=  1.000000  1.000000  1.000000  1.000000 ScalE2=  1.000000  1.000000
 IRadAn=      5 IRanWt=     -1 IRanGd=            0 ICorTp=0 IEmpDi=121
 HFx  wShort=  0.000000 wLong=  0.200000 cFull=  0.222036 cShort=  0.000000 cLong=  0.777964
 DFx  wShort=  0.000000 wLong=  0.200000 cFull=  0.000000 cShort=  0.000000 cLong=  1.000000
 NAtoms=   13 NActive=   13 NUniq=   13 SFac= 1.00D+00 NAtFMM=   60 NAOKFM=F Big=F
 Integral buffers will be    131072 words long.
 Raffenetti 2 integral format.
 Two-electron integral symmetry is turned off.
 R6Disp:  Grimme-D2 Dispersion energy=       -0.0056577228 Hartrees.
 Nuclear repulsion after empirical dispersion term =      190.9579133923 Hartrees.
 ------------------------------------------------------------------------------
 Polarizable Continuum Model (PCM)
 =================================
 Model                : PCM.
 Atomic radii         : SMD-Coulomb.
 Polarization charges : Total charges.
 Charge compensation  : None.
 Solution method      : On-the-fly selection.
 Cavity type          : VdW (van der Waals Surface) (Alpha=1.000).
 Cavity algorithm     : GePol (No added spheres)
                        Default sphere list used, NSphG=   13.
                        Lebedev-Laikov grids with approx.  5.0 points / Ang**2.
                        Smoothing algorithm: York/Karplus (Gamma=1.0000).
                        Polarization charges: spherical gaussians, with
                                              point-specific exponents (IZeta= 3).
                        Self-potential: point-specific (ISelfS= 7).
                        Self-field    : sphere-specific E.n sum rule (ISelfD= 2).
 1st derivatives      : Analytical E(r).r(x)/FMM algorithm (CHGder, D1EAlg=3).
                        Cavity 1st derivative terms included.
 Solvent              : TetraHydroFuran, Eps=   7.425700 Eps(inf)=   1.974025
 ------------------------------------------------------------------------------
 Spheres list:
 ISph  on   Nord     Re0    Alpha      Xe            Ye            Ze
    1   C      1    1.8500  1.000     -1.708100      0.328878      0.747043
    2   O      2    2.2940  1.000     -1.009608     -0.437460     -0.235236
    3   C      3    1.8500  1.000      0.107683      0.393605     -0.541459
    4   C      4    1.8500  1.000     -0.408095      1.854832     -0.556113
    5   C      5    1.8500  1.000     -1.789189      1.719626      0.122709
    6   H      6    1.2000  1.000     -2.668066     -0.154478      0.940227
    7   H      7    1.2000  1.000     -1.110361      0.327014      1.674150
    8   H      8    1.2000  1.000      0.860392      0.279704      0.256446
    9   H      9    1.2000  1.000      0.539360      0.037594     -1.479431
   10   H     10    1.2000  1.000      0.281221      2.508443     -0.009816
   11   H     11    1.2000  1.000     -0.517569      2.247685     -1.572270
   12   H     12    1.2000  1.000     -2.061187      2.526890      0.810155
   13   H     13    1.2000  1.000     -2.551431      1.677371     -0.666377
 ------------------------------------------------------------------------------
 GePol: Number of generator spheres                  =      13
 GePol: Total number of spheres                      =      13
 GePol: Number of exposed spheres                    =      13 (100.00%)
 GePol: Number of points                             =     986
 GePol: Average weight of points                     =       0.12
 GePol: Minimum weight of points                     =   0.96D-08
 GePol: Maximum weight of points                     =    0.17992
 GePol: Number of points with low weight             =      48
 GePol: Fraction of low-weight points (<1% of avg)   =       4.87%
 GePol: Cavity surface area                          =    115.144 Ang**2
 GePol: Cavity volume                                =     98.407 Ang**3
 ------------------------------------------------------------------------------
 Atomic radii for non-electrostatic terms: SMD-CDS.
 ------------------------------------------------------------------------------
 PCM non-electrostatic energy =        -0.0025490430 Hartrees.
 Nuclear repulsion after PCM non-electrostatic terms =      190.9553643493 Hartrees.
 Leave Link  301 at Mon Aug 25 14:24:10 2025, MaxMem=  4294967296 cpu:               0.1 elap:               0.0
 (Enter /opt/apps/Gaussian/G16C/g16/l302.exe)
 NPDir=0 NMtPBC=     1 NCelOv=     1 NCel=       1 NClECP=     1 NCelD=      1
         NCelK=      1 NCelE2=     1 NClLst=     1 CellRange=     0.0.
 One-electron integrals computed using PRISM.
 NBasis=   111 RedAO= T EigKep=  3.69D-05  NBF=   111
 NBsUse=   111 1.00D-06 EigRej= -1.00D+00 NBFU=   111
 Precomputing XC quadrature grid using
 IXCGrd= 4 IRadAn=           5 IRanWt=          -1 IRanGd=           0 AccXCQ= 0.00D+00.
 Generated NRdTot=       0 NPtTot=           0 NUsed=           0 NTot=          32
 NSgBfM=   111   111   111   111   111 MxSgAt=    13 MxSgA2=    13.
 Leave Link  302 at Mon Aug 25 14:24:10 2025, MaxMem=  4294967296 cpu:               0.7 elap:               0.1
 (Enter /opt/apps/Gaussian/G16C/g16/l303.exe)
 DipDrv:  MaxL=1.
 Leave Link  303 at Mon Aug 25 14:24:10 2025, MaxMem=  4294967296 cpu:               0.1 elap:               0.0
 (Enter /opt/apps/Gaussian/G16C/g16/l401.exe)
 Initial guess from the checkpoint file:  "THF-dzpop.chk"
 B after Tr=     0.038126    0.018885    0.059121
         Rot=    0.999948    0.008004    0.002381   -0.005897 Ang=   1.17 deg.
 Guess basis will be translated and rotated to current coordinates.
 JPrj=2 DoOrth=T DoCkMO=T.
 Generating alternative initial guess.
 ExpMin= 4.38D-02 ExpMax= 5.48D+03 ExpMxC= 8.25D+02 IAcc=3 IRadAn=         5 AccDes= 0.00D+00
 Harris functional with IExCor= 4639 and IRadAn=       5 diagonalized for initial guess.
 HarFok:  IExCor= 4639 AccDes= 0.00D+00 IRadAn=         5 IDoV= 1 UseB2=F ITyADJ=14
 ICtDFT=  3500011 ScaDFX=  1.000000  1.000000  1.000000  1.000000
 FoFCou: FMM=F IPFlag=           0 FMFlag=      100000 FMFlg1=           0
         NFxFlg=           0 DoJE=T BraDBF=F KetDBF=T FulRan=T
         wScrn=  0.000000 ICntrl=       500 IOpCl=  0 I1Cent=   200000004 NGrid=           0
         NMat0=    1 NMatS0=      1 NMatT0=    0 NMatD0=    1 NMtDS0=    0 NMtDT0=    0
 Symmetry not used in FoFCou.
 Harris En= -222.057631081432    
 Leave Link  401 at Mon Aug 25 14:24:11 2025, MaxMem=  4294967296 cpu:               3.3 elap:               0.3
 (Enter /opt/apps/Gaussian/G16C/g16/l502.exe)
 Two-electron integral symmetry not used.
 Closed shell SCF:
 Using DIIS extrapolation, IDIIS=  1040.
 NGot=  4294967296 LenX=  4294939455 LenY=  4294926693
 Requested convergence on RMS density matrix=1.00D-08 within 128 cycles.
 Requested convergence on MAX density matrix=1.00D-06.
 Requested convergence on             energy=1.00D-06.
 No special actions if energy rises.
 Fock matrices will be formed incrementally for  20 cycles.

 Cycle   1  Pass 1  IDiag  1:
 FoFJK:  IHMeth= 1 ICntrl=       0 DoSepK=T KAlg= 0 I1Cent=           0 FoldK=F
 IRaf=         1 NMat=       1 IRICut=       1 DoRegI=T DoRafI=F ISym2E= 0 IDoP0=0 IntGTp=1.
 FoFCou: FMM=F IPFlag=           0 FMFlag=      100000 FMFlg1=           0
         NFxFlg=           0 DoJE=T BraDBF=F KetDBF=F FulRan=T
         wScrn=  0.000000 ICntrl=       500 IOpCl=  0 I1Cent=           0 NGrid=           0
         NMat0=    1 NMatS0=      1 NMatT0=    0 NMatD0=    1 NMtDS0=    0 NMtDT0=    0
 Symmetry not used in FoFCou.
 Inv3:  Mode=1 IEnd=     2916588.
 Iteration    1 A*A^-1 deviation from unit magnitude is 3.89D-15 for    981.
 Iteration    1 A*A^-1 deviation from orthogonality  is 1.66D-15 for    972    859.
 Iteration    1 A^-1*A deviation from unit magnitude is 3.89D-15 for    981.
 Iteration    1 A^-1*A deviation from orthogonality  is 8.35D-14 for    391    365.
 E= -232.384952246602    
 DIIS: error= 3.42D-03 at cycle   1 NSaved=   1.
 NSaved= 1 IEnMin= 1 EnMin= -232.384952246602     IErMin= 1 ErrMin= 3.42D-03
 ErrMax= 3.42D-03  0.00D+00 EMaxC= 1.00D-01 BMatC= 3.21D-03 BMatP= 3.21D-03
 IDIUse=3 WtCom= 9.66D-01 WtEn= 3.42D-02
 Coeff-Com:  0.100D+01
 Coeff-En:   0.100D+01
 Coeff:      0.100D+01
 Gap=     0.854 Goal=   None    Shift=    0.000
 GapD=    0.854 DampG=2.000 DampE=1.000 DampFc=2.0000 IDamp=-1.
 RMSDP=1.13D-03 MaxDP=1.87D-02              OVMax= 1.73D-02

 Cycle   2  Pass 1  IDiag  1:
 RMSU=  1.13D-03    CP:  9.98D-01
 E= -232.390704428315     Delta-E=       -0.005752181713 Rises=F Damp=F
 DIIS: error= 7.16D-04 at cycle   2 NSaved=   2.
 NSaved= 2 IEnMin= 2 EnMin= -232.390704428315     IErMin= 2 ErrMin= 7.16D-04
 ErrMax= 7.16D-04  0.00D+00 EMaxC= 1.00D-01 BMatC= 1.46D-04 BMatP= 3.21D-03
 IDIUse=3 WtCom= 9.93D-01 WtEn= 7.16D-03
 Coeff-Com: -0.177D+00 0.118D+01
 Coeff-En:   0.000D+00 0.100D+01
 Coeff:     -0.176D+00 0.118D+01
 Gap=     0.421 Goal=   None    Shift=    0.000
 RMSDP=3.15D-04 MaxDP=3.42D-03 DE=-5.75D-03 OVMax= 5.51D-03

 Cycle   3  Pass 1  IDiag  1:
 RMSU=  2.47D-04    CP:  9.98D-01  1.17D+00
 E= -232.391048090539     Delta-E=       -0.000343662223 Rises=F Damp=F
 DIIS: error= 2.86D-04 at cycle   3 NSaved=   3.
 NSaved= 3 IEnMin= 3 EnMin= -232.391048090539     IErMin= 3 ErrMin= 2.86D-04
 ErrMax= 2.86D-04  0.00D+00 EMaxC= 1.00D-01 BMatC= 2.30D-05 BMatP= 1.46D-04
 IDIUse=3 WtCom= 9.97D-01 WtEn= 2.86D-03
 Coeff-Com: -0.711D-01 0.348D+00 0.723D+00
 Coeff-En:   0.000D+00 0.000D+00 0.100D+01
 Coeff:     -0.709D-01 0.347D+00 0.724D+00
 Gap=     0.422 Goal=   None    Shift=    0.000
 RMSDP=6.57D-05 MaxDP=1.26D-03 DE=-3.44D-04 OVMax= 1.39D-03

 Cycle   4  Pass 1  IDiag  1:
 RMSU=  6.35D-05    CP:  9.98D-01  1.18D+00  1.04D+00
 E= -232.391067148488     Delta-E=       -0.000019057949 Rises=F Damp=F
 DIIS: error= 1.75D-04 at cycle   4 NSaved=   4.
 NSaved= 4 IEnMin= 4 EnMin= -232.391067148488     IErMin= 4 ErrMin= 1.75D-04
 ErrMax= 1.75D-04  0.00D+00 EMaxC= 1.00D-01 BMatC= 6.58D-06 BMatP= 2.30D-05
 IDIUse=3 WtCom= 9.98D-01 WtEn= 1.75D-03
 Coeff-Com: -0.242D-02-0.417D-01 0.338D+00 0.706D+00
 Coeff-En:   0.000D+00 0.000D+00 0.000D+00 0.100D+01
 Coeff:     -0.241D-02-0.416D-01 0.338D+00 0.706D+00
 Gap=     0.421 Goal=   None    Shift=    0.000
 RMSDP=3.21D-05 MaxDP=5.74D-04 DE=-1.91D-05 OVMax= 6.00D-04

 Cycle   5  Pass 1  IDiag  1:
 RMSU=  2.40D-05    CP:  9.98D-01  1.19D+00  1.12D+00  1.06D+00
 E= -232.391072737235     Delta-E=       -0.000005588747 Rises=F Damp=F
 DIIS: error= 2.93D-05 at cycle   5 NSaved=   5.
 NSaved= 5 IEnMin= 5 EnMin= -232.391072737235     IErMin= 5 ErrMin= 2.93D-05
 ErrMax= 2.93D-05  0.00D+00 EMaxC= 1.00D-01 BMatC= 2.23D-07 BMatP= 6.58D-06
 IDIUse=1 WtCom= 1.00D+00 WtEn= 0.00D+00
 Coeff-Com:  0.435D-02-0.377D-01 0.464D-01 0.196D+00 0.791D+00
 Coeff:      0.435D-02-0.377D-01 0.464D-01 0.196D+00 0.791D+00
 Gap=     0.421 Goal=   None    Shift=    0.000
 RMSDP=1.21D-05 MaxDP=1.88D-04 DE=-5.59D-06 OVMax= 1.86D-04

 Cycle   6  Pass 1  IDiag  1:
 RMSU=  8.63D-06    CP:  9.98D-01  1.19D+00  1.14D+00  1.13D+00  1.19D+00
 E= -232.391073004316     Delta-E=       -0.000000267080 Rises=F Damp=F
 DIIS: error= 9.67D-06 at cycle   6 NSaved=   6.
 NSaved= 6 IEnMin= 6 EnMin= -232.391073004316     IErMin= 6 ErrMin= 9.67D-06
 ErrMax= 9.67D-06  0.00D+00 EMaxC= 1.00D-01 BMatC= 2.59D-08 BMatP= 2.23D-07
 IDIUse=1 WtCom= 1.00D+00 WtEn= 0.00D+00
 Coeff-Com:  0.178D-02-0.861D-02-0.194D-01-0.109D-01 0.258D+00 0.779D+00
 Coeff:      0.178D-02-0.861D-02-0.194D-01-0.109D-01 0.258D+00 0.779D+00
 Gap=     0.421 Goal=   None    Shift=    0.000
 RMSDP=5.23D-06 MaxDP=7.76D-05 DE=-2.67D-07 OVMax= 6.57D-05

 Cycle   7  Pass 1  IDiag  1:
 RMSU=  1.87D-06    CP:  9.98D-01  1.19D+00  1.14D+00  1.17D+00  1.35D+00
                    CP:  1.10D+00
 E= -232.391073038151     Delta-E=       -0.000000033835 Rises=F Damp=F
 DIIS: error= 1.85D-06 at cycle   7 NSaved=   7.
 NSaved= 7 IEnMin= 7 EnMin= -232.391073038151     IErMin= 7 ErrMin= 1.85D-06
 ErrMax= 1.85D-06  0.00D+00 EMaxC= 1.00D-01 BMatC= 5.63D-10 BMatP= 2.59D-08
 IDIUse=1 WtCom= 1.00D+00 WtEn= 0.00D+00
 Coeff-Com: -0.215D-03 0.186D-02-0.303D-02-0.114D-01-0.389D-01 0.288D-01
 Coeff-Com:  0.102D+01
 Coeff:     -0.215D-03 0.186D-02-0.303D-02-0.114D-01-0.389D-01 0.288D-01
 Coeff:      0.102D+01
 Gap=     0.421 Goal=   None    Shift=    0.000
 RMSDP=1.97D-06 MaxDP=3.04D-05 DE=-3.38D-08 OVMax= 2.47D-05

 Cycle   8  Pass 1  IDiag  1:
 RMSU=  5.71D-07    CP:  9.98D-01  1.19D+00  1.14D+00  1.18D+00  1.41D+00
                    CP:  1.22D+00  1.20D+00
 E= -232.391073039814     Delta-E=       -0.000000001663 Rises=F Damp=F
 DIIS: error= 5.70D-07 at cycle   8 NSaved=   8.
 NSaved= 8 IEnMin= 8 EnMin= -232.391073039814     IErMin= 8 ErrMin= 5.70D-07
 ErrMax= 5.70D-07  0.00D+00 EMaxC= 1.00D-01 BMatC= 3.16D-11 BMatP= 5.63D-10
 IDIUse=1 WtCom= 1.00D+00 WtEn= 0.00D+00
 Coeff-Com: -0.130D-03 0.702D-03 0.120D-02 0.523D-04-0.185D-01-0.503D-01
 Coeff-Com:  0.345D-01 0.103D+01
 Coeff:     -0.130D-03 0.702D-03 0.120D-02 0.523D-04-0.185D-01-0.503D-01
 Coeff:      0.345D-01 0.103D+01
 Gap=     0.421 Goal=   None    Shift=    0.000
 RMSDP=4.76D-07 MaxDP=7.35D-06 DE=-1.66D-09 OVMax= 7.49D-06

 Cycle   9  Pass 1  IDiag  1:
 RMSU=  1.06D-07    CP:  9.98D-01  1.19D+00  1.14D+00  1.18D+00  1.42D+00
                    CP:  1.25D+00  1.29D+00  1.35D+00
 E= -232.391073039921     Delta-E=       -0.000000000107 Rises=F Damp=F
 DIIS: error= 1.07D-07 at cycle   9 NSaved=   9.
 NSaved= 9 IEnMin= 9 EnMin= -232.391073039921     IErMin= 9 ErrMin= 1.07D-07
 ErrMax= 1.07D-07  0.00D+00 EMaxC= 1.00D-01 BMatC= 1.75D-12 BMatP= 3.16D-11
 IDIUse=1 WtCom= 1.00D+00 WtEn= 0.00D+00
 Coeff-Com:  0.159D-05-0.361D-04 0.195D-03 0.395D-03 0.847D-03-0.379D-02
 Coeff-Com: -0.374D-01 0.266D-01 0.101D+01
 Coeff:      0.159D-05-0.361D-04 0.195D-03 0.395D-03 0.847D-03-0.379D-02
 Coeff:     -0.374D-01 0.266D-01 0.101D+01
 Gap=     0.421 Goal=   None    Shift=    0.000
 RMSDP=7.54D-08 MaxDP=1.46D-06 DE=-1.07D-10 OVMax= 1.65D-06

 Cycle  10  Pass 1  IDiag  1:
 RMSU=  2.58D-08    CP:  9.98D-01  1.19D+00  1.14D+00  1.18D+00  1.42D+00
                    CP:  1.25D+00  1.30D+00  1.46D+00  1.23D+00
 E= -232.391073039930     Delta-E=       -0.000000000009 Rises=F Damp=F
 DIIS: error= 4.67D-08 at cycle  10 NSaved=  10.
 NSaved=10 IEnMin=10 EnMin= -232.391073039930     IErMin=10 ErrMin= 4.67D-08
 ErrMax= 4.67D-08  0.00D+00 EMaxC= 1.00D-01 BMatC= 4.53D-13 BMatP= 1.75D-12
 IDIUse=1 WtCom= 1.00D+00 WtEn= 0.00D+00
 Coeff-Com:  0.128D-04-0.800D-04-0.451D-04 0.125D-03 0.206D-02 0.347D-02
 Coeff-Com: -0.156D-01-0.931D-01 0.365D+00 0.739D+00
 Coeff:      0.128D-04-0.800D-04-0.451D-04 0.125D-03 0.206D-02 0.347D-02
 Coeff:     -0.156D-01-0.931D-01 0.365D+00 0.739D+00
 Gap=     0.421 Goal=   None    Shift=    0.000
 RMSDP=2.01D-08 MaxDP=2.96D-07 DE=-8.61D-12 OVMax= 4.16D-07

 Cycle  11  Pass 1  IDiag  1:
 RMSU=  8.78D-09    CP:  9.98D-01  1.19D+00  1.14D+00  1.18D+00  1.42D+00
                    CP:  1.25D+00  1.30D+00  1.48D+00  1.34D+00  1.16D+00
 E= -232.391073039930     Delta-E=        0.000000000000 Rises=F Damp=F
 DIIS: error= 9.38D-09 at cycle  11 NSaved=  11.
 NSaved=11 IEnMin=10 EnMin= -232.391073039930     IErMin=11 ErrMin= 9.38D-09
 ErrMax= 9.38D-09  0.00D+00 EMaxC= 1.00D-01 BMatC= 1.13D-14 BMatP= 4.53D-13
 IDIUse=1 WtCom= 1.00D+00 WtEn= 0.00D+00
 Coeff-Com: -0.257D-07 0.172D-05-0.143D-04-0.297D-04-0.502D-04 0.358D-03
 Coeff-Com:  0.303D-02-0.485D-02-0.685D-01 0.215D-01 0.105D+01
 Coeff:     -0.257D-07 0.172D-05-0.143D-04-0.297D-04-0.502D-04 0.358D-03
 Coeff:      0.303D-02-0.485D-02-0.685D-01 0.215D-01 0.105D+01
 Gap=     0.421 Goal=   None    Shift=    0.000
 RMSDP=7.48D-09 MaxDP=1.08D-07 DE= 3.13D-13 OVMax= 1.47D-07

 Error on total polarization charges =  0.02876
 SCF Done:  E(RwB97XD) =  -232.391073040     A.U. after   11 cycles
            NFock= 11  Conv=0.75D-08     -V/T= 2.0095
 KE= 2.302109781809D+02 PE=-9.225359624834D+02 EE= 2.689785469132D+02
 SMD-CDS (non-electrostatic) energy       (kcal/mol) =      -1.60
 (included in total energy above)
 Leave Link  502 at Mon Aug 25 14:24:16 2025, MaxMem=  4294967296 cpu:              76.8 elap:               5.5
 (Enter /opt/apps/Gaussian/G16C/g16/l701.exe)
 ... and contract with generalized density number  0.
 Compute integral first derivatives.
 R6Disp: Adding Grimme-D2 dispersion energy 1st derivatives to the gradient.
 D1PCM: PCM CHGder 1st derivatives, ID1Alg=3 FixD1E=F DoIter=F DoCFld=F I1PDM=0.
 GePol: Maximum number of non-zero 1st derivatives   =     303
 Leave Link  701 at Mon Aug 25 14:24:16 2025, MaxMem=  4294967296 cpu:               3.9 elap:               0.3
 (Enter /opt/apps/Gaussian/G16C/g16/l702.exe)
 L702 exits ... SP integral derivatives will be done elsewhere.
 Leave Link  702 at Mon Aug 25 14:24:16 2025, MaxMem=  4294967296 cpu:               0.0 elap:               0.0
 (Enter /opt/apps/Gaussian/G16C/g16/l703.exe)
 Integral derivatives from FoFJK, PRISM(SPDF).
 Compute integral first derivatives, UseDBF=F ICtDFT=           0.
 Calling FoFJK, ICntrl=      2127 FMM=F ISym2X=0 I1Cent= 0 IOpClX= 0 NMat=1 NMatS=1 NMatT=0.
 FoFJK:  IHMeth= 1 ICntrl=    2127 DoSepK=T KAlg= 0 I1Cent=           0 FoldK=F
 IRaf=         1 NMat=       1 IRICut=       1 DoRegI=T DoRafI=F ISym2E= 0 IDoP0=0 IntGTp=1.
 FoFCou: FMM=F IPFlag=           0 FMFlag=      100000 FMFlg1=         800
         NFxFlg=           0 DoJE=F BraDBF=F KetDBF=F FulRan=T
         wScrn=  0.000000 ICntrl=      2527 IOpCl=  0 I1Cent=           0 NGrid=           0
         NMat0=    1 NMatS0=      1 NMatT0=    0 NMatD0=    1 NMtDS0=    0 NMtDT0=    0
 Symmetry not used in FoFCou.
 Leave Link  703 at Mon Aug 25 14:24:17 2025, MaxMem=  4294967296 cpu:              10.0 elap:               0.7
 (Enter /opt/apps/Gaussian/G16C/g16/l716.exe)
 Dipole        = 1.23751455D-01 8.23369191D-01 2.57817121D-01
 -------------------------------------------------------------------
 Center     Atomic                   Forces (Hartrees/Bohr)
 Number     Number              X              Y              Z
 -------------------------------------------------------------------
      1        6           0.000114848   -0.004463167    0.000257277
      2        8           0.001213705    0.007062220    0.004540236
      3        6           0.003771492   -0.001234351   -0.000837465
      4        6          -0.000205913   -0.002205570   -0.000567170
      5        6          -0.003445196   -0.002311791   -0.006045026
      6        1          -0.000940042    0.000800975   -0.000749552
      7        1          -0.002503492    0.002040898    0.001266604
      8        1           0.000312229   -0.000690456   -0.001681418
      9        1          -0.000498266    0.001773468   -0.001131384
     10        1          -0.001725360   -0.000299849    0.000158403
     11        1           0.001778025   -0.000639639    0.000522174
     12        1           0.003487898   -0.001694745    0.001538696
     13        1          -0.001359928    0.001862006    0.002728625
 -------------------------------------------------------------------
 Cartesian Forces:  Max     0.007062220 RMS     0.002410957
 Leave Link  716 at Mon Aug 25 14:24:17 2025, MaxMem=  4294967296 cpu:               0.0 elap:               0.0
 (Enter /opt/apps/Gaussian/G16C/g16/l103.exe)

 GradGradGradGradGradGradGradGradGradGradGradGradGradGradGradGradGradGrad
 Berny optimization.
 Using GEDIIS/GDIIS optimizer.
 FormGI is forming the generalized inverse of G from B-inverse, IUseBI=4.
 Internal  Forces:  Max     0.004856028 RMS     0.001423343
 Search for a local minimum.
 Step number   3 out of a maximum of   81
 All quantities printed in internal units (Hartrees-Bohrs-Radians)
 RMS Force = .14233D-02 SwitMx=.10000D-02 MixMth= 1
 Mixed Optimization -- RFO/linear search
 Update second derivatives using D2CorX and points    2    3
 DE= -5.85D-03 DEPred=-5.57D-03 R= 1.05D+00
 TightC=F SS=  1.41D+00  RLast= 6.07D-01 DXNew= 8.4853D-01 1.8209D+00
 Trust test= 1.05D+00 RLast= 6.07D-01 DXMaxT set to 8.49D-01
 ITU=  1  1  0
 Use linear search instead of GDIIS.
     Eigenvalues ---    0.00514   0.00999   0.02623   0.03600   0.04753
     Eigenvalues ---    0.05243   0.05349   0.05852   0.06022   0.06636
     Eigenvalues ---    0.06750   0.06848   0.07439   0.09509   0.10754
     Eigenvalues ---    0.11146   0.11504   0.12692   0.20132   0.25924
     Eigenvalues ---    0.26875   0.27660   0.31116   0.32273   0.35916
     Eigenvalues ---    0.37230   0.37230   0.37230   0.37230   0.37230
     Eigenvalues ---    0.37261   0.37447   0.43221
 RFO step:  Lambda=-2.43926563D-03 EMin= 5.14211711D-03
 Quartic linear search produced a step of  0.28327.
 Iteration  1 RMS(Cart)=  0.04237222 RMS(Int)=  0.00162606
 Iteration  2 RMS(Cart)=  0.00167158 RMS(Int)=  0.00044258
 Iteration  3 RMS(Cart)=  0.00000163 RMS(Int)=  0.00044258
 Iteration  4 RMS(Cart)=  0.00000000 RMS(Int)=  0.00044258
 ITry= 1 IFail=0 DXMaxC= 1.46D-01 DCOld= 1.00D+10 DXMaxT= 8.49D-01 DXLimC= 3.00D+00 Rises=F
 Variable       Old X    -DE/DX   Delta X   Delta X   Delta X     New X
                                 (Linear)    (Quad)   (Total)
    R1        2.69909  -0.00116  -0.01488  -0.00043  -0.01567   2.68342
    R2        2.88488  -0.00161   0.00147  -0.00756  -0.00594   2.87895
    R3        2.06360   0.00034  -0.00010  -0.00144  -0.00154   2.06206
    R4        2.08455  -0.00030   0.00459  -0.00392   0.00066   2.08522
    R5        2.69429   0.00060  -0.00725   0.00023  -0.00742   2.68687
    R6        2.92842  -0.00214  -0.00126  -0.01098  -0.01216   2.91626
    R7        2.08401  -0.00093   0.00425  -0.00604  -0.00179   2.08222
    R8        2.06394   0.00020   0.00018  -0.00188  -0.00170   2.06224
    R9        2.91930   0.00119  -0.00398   0.00128  -0.00222   2.91708
   R10        2.07079  -0.00118   0.00122  -0.00664  -0.00542   2.06536
   R11        2.06914  -0.00089   0.00116  -0.00560  -0.00444   2.06469
   R12        2.06857  -0.00115   0.00103  -0.00643  -0.00540   2.06317
   R13        2.07479  -0.00109   0.00273  -0.00629  -0.00356   2.07123
    A1        1.80648  -0.00327   0.01678  -0.00648   0.00980   1.81628
    A2        1.89028   0.00279  -0.01643   0.01737   0.00115   1.89143
    A3        1.88820   0.00184   0.00112   0.03062   0.03192   1.92012
    A4        2.01406  -0.00066  -0.00415  -0.01613  -0.01987   1.99419
    A5        1.95416  -0.00060  -0.00064  -0.01744  -0.01879   1.93537
    A6        1.90384   0.00010   0.00344  -0.00284  -0.00000   1.90383
    A7        1.79076   0.00486   0.00333   0.03830   0.04038   1.83114
    A8        1.86590  -0.00374   0.00748  -0.01614  -0.01013   1.85577
    A9        1.89575   0.00014   0.00874   0.00175   0.01063   1.90639
   A10        1.87987   0.00330  -0.02527   0.02137  -0.00402   1.87585
   A11        1.90859   0.00192   0.00816   0.01378   0.02188   1.93047
   A12        2.01616  -0.00128   0.00016  -0.02178  -0.02156   1.99461
   A13        1.89434  -0.00030   0.00188   0.00195   0.00387   1.89821
   A14        1.78327   0.00146   0.00344   0.01718   0.02055   1.80382
   A15        1.92660  -0.00020   0.01007  -0.00607   0.00439   1.93099
   A16        1.96099  -0.00083  -0.00851  -0.00237  -0.01131   1.94968
   A17        1.97742  -0.00046  -0.01223  -0.01265  -0.02506   1.95236
   A18        1.92817  -0.00018   0.00816   0.00902   0.01746   1.94564
   A19        1.88762   0.00020  -0.00125  -0.00447  -0.00559   1.88203
   A20        1.78437   0.00108  -0.00541   0.00588  -0.00095   1.78342
   A21        2.01330  -0.00161  -0.00702  -0.03145  -0.03940   1.97389
   A22        1.87103   0.00050   0.01112   0.02118   0.03206   1.90309
   A23        2.01923  -0.00038  -0.00264  -0.02836  -0.03210   1.98713
   A24        1.88413   0.00034   0.00645   0.03526   0.04149   1.92562
   A25        1.88307   0.00023  -0.00032   0.00471   0.00529   1.88836
    D1        0.84732   0.00022  -0.02212  -0.03414  -0.05672   0.79061
    D2        2.99336  -0.00095  -0.02541  -0.04782  -0.07394   2.91942
    D3       -1.22846   0.00172  -0.02995  -0.02480  -0.05519  -1.28364
    D4       -0.67490   0.00115   0.01448   0.02774   0.04223  -0.63267
    D5       -2.88133   0.00182   0.02685   0.07876   0.10524  -2.77609
    D6        1.30447   0.00218   0.02346   0.07727   0.10097   1.40544
    D7       -2.73678   0.00025   0.02541   0.01925   0.04483  -2.69195
    D8        1.33998   0.00092   0.03779   0.07028   0.10784   1.44782
    D9       -0.75740   0.00128   0.03439   0.06878   0.10357  -0.65383
   D10        1.35479   0.00118   0.02467   0.05188   0.07635   1.43113
   D11       -0.85164   0.00184   0.03705   0.10291   0.13935  -0.71229
   D12       -2.94902   0.00221   0.03365   0.10141   0.13508  -2.81394
   D13       -0.68066  -0.00000   0.02361   0.03942   0.06307  -0.61758
   D14        1.37707   0.00031   0.04095   0.04781   0.08892   1.46599
   D15       -2.85761   0.00183   0.03422   0.06269   0.09700  -2.76061
   D16        0.24507  -0.00146  -0.01183  -0.03219  -0.04375   0.20132
   D17        2.35316  -0.00126  -0.01947  -0.04018  -0.05936   2.29380
   D18       -1.82146  -0.00171  -0.01958  -0.05175  -0.07105  -1.89251
   D19       -1.80424  -0.00056  -0.02971  -0.03256  -0.06223  -1.86647
   D20        0.30386  -0.00037  -0.03735  -0.04055  -0.07784   0.22602
   D21        2.41242  -0.00082  -0.03747  -0.05212  -0.08953   2.32290
   D22        2.33645  -0.00077  -0.03855  -0.03029  -0.06880   2.26766
   D23       -1.83864  -0.00057  -0.04619  -0.03828  -0.08441  -1.92304
   D24        0.26993  -0.00102  -0.04631  -0.04985  -0.09609   0.17383
   D25        0.25146   0.00076  -0.00484   0.00629   0.00147   0.25293
   D26        2.45403  -0.00071  -0.01997  -0.04686  -0.06669   2.38734
   D27       -1.71820  -0.00040  -0.01726  -0.03303  -0.05068  -1.76888
   D28       -1.82101   0.00032  -0.01321   0.00915  -0.00384  -1.82485
   D29        0.38156  -0.00115  -0.02834  -0.04400  -0.07199   0.30957
   D30        2.49251  -0.00084  -0.02563  -0.03017  -0.05599   2.43653
   D31        2.34115   0.00052  -0.00915   0.01721   0.00837   2.34952
   D32       -1.73947  -0.00095  -0.02428  -0.03594  -0.05978  -1.79925
   D33        0.37149  -0.00064  -0.02157  -0.02212  -0.04378   0.32771
         Item               Value     Threshold  Converged?
 Maximum Force            0.004856     0.000015     NO 
 RMS     Force            0.001423     0.000010     NO 
 Maximum Displacement     0.146375     0.000060     NO 
 RMS     Displacement     0.042071     0.000040     NO 
 Predicted change in Energy=-1.661785D-03
 Lowest energy point so far.  Saving SCF results.
 GradGradGradGradGradGradGradGradGradGradGradGradGradGradGradGradGradGrad

 Leave Link  103 at Mon Aug 25 14:24:17 2025, MaxMem=  4294967296 cpu:               0.1 elap:               0.0
 (Enter /opt/apps/Gaussian/G16C/g16/l202.exe)
                          Input orientation:                          
 ---------------------------------------------------------------------
 Center     Atomic      Atomic             Coordinates (Angstroms)
 Number     Number       Type             X           Y           Z
 ---------------------------------------------------------------------
      1          6           0       -1.715642    0.326433    0.747552
      2          8           0       -0.963676   -0.439246   -0.182340
      3          6           0        0.130810    0.393932   -0.542225
      4          6           0       -0.411012    1.838811   -0.558971
      5          6           0       -1.795748    1.708020    0.110553
      6          1           0       -2.682797   -0.158407    0.889850
      7          1           0       -1.187819    0.369538    1.715615
      8          1           0        0.929846    0.288058    0.209064
      9          1           0        0.506137    0.044192   -1.505409
     10          1           0        0.250473    2.504779    0.000893
     11          1           0       -0.493870    2.227581   -1.576684
     12          1           0       -2.014768    2.499352    0.830144
     13          1           0       -2.586882    1.706661   -0.648015
 ---------------------------------------------------------------------
                    Distance matrix (angstroms):
                    1          2          3          4          5
     1  C    0.000000
     2  O    1.420006   0.000000
     3  C    2.253323   1.421831   0.000000
     4  C    2.386702   2.374201   1.543219   0.000000
     5  C    1.523472   2.321396   2.421687   1.543652   0.000000
     6  H    1.091195   2.045443   3.205043   3.353948   2.208554
     7  H    1.103449   2.075236   2.614808   2.817078   2.176542
     8  H    2.700009   2.065816   1.101864   2.189203   3.074875
     9  H    3.176758   2.035822   1.091289   2.226558   3.267771
    10  H    3.027920   3.189830   2.182881   1.092942   2.198607
    11  H    3.241784   3.045797   2.196041   1.092588   2.193536
    12  H    2.194965   3.281047   3.304496   2.222159   1.091782
    13  H    2.147486   2.730671   3.019983   2.181698   1.096047
                    6          7          8          9         10
     6  H    0.000000
     7  H    1.787616   0.000000
     8  H    3.703240   2.600161   0.000000
     9  H    3.993446   3.653810   1.782812   0.000000
    10  H    4.060404   3.093252   2.327817   2.896342   0.000000
    11  H    4.070397   3.843582   2.996266   2.402557   1.766249
    12  H    2.741078   2.450308   3.734476   4.223455   2.412261
    13  H    2.419237   3.054836   3.887724   3.614650   3.018056
                   11         12         13
    11  H    0.000000
    12  H    2.860037   0.000000
    13  H    2.348294   1.772181   0.000000
 Symmetry turned off by external request.
 Stoichiometry    C4H8O
 Framework group  C1[X(C4H8O)]
 Deg. of freedom    33
 Full point group                 C1      NOp   1
 Rotational constants (GHZ):           7.1912064           6.9729941           4.0453319
 Leave Link  202 at Mon Aug 25 14:24:17 2025, MaxMem=  4294967296 cpu:               0.0 elap:               0.0
 (Enter /opt/apps/Gaussian/G16C/g16/l301.exe)
 Standard basis: 6-31+G(d) (6D, 7F)
 Ernie: Thresh=  0.10000D-02 Tol=  0.10000D-05 Strict=F.
   111 basis functions,   192 primitive gaussians,   111 cartesian basis functions
    20 alpha electrons       20 beta electrons
       nuclear repulsion energy       191.0946216832 Hartrees.
 IExCor= 4639 DFT=T Ex+Corr=wB97XD ExCW=0 ScaHFX=  1.000000
 ScaDFX=  1.000000  1.000000  1.000000  1.000000 ScalE2=  1.000000  1.000000
 IRadAn=      5 IRanWt=     -1 IRanGd=            0 ICorTp=0 IEmpDi=121
 HFx  wShort=  0.000000 wLong=  0.200000 cFull=  0.222036 cShort=  0.000000 cLong=  0.777964
 DFx  wShort=  0.000000 wLong=  0.200000 cFull=  0.000000 cShort=  0.000000 cLong=  1.000000
 NAtoms=   13 NActive=   13 NUniq=   13 SFac= 1.00D+00 NAtFMM=   60 NAOKFM=F Big=F
 Integral buffers will be    131072 words long.
 Raffenetti 2 integral format.
 Two-electron integral symmetry is turned off.
 R6Disp:  Grimme-D2 Dispersion energy=       -0.0056758425 Hartrees.
 Nuclear repulsion after empirical dispersion term =      191.0889458408 Hartrees.
 ------------------------------------------------------------------------------
 Polarizable Continuum Model (PCM)
 =================================
 Model                : PCM.
 Atomic radii         : SMD-Coulomb.
 Polarization charges : Total charges.
 Charge compensation  : None.
 Solution method      : On-the-fly selection.
 Cavity type          : VdW (van der Waals Surface) (Alpha=1.000).
 Cavity algorithm     : GePol (No added spheres)
                        Default sphere list used, NSphG=   13.
                        Lebedev-Laikov grids with approx.  5.0 points / Ang**2.
                        Smoothing algorithm: York/Karplus (Gamma=1.0000).
                        Polarization charges: spherical gaussians, with
                                              point-specific exponents (IZeta= 3).
                        Self-potential: point-specific (ISelfS= 7).
                        Self-field    : sphere-specific E.n sum rule (ISelfD= 2).
 1st derivatives      : Analytical E(r).r(x)/FMM algorithm (CHGder, D1EAlg=3).
                        Cavity 1st derivative terms included.
 Solvent              : TetraHydroFuran, Eps=   7.425700 Eps(inf)=   1.974025
 ------------------------------------------------------------------------------
 Spheres list:
 ISph  on   Nord     Re0    Alpha      Xe            Ye            Ze
    1   C      1    1.8500  1.000     -1.715642      0.326433      0.747552
    2   O      2    2.2940  1.000     -0.963676     -0.439246     -0.182340
    3   C      3    1.8500  1.000      0.130810      0.393932     -0.542225
    4   C      4    1.8500  1.000     -0.411012      1.838811     -0.558971
    5   C      5    1.8500  1.000     -1.795748      1.708020      0.110553
    6   H      6    1.2000  1.000     -2.682797     -0.158407      0.889850
    7   H      7    1.2000  1.000     -1.187819      0.369538      1.715615
    8   H      8    1.2000  1.000      0.929846      0.288058      0.209064
    9   H      9    1.2000  1.000      0.506137      0.044192     -1.505409
   10   H     10    1.2000  1.000      0.250473      2.504779      0.000893
   11   H     11    1.2000  1.000     -0.493870      2.227581     -1.576684
   12   H     12    1.2000  1.000     -2.014768      2.499352      0.830144
   13   H     13    1.2000  1.000     -2.586882      1.706661     -0.648015
 ------------------------------------------------------------------------------
 GePol: Number of generator spheres                  =      13
 GePol: Total number of spheres                      =      13
 GePol: Number of exposed spheres                    =      13 (100.00%)
 GePol: Number of points                             =     986
 GePol: Average weight of points                     =       0.12
 GePol: Minimum weight of points                     =   0.52D-08
 GePol: Maximum weight of points                     =    0.17992
 GePol: Number of points with low weight             =      44
 GePol: Fraction of low-weight points (<1% of avg)   =       4.46%
 GePol: Cavity surface area                          =    114.837 Ang**2
 GePol: Cavity volume                                =     98.161 Ang**3
 ------------------------------------------------------------------------------
 Atomic radii for non-electrostatic terms: SMD-CDS.
 ------------------------------------------------------------------------------
 PCM non-electrostatic energy =        -0.0025727595 Hartrees.
 Nuclear repulsion after PCM non-electrostatic terms =      191.0863730813 Hartrees.
 Leave Link  301 at Mon Aug 25 14:24:17 2025, MaxMem=  4294967296 cpu:               0.1 elap:               0.0
 (Enter /opt/apps/Gaussian/G16C/g16/l302.exe)
 NPDir=0 NMtPBC=     1 NCelOv=     1 NCel=       1 NClECP=     1 NCelD=      1
         NCelK=      1 NCelE2=     1 NClLst=     1 CellRange=     0.0.
 One-electron integrals computed using PRISM.
 NBasis=   111 RedAO= T EigKep=  3.68D-05  NBF=   111
 NBsUse=   111 1.00D-06 EigRej= -1.00D+00 NBFU=   111
 Precomputing XC quadrature grid using
 IXCGrd= 4 IRadAn=           5 IRanWt=          -1 IRanGd=           0 AccXCQ= 0.00D+00.
 Generated NRdTot=       0 NPtTot=           0 NUsed=           0 NTot=          32
 NSgBfM=   111   111   111   111   111 MxSgAt=    13 MxSgA2=    13.
 Leave Link  302 at Mon Aug 25 14:24:17 2025, MaxMem=  4294967296 cpu:               0.9 elap:               0.1
 (Enter /opt/apps/Gaussian/G16C/g16/l303.exe)
 DipDrv:  MaxL=1.
 Leave Link  303 at Mon Aug 25 14:24:17 2025, MaxMem=  4294967296 cpu:               0.1 elap:               0.0
 (Enter /opt/apps/Gaussian/G16C/g16/l401.exe)
 Initial guess from the checkpoint file:  "THF-dzpop.chk"
 B after Tr=     0.030835    0.012396    0.038538
         Rot=    0.999967    0.006247    0.001673   -0.004958 Ang=   0.93 deg.
 Guess basis will be translated and rotated to current coordinates.
 JPrj=2 DoOrth=T DoCkMO=T.
 Generating alternative initial guess.
 ExpMin= 4.38D-02 ExpMax= 5.48D+03 ExpMxC= 8.25D+02 IAcc=3 IRadAn=         5 AccDes= 0.00D+00
 Harris functional with IExCor= 4639 and IRadAn=       5 diagonalized for initial guess.
 HarFok:  IExCor= 4639 AccDes= 0.00D+00 IRadAn=         5 IDoV= 1 UseB2=F ITyADJ=14
 ICtDFT=  3500011 ScaDFX=  1.000000  1.000000  1.000000  1.000000
 FoFCou: FMM=F IPFlag=           0 FMFlag=      100000 FMFlg1=           0
         NFxFlg=           0 DoJE=T BraDBF=F KetDBF=T FulRan=T
         wScrn=  0.000000 ICntrl=       500 IOpCl=  0 I1Cent=   200000004 NGrid=           0
         NMat0=    1 NMatS0=      1 NMatT0=    0 NMatD0=    1 NMtDS0=    0 NMtDT0=    0
 Symmetry not used in FoFCou.
 Harris En= -222.056946095087    
 Leave Link  401 at Mon Aug 25 14:24:18 2025, MaxMem=  4294967296 cpu:               3.3 elap:               0.3
 (Enter /opt/apps/Gaussian/G16C/g16/l502.exe)
 Two-electron integral symmetry not used.
 Closed shell SCF:
 Using DIIS extrapolation, IDIIS=  1040.
 NGot=  4294967296 LenX=  4294939455 LenY=  4294926693
 Requested convergence on RMS density matrix=1.00D-08 within 128 cycles.
 Requested convergence on MAX density matrix=1.00D-06.
 Requested convergence on             energy=1.00D-06.
 No special actions if energy rises.
 Fock matrices will be formed incrementally for  20 cycles.

 Cycle   1  Pass 1  IDiag  1:
 FoFJK:  IHMeth= 1 ICntrl=       0 DoSepK=T KAlg= 0 I1Cent=           0 FoldK=F
 IRaf=         1 NMat=       1 IRICut=       1 DoRegI=T DoRafI=F ISym2E= 0 IDoP0=0 IntGTp=1.
 FoFCou: FMM=F IPFlag=           0 FMFlag=      100000 FMFlg1=           0
         NFxFlg=           0 DoJE=T BraDBF=F KetDBF=F FulRan=T
         wScrn=  0.000000 ICntrl=       500 IOpCl=  0 I1Cent=           0 NGrid=           0
         NMat0=    1 NMatS0=      1 NMatT0=    0 NMatD0=    1 NMtDS0=    0 NMtDT0=    0
 Symmetry not used in FoFCou.
 Inv3:  Mode=1 IEnd=     2916588.
 Iteration    1 A*A^-1 deviation from unit magnitude is 3.77D-15 for    979.
 Iteration    1 A*A^-1 deviation from orthogonality  is 1.68D-15 for    978    768.
 Iteration    1 A^-1*A deviation from unit magnitude is 3.77D-15 for    979.
 Iteration    1 A^-1*A deviation from orthogonality  is 2.00D-15 for    603    378.
 E= -232.389499431990    
 DIIS: error= 2.72D-03 at cycle   1 NSaved=   1.
 NSaved= 1 IEnMin= 1 EnMin= -232.389499431990     IErMin= 1 ErrMin= 2.72D-03
 ErrMax= 2.72D-03  0.00D+00 EMaxC= 1.00D-01 BMatC= 1.71D-03 BMatP= 1.71D-03
 IDIUse=3 WtCom= 9.73D-01 WtEn= 2.72D-02
 Coeff-Com:  0.100D+01
 Coeff-En:   0.100D+01
 Coeff:      0.100D+01
 Gap=     0.842 Goal=   None    Shift=    0.000
 GapD=    0.842 DampG=2.000 DampE=1.000 DampFc=2.0000 IDamp=-1.
 RMSDP=8.12D-04 MaxDP=1.23D-02              OVMax= 1.24D-02

 Cycle   2  Pass 1  IDiag  1:
 RMSU=  8.12D-04    CP:  9.99D-01
 E= -232.392627823332     Delta-E=       -0.003128391342 Rises=F Damp=F
 DIIS: error= 7.95D-04 at cycle   2 NSaved=   2.
 NSaved= 2 IEnMin= 2 EnMin= -232.392627823332     IErMin= 2 ErrMin= 7.95D-04
 ErrMax= 7.95D-04  0.00D+00 EMaxC= 1.00D-01 BMatC= 7.66D-05 BMatP= 1.71D-03
 IDIUse=3 WtCom= 9.92D-01 WtEn= 7.95D-03
 Coeff-Com: -0.186D+00 0.119D+01
 Coeff-En:   0.000D+00 0.100D+01
 Coeff:     -0.185D+00 0.118D+01
 Gap=     0.420 Goal=   None    Shift=    0.000
 RMSDP=2.30D-04 MaxDP=3.56D-03 DE=-3.13D-03 OVMax= 4.01D-03

 Cycle   3  Pass 1  IDiag  1:
 RMSU=  2.02D-04    CP:  9.99D-01  1.14D+00
 E= -232.392824754985     Delta-E=       -0.000196931653 Rises=F Damp=F
 DIIS: error= 1.58D-04 at cycle   3 NSaved=   3.
 NSaved= 3 IEnMin= 3 EnMin= -232.392824754985     IErMin= 3 ErrMin= 1.58D-04
 ErrMax= 1.58D-04  0.00D+00 EMaxC= 1.00D-01 BMatC= 6.51D-06 BMatP= 7.66D-05
 IDIUse=3 WtCom= 9.98D-01 WtEn= 1.58D-03
 Coeff-Com: -0.547D-01 0.227D+00 0.828D+00
 Coeff-En:   0.000D+00 0.000D+00 0.100D+01
 Coeff:     -0.546D-01 0.226D+00 0.828D+00
 Gap=     0.419 Goal=   None    Shift=    0.000
 RMSDP=5.19D-05 MaxDP=6.26D-04 DE=-1.97D-04 OVMax= 9.51D-04

 Cycle   4  Pass 1  IDiag  1:
 RMSU=  4.25D-05    CP:  9.99D-01  1.16D+00  1.11D+00
 E= -232.392831702822     Delta-E=       -0.000006947837 Rises=F Damp=F
 DIIS: error= 1.01D-04 at cycle   4 NSaved=   4.
 NSaved= 4 IEnMin= 4 EnMin= -232.392831702822     IErMin= 4 ErrMin= 1.01D-04
 ErrMax= 1.01D-04  0.00D+00 EMaxC= 1.00D-01 BMatC= 2.54D-06 BMatP= 6.51D-06
 IDIUse=3 WtCom= 9.99D-01 WtEn= 1.01D-03
 Coeff-Com: -0.400D-02-0.324D-01 0.384D+00 0.652D+00
 Coeff-En:   0.000D+00 0.000D+00 0.000D+00 0.100D+01
 Coeff:     -0.400D-02-0.324D-01 0.384D+00 0.652D+00
 Gap=     0.419 Goal=   None    Shift=    0.000
 RMSDP=2.12D-05 MaxDP=3.57D-04 DE=-6.95D-06 OVMax= 4.82D-04

 Cycle   5  Pass 1  IDiag  1:
 RMSU=  1.60D-05    CP:  9.99D-01  1.17D+00  1.17D+00  9.85D-01
 E= -232.392833942454     Delta-E=       -0.000002239632 Rises=F Damp=F
 DIIS: error= 2.64D-05 at cycle   5 NSaved=   5.
 NSaved= 5 IEnMin= 5 EnMin= -232.392833942454     IErMin= 5 ErrMin= 2.64D-05
 ErrMax= 2.64D-05  0.00D+00 EMaxC= 1.00D-01 BMatC= 1.37D-07 BMatP= 2.54D-06
 IDIUse=1 WtCom= 1.00D+00 WtEn= 0.00D+00
 Coeff-Com:  0.520D-02-0.371D-01 0.241D-01 0.197D+00 0.810D+00
 Coeff:      0.520D-02-0.371D-01 0.241D-01 0.197D+00 0.810D+00
 Gap=     0.419 Goal=   None    Shift=    0.000
 RMSDP=1.08D-05 MaxDP=1.63D-04 DE=-2.24D-06 OVMax= 1.56D-04

 Cycle   6  Pass 1  IDiag  1:
 RMSU=  6.15D-06    CP:  9.99D-01  1.18D+00  1.19D+00  1.08D+00  1.27D+00
 E= -232.392834099417     Delta-E=       -0.000000156963 Rises=F Damp=F
 DIIS: error= 6.61D-06 at cycle   6 NSaved=   6.
 NSaved= 6 IEnMin= 6 EnMin= -232.392834099417     IErMin= 6 ErrMin= 6.61D-06
 ErrMax= 6.61D-06  0.00D+00 EMaxC= 1.00D-01 BMatC= 1.33D-08 BMatP= 1.37D-07
 IDIUse=1 WtCom= 1.00D+00 WtEn= 0.00D+00
 Coeff-Com:  0.216D-02-0.104D-01-0.235D-01 0.154D-01 0.278D+00 0.738D+00
 Coeff:      0.216D-02-0.104D-01-0.235D-01 0.154D-01 0.278D+00 0.738D+00
 Gap=     0.419 Goal=   None    Shift=    0.000
 RMSDP=4.02D-06 MaxDP=5.67D-05 DE=-1.57D-07 OVMax= 5.52D-05

 Cycle   7  Pass 1  IDiag  1:
 RMSU=  1.36D-06    CP:  9.99D-01  1.18D+00  1.19D+00  1.12D+00  1.41D+00
                    CP:  1.19D+00
 E= -232.392834117087     Delta-E=       -0.000000017670 Rises=F Damp=F
 DIIS: error= 1.95D-06 at cycle   7 NSaved=   7.
 NSaved= 7 IEnMin= 7 EnMin= -232.392834117087     IErMin= 7 ErrMin= 1.95D-06
 ErrMax= 1.95D-06  0.00D+00 EMaxC= 1.00D-01 BMatC= 5.11D-10 BMatP= 1.33D-08
 IDIUse=1 WtCom= 1.00D+00 WtEn= 0.00D+00
 Coeff-Com: -0.433D-03 0.304D-02-0.255D-02-0.169D-01-0.711D-01 0.330D-01
 Coeff-Com:  0.105D+01
 Coeff:     -0.433D-03 0.304D-02-0.255D-02-0.169D-01-0.711D-01 0.330D-01
 Coeff:      0.105D+01
 Gap=     0.419 Goal=   None    Shift=    0.000
 RMSDP=2.10D-06 MaxDP=3.16D-05 DE=-1.77D-08 OVMax= 3.26D-05

 Cycle   8  Pass 1  IDiag  1:
 RMSU=  4.53D-07    CP:  9.99D-01  1.18D+00  1.19D+00  1.14D+00  1.48D+00
                    CP:  1.36D+00  1.28D+00
 E= -232.392834118737     Delta-E=       -0.000000001650 Rises=F Damp=F
 DIIS: error= 6.01D-07 at cycle   8 NSaved=   8.
 NSaved= 8 IEnMin= 8 EnMin= -232.392834118737     IErMin= 8 ErrMin= 6.01D-07
 ErrMax= 6.01D-07  0.00D+00 EMaxC= 1.00D-01 BMatC= 2.12D-11 BMatP= 5.11D-10
 IDIUse=1 WtCom= 1.00D+00 WtEn= 0.00D+00
 Coeff-Com: -0.115D-03 0.551D-03 0.149D-02-0.651D-04-0.140D-01-0.463D-01
 Coeff-Com: -0.440D-01 0.110D+01
 Coeff:     -0.115D-03 0.551D-03 0.149D-02-0.651D-04-0.140D-01-0.463D-01
 Coeff:     -0.440D-01 0.110D+01
 Gap=     0.419 Goal=   None    Shift=    0.000
 RMSDP=4.23D-07 MaxDP=6.70D-06 DE=-1.65D-09 OVMax= 9.42D-06

 Cycle   9  Pass 1  IDiag  1:
 RMSU=  8.67D-08    CP:  9.99D-01  1.18D+00  1.19D+00  1.14D+00  1.50D+00
                    CP:  1.39D+00  1.38D+00  1.45D+00
 E= -232.392834118833     Delta-E=       -0.000000000096 Rises=F Damp=F
 DIIS: error= 1.27D-07 at cycle   9 NSaved=   9.
 NSaved= 9 IEnMin= 9 EnMin= -232.392834118833     IErMin= 9 ErrMin= 1.27D-07
 ErrMax= 1.27D-07  0.00D+00 EMaxC= 1.00D-01 BMatC= 1.21D-12 BMatP= 2.12D-11
 IDIUse=1 WtCom= 1.00D+00 WtEn= 0.00D+00
 Coeff-Com:  0.159D-04-0.121D-03 0.181D-03 0.806D-03 0.272D-02-0.305D-02
 Coeff-Com: -0.490D-01 0.113D-01 0.104D+01
 Coeff:      0.159D-04-0.121D-03 0.181D-03 0.806D-03 0.272D-02-0.305D-02
 Coeff:     -0.490D-01 0.113D-01 0.104D+01
 Gap=     0.419 Goal=   None    Shift=    0.000
 RMSDP=7.59D-08 MaxDP=1.15D-06 DE=-9.60D-11 OVMax= 1.90D-06

 Cycle  10  Pass 1  IDiag  1:
 RMSU=  2.47D-08    CP:  9.99D-01  1.18D+00  1.19D+00  1.14D+00  1.50D+00
                    CP:  1.39D+00  1.39D+00  1.58D+00  1.40D+00
 E= -232.392834118838     Delta-E=       -0.000000000004 Rises=F Damp=F
 DIIS: error= 2.45D-08 at cycle  10 NSaved=  10.
 NSaved=10 IEnMin=10 EnMin= -232.392834118838     IErMin=10 ErrMin= 2.45D-08
 ErrMax= 2.45D-08  0.00D+00 EMaxC= 1.00D-01 BMatC= 2.98D-13 BMatP= 1.21D-12
 IDIUse=1 WtCom= 1.00D+00 WtEn= 0.00D+00
 Coeff-Com:  0.152D-04-0.888D-04-0.694D-04 0.273D-03 0.209D-02 0.321D-02
 Coeff-Com: -0.112D-01-0.971D-01 0.364D+00 0.738D+00
 Coeff:      0.152D-04-0.888D-04-0.694D-04 0.273D-03 0.209D-02 0.321D-02
 Coeff:     -0.112D-01-0.971D-01 0.364D+00 0.738D+00
 Gap=     0.419 Goal=   None    Shift=    0.000
 RMSDP=2.23D-08 MaxDP=3.68D-07 DE=-4.43D-12 OVMax= 3.84D-07

 Cycle  11  Pass 1  IDiag  1:
 RMSU=  7.59D-09    CP:  9.99D-01  1.18D+00  1.19D+00  1.14D+00  1.50D+00
                    CP:  1.39D+00  1.39D+00  1.60D+00  1.54D+00  1.12D+00
 E= -232.392834118835     Delta-E=        0.000000000003 Rises=F Damp=F
 DIIS: error= 5.79D-09 at cycle  11 NSaved=  11.
 NSaved=11 IEnMin=10 EnMin= -232.392834118838     IErMin=11 ErrMin= 5.79D-09
 ErrMax= 5.79D-09  0.00D+00 EMaxC= 1.00D-01 BMatC= 9.65D-15 BMatP= 2.98D-13
 IDIUse=1 WtCom= 1.00D+00 WtEn= 0.00D+00
 Coeff-Com: -0.292D-06 0.368D-05-0.212D-04-0.509D-04-0.900D-04 0.525D-03
 Coeff-Com:  0.374D-02-0.819D-02-0.662D-01 0.575D-01 0.101D+01
 Coeff:     -0.292D-06 0.368D-05-0.212D-04-0.509D-04-0.900D-04 0.525D-03
 Coeff:      0.374D-02-0.819D-02-0.662D-01 0.575D-01 0.101D+01
 Gap=     0.419 Goal=   None    Shift=    0.000
 RMSDP=9.90D-09 MaxDP=1.95D-07 DE= 2.56D-12 OVMax= 1.14D-07

 Error on total polarization charges =  0.02881
 SCF Done:  E(RwB97XD) =  -232.392834119     A.U. after   11 cycles
            NFock= 11  Conv=0.99D-08     -V/T= 2.0093
 KE= 2.302577671934D+02 PE=-9.228451629334D+02 EE= 2.691081885398D+02
 SMD-CDS (non-electrostatic) energy       (kcal/mol) =      -1.61
 (included in total energy above)
 Leave Link  502 at Mon Aug 25 14:24:23 2025, MaxMem=  4294967296 cpu:              77.4 elap:               5.5
 (Enter /opt/apps/Gaussian/G16C/g16/l701.exe)
 ... and contract with generalized density number  0.
 Compute integral first derivatives.
 R6Disp: Adding Grimme-D2 dispersion energy 1st derivatives to the gradient.
 D1PCM: PCM CHGder 1st derivatives, ID1Alg=3 FixD1E=F DoIter=F DoCFld=F I1PDM=0.
 GePol: Maximum number of non-zero 1st derivatives   =     312
 Leave Link  701 at Mon Aug 25 14:24:23 2025, MaxMem=  4294967296 cpu:               3.6 elap:               0.3
 (Enter /opt/apps/Gaussian/G16C/g16/l702.exe)
 L702 exits ... SP integral derivatives will be done elsewhere.
 Leave Link  702 at Mon Aug 25 14:24:24 2025, MaxMem=  4294967296 cpu:               0.0 elap:               0.0
 (Enter /opt/apps/Gaussian/G16C/g16/l703.exe)
 Integral derivatives from FoFJK, PRISM(SPDF).
 Compute integral first derivatives, UseDBF=F ICtDFT=           0.
 Calling FoFJK, ICntrl=      2127 FMM=F ISym2X=0 I1Cent= 0 IOpClX= 0 NMat=1 NMatS=1 NMatT=0.
 FoFJK:  IHMeth= 1 ICntrl=    2127 DoSepK=T KAlg= 0 I1Cent=           0 FoldK=F
 IRaf=         1 NMat=       1 IRICut=       1 DoRegI=T DoRafI=F ISym2E= 0 IDoP0=0 IntGTp=1.
 FoFCou: FMM=F IPFlag=           0 FMFlag=      100000 FMFlg1=         800
         NFxFlg=           0 DoJE=F BraDBF=F KetDBF=F FulRan=T
         wScrn=  0.000000 ICntrl=      2527 IOpCl=  0 I1Cent=           0 NGrid=           0
         NMat0=    1 NMatS0=      1 NMatT0=    0 NMatD0=    1 NMtDS0=    0 NMtDT0=    0
 Symmetry not used in FoFCou.
 Leave Link  703 at Mon Aug 25 14:24:24 2025, MaxMem=  4294967296 cpu:               9.9 elap:               0.7
 (Enter /opt/apps/Gaussian/G16C/g16/l716.exe)
 Dipole        = 9.41494242D-02 8.38531795D-01 2.10075250D-01
 -------------------------------------------------------------------
 Center     Atomic                   Forces (Hartrees/Bohr)
 Number     Number              X              Y              Z
 -------------------------------------------------------------------
      1        6          -0.001115641   -0.000498554    0.000976908
      2        8          -0.000034978   -0.001388477    0.002419511
      3        6           0.001473816   -0.000359792    0.000357466
      4        6          -0.000027976    0.001029475   -0.000509698
      5        6          -0.001021553   -0.000185889   -0.002863178
      6        1          -0.000651459   -0.001012391    0.000060760
      7        1          -0.000478745   -0.000541562   -0.000139336
      8        1          -0.000094815   -0.000087975   -0.000933900
      9        1           0.000595907    0.000306076   -0.000987971
     10        1           0.000338284    0.000705691    0.000486218
     11        1           0.000019084    0.000342537   -0.000639868
     12        1           0.000852786    0.000954821    0.001160471
     13        1           0.000145291    0.000736040    0.000612617
 -------------------------------------------------------------------
 Cartesian Forces:  Max     0.002863178 RMS     0.000917980
 Leave Link  716 at Mon Aug 25 14:24:24 2025, MaxMem=  4294967296 cpu:               0.0 elap:               0.0
 (Enter /opt/apps/Gaussian/G16C/g16/l103.exe)

 GradGradGradGradGradGradGradGradGradGradGradGradGradGradGradGradGradGrad
 Berny optimization.
 Using GEDIIS/GDIIS optimizer.
 FormGI is forming the generalized inverse of G from B-inverse, IUseBI=4.
 Internal  Forces:  Max     0.002448621 RMS     0.000644302
 Search for a local minimum.
 Step number   4 out of a maximum of   81
 All quantities printed in internal units (Hartrees-Bohrs-Radians)
 RMS Force = .64430D-03 SwitMx=.10000D-02 MixMth= 2
 Mixed Optimization -- En-DIIS/RFO-DIIS
 Update second derivatives using D2CorX and points    3    4
 DE= -1.76D-03 DEPred=-1.66D-03 R= 1.06D+00
 TightC=F SS=  1.41D+00  RLast= 4.54D-01 DXNew= 1.4270D+00 1.3634D+00
 Trust test= 1.06D+00 RLast= 4.54D-01 DXMaxT set to 1.36D+00
 ITU=  1  1  1  0
 Use linear search instead of GDIIS.
     Eigenvalues ---    0.00507   0.00830   0.02639   0.03549   0.04951
     Eigenvalues ---    0.05245   0.05387   0.05848   0.05872   0.06686
     Eigenvalues ---    0.06893   0.06929   0.07397   0.09538   0.10735
     Eigenvalues ---    0.11222   0.11510   0.12743   0.20383   0.25809
     Eigenvalues ---    0.27022   0.27814   0.31839   0.32803   0.36012
     Eigenvalues ---    0.37216   0.37230   0.37230   0.37230   0.37230
     Eigenvalues ---    0.37361   0.37651   0.42974
 RFO step:  Lambda=-2.58496040D-04 EMin= 5.07270489D-03
 Quartic linear search produced a step of  0.25394.
 Iteration  1 RMS(Cart)=  0.01842081 RMS(Int)=  0.00031934
 Iteration  2 RMS(Cart)=  0.00030357 RMS(Int)=  0.00014532
 Iteration  3 RMS(Cart)=  0.00000005 RMS(Int)=  0.00014532
 ITry= 1 IFail=0 DXMaxC= 7.05D-02 DCOld= 1.00D+10 DXMaxT= 1.36D+00 DXLimC= 3.00D+00 Rises=F
 Variable       Old X    -DE/DX   Delta X   Delta X   Delta X     New X
                                 (Linear)    (Quad)   (Total)
    R1        2.68342   0.00051  -0.00398   0.00173  -0.00238   2.68104
    R2        2.87895   0.00244  -0.00151   0.01016   0.00870   2.88764
    R3        2.06206   0.00104  -0.00039   0.00229   0.00190   2.06396
    R4        2.08522  -0.00037   0.00017  -0.00154  -0.00137   2.08384
    R5        2.68687   0.00245  -0.00188   0.00602   0.00402   2.69089
    R6        2.91626   0.00155  -0.00309   0.00652   0.00347   2.91973
    R7        2.08222  -0.00070  -0.00046  -0.00247  -0.00292   2.07930
    R8        2.06224   0.00098  -0.00043   0.00222   0.00178   2.06402
    R9        2.91708   0.00087  -0.00056  -0.00015  -0.00056   2.91652
   R10        2.06536   0.00088  -0.00138   0.00251   0.00113   2.06649
   R11        2.06469   0.00072  -0.00113   0.00186   0.00073   2.06542
   R12        2.06317   0.00129  -0.00137   0.00385   0.00248   2.06565
   R13        2.07123  -0.00053  -0.00090  -0.00200  -0.00291   2.06832
    A1        1.81628  -0.00053   0.00249   0.00737   0.00957   1.82585
    A2        1.89143   0.00010   0.00029  -0.00429  -0.00392   1.88752
    A3        1.92012  -0.00028   0.00811  -0.00820   0.00003   1.92015
    A4        1.99419   0.00091  -0.00504   0.00588   0.00093   1.99513
    A5        1.93537   0.00020  -0.00477   0.00319  -0.00169   1.93367
    A6        1.90383  -0.00043  -0.00000  -0.00429  -0.00446   1.89938
    A7        1.83114   0.00065   0.01025   0.00227   0.01200   1.84314
    A8        1.85577  -0.00012  -0.00257   0.00707   0.00408   1.85985
    A9        1.90639  -0.00008   0.00270  -0.00102   0.00182   1.90820
   A10        1.87585   0.00066  -0.00102   0.00462   0.00359   1.87945
   A11        1.93047   0.00013   0.00556  -0.00076   0.00482   1.93529
   A12        1.99461  -0.00040  -0.00547  -0.00494  -0.01032   1.98429
   A13        1.89821  -0.00016   0.00098  -0.00442  -0.00344   1.89477
   A14        1.80382  -0.00016   0.00522  -0.00114   0.00400   1.80782
   A15        1.93099  -0.00003   0.00111   0.00077   0.00198   1.93296
   A16        1.94968   0.00028  -0.00287   0.00410   0.00113   1.95081
   A17        1.95236   0.00012  -0.00636  -0.00024  -0.00664   1.94572
   A18        1.94564  -0.00013   0.00443  -0.00263   0.00188   1.94751
   A19        1.88203  -0.00007  -0.00142  -0.00075  -0.00217   1.87986
   A20        1.78342   0.00076  -0.00024   0.00514   0.00438   1.78779
   A21        1.97389  -0.00023  -0.01001  -0.00081  -0.01106   1.96283
   A22        1.90309   0.00008   0.00814   0.00573   0.01373   1.91682
   A23        1.98713  -0.00055  -0.00815  -0.00915  -0.01754   1.96959
   A24        1.92562  -0.00023   0.01054  -0.00070   0.00968   1.93530
   A25        1.88836   0.00020   0.00134   0.00045   0.00209   1.89045
    D1        0.79061  -0.00086  -0.01440  -0.02428  -0.03882   0.75178
    D2        2.91942  -0.00003  -0.01878  -0.01553  -0.03446   2.88496
    D3       -1.28364  -0.00066  -0.01401  -0.02811  -0.04219  -1.32583
    D4       -0.63267   0.00043   0.01072   0.01879   0.02951  -0.60316
    D5       -2.77609   0.00074   0.02672   0.02697   0.05361  -2.72248
    D6        1.40544   0.00058   0.02564   0.02293   0.04868   1.45413
    D7       -2.69195   0.00018   0.01138   0.01618   0.02759  -2.66435
    D8        1.44782   0.00048   0.02738   0.02436   0.05170   1.49951
    D9       -0.65383   0.00033   0.02630   0.02032   0.04677  -0.60707
   D10        1.43113  -0.00010   0.01939   0.01489   0.03417   1.46531
   D11       -0.71229   0.00020   0.03539   0.02307   0.05828  -0.65401
   D12       -2.81394   0.00005   0.03430   0.01903   0.05335  -2.76059
   D13       -0.61758   0.00036   0.01602   0.01564   0.03177  -0.58581
   D14        1.46599   0.00040   0.02258   0.01819   0.04081   1.50680
   D15       -2.76061   0.00053   0.02463   0.01497   0.03972  -2.72089
   D16        0.20132  -0.00043  -0.01111  -0.00258  -0.01361   0.18771
   D17        2.29380  -0.00039  -0.01507  -0.00314  -0.01816   2.27564
   D18       -1.89251  -0.00032  -0.01804  -0.00084  -0.01882  -1.91132
   D19       -1.86647  -0.00033  -0.01580  -0.00510  -0.02083  -1.88730
   D20        0.22602  -0.00030  -0.01977  -0.00565  -0.02539   0.20063
   D21        2.32290  -0.00022  -0.02273  -0.00335  -0.02604   2.29685
   D22        2.26766   0.00008  -0.01747   0.00503  -0.01240   2.25526
   D23       -1.92304   0.00011  -0.02143   0.00448  -0.01695  -1.94000
   D24        0.17383   0.00018  -0.02440   0.00678  -0.01761   0.15623
   D25        0.25293  -0.00010   0.00037  -0.01056  -0.01018   0.24274
   D26        2.38734  -0.00018  -0.01693  -0.01305  -0.02992   2.35742
   D27       -1.76888  -0.00049  -0.01287  -0.01950  -0.03249  -1.80137
   D28       -1.82485  -0.00003  -0.00097  -0.01068  -0.01159  -1.83644
   D29        0.30957  -0.00011  -0.01828  -0.01316  -0.03133   0.27824
   D30        2.43653  -0.00042  -0.01422  -0.01961  -0.03389   2.40263
   D31        2.34952   0.00007   0.00213  -0.00770  -0.00550   2.34401
   D32       -1.79925  -0.00001  -0.01518  -0.01019  -0.02524  -1.82450
   D33        0.32771  -0.00032  -0.01112  -0.01663  -0.02781   0.29990
         Item               Value     Threshold  Converged?
 Maximum Force            0.002449     0.000015     NO 
 RMS     Force            0.000644     0.000010     NO 
 Maximum Displacement     0.070549     0.000060     NO 
 RMS     Displacement     0.018366     0.000040     NO 
 Predicted change in Energy=-1.997763D-04
 Lowest energy point so far.  Saving SCF results.
 GradGradGradGradGradGradGradGradGradGradGradGradGradGradGradGradGradGrad

 Leave Link  103 at Mon Aug 25 14:24:24 2025, MaxMem=  4294967296 cpu:               0.1 elap:               0.0
 (Enter /opt/apps/Gaussian/G16C/g16/l202.exe)
                          Input orientation:                          
 ---------------------------------------------------------------------
 Center     Atomic      Atomic             Coordinates (Angstroms)
 Number     Number       Type             X           Y           Z
 ---------------------------------------------------------------------
      1          6           0       -1.722820    0.321637    0.747819
      2          8           0       -0.943477   -0.448229   -0.153718
      3          6           0        0.138594    0.393137   -0.539575
      4          6           0       -0.412844    1.836218   -0.564608
      5          6           0       -1.795951    1.707367    0.107965
      6          1           0       -2.690630   -0.170413    0.866689
      7          1           0       -1.225152    0.370087    1.730661
      8          1           0        0.953723    0.297380    0.193292
      9          1           0        0.500324    0.044655   -1.509462
     10          1           0        0.242363    2.511084   -0.006854
     11          1           0       -0.495869    2.220869   -1.584284
     12          1           0       -1.986904    2.496014    0.840377
     13          1           0       -2.596306    1.729898   -0.638274
 ---------------------------------------------------------------------
                    Distance matrix (angstroms):
                    1          2          3          4          5
     1  C    0.000000
     2  O    1.418745   0.000000
     3  C    2.264366   1.423959   0.000000
     4  C    2.394256   2.380987   1.545054   0.000000
     5  C    1.528074   2.332763   2.426720   1.543355   0.000000
     6  H    1.092199   2.042291   3.209310   3.356112   2.214084
     7  H    1.102723   2.073612   2.648453   2.842120   2.178824
     8  H    2.733490   2.067780   1.100317   2.193157   3.091286
     9  H    3.180315   2.040965   1.092232   2.221783   3.263979
    10  H    3.037294   3.191445   2.186381   1.093541   2.194054
    11  H    3.248261   3.061202   2.198765   1.092973   2.194905
    12  H    2.192311   3.278038   3.293038   2.210652   1.093095
    13  H    2.160424   2.776846   3.045710   2.187290   1.094508
                    6          7          8          9         10
     6  H    0.000000
     7  H    1.784996   0.000000
     8  H    3.735451   2.667637   0.000000
     9  H    3.984285   3.685318   1.780116   0.000000
    10  H    4.068900   3.123528   2.333790   2.899594   0.000000
    11  H    4.067244   3.866020   2.993477   2.394557   1.765644
    12  H    2.757853   2.427435   3.728270   4.209181   2.384882
    13  H    2.425899   3.056305   3.917437   3.631546   3.011144
                   11         12         13
    11  H    0.000000
    12  H    2.859698   0.000000
    13  H    2.355383   1.773334   0.000000
 Symmetry turned off by external request.
 Stoichiometry    C4H8O
 Framework group  C1[X(C4H8O)]
 Deg. of freedom    33
 Full point group                 C1      NOp   1
 Rotational constants (GHZ):           7.1721556           6.9455015           4.0133375
 Leave Link  202 at Mon Aug 25 14:24:24 2025, MaxMem=  4294967296 cpu:               0.0 elap:               0.0
 (Enter /opt/apps/Gaussian/G16C/g16/l301.exe)
 Standard basis: 6-31+G(d) (6D, 7F)
 Ernie: Thresh=  0.10000D-02 Tol=  0.10000D-05 Strict=F.
   111 basis functions,   192 primitive gaussians,   111 cartesian basis functions
    20 alpha electrons       20 beta electrons
       nuclear repulsion energy       190.7557993421 Hartrees.
 IExCor= 4639 DFT=T Ex+Corr=wB97XD ExCW=0 ScaHFX=  1.000000
 ScaDFX=  1.000000  1.000000  1.000000  1.000000 ScalE2=  1.000000  1.000000
 IRadAn=      5 IRanWt=     -1 IRanGd=            0 ICorTp=0 IEmpDi=121
 HFx  wShort=  0.000000 wLong=  0.200000 cFull=  0.222036 cShort=  0.000000 cLong=  0.777964
 DFx  wShort=  0.000000 wLong=  0.200000 cFull=  0.000000 cShort=  0.000000 cLong=  1.000000
 NAtoms=   13 NActive=   13 NUniq=   13 SFac= 1.00D+00 NAtFMM=   60 NAOKFM=F Big=F
 Integral buffers will be    131072 words long.
 Raffenetti 2 integral format.
 Two-electron integral symmetry is turned off.
 R6Disp:  Grimme-D2 Dispersion energy=       -0.0056648966 Hartrees.
 Nuclear repulsion after empirical dispersion term =      190.7501344455 Hartrees.
 ------------------------------------------------------------------------------
 Polarizable Continuum Model (PCM)
 =================================
 Model                : PCM.
 Atomic radii         : SMD-Coulomb.
 Polarization charges : Total charges.
 Charge compensation  : None.
 Solution method      : On-the-fly selection.
 Cavity type          : VdW (van der Waals Surface) (Alpha=1.000).
 Cavity algorithm     : GePol (No added spheres)
                        Default sphere list used, NSphG=   13.
                        Lebedev-Laikov grids with approx.  5.0 points / Ang**2.
                        Smoothing algorithm: York/Karplus (Gamma=1.0000).
                        Polarization charges: spherical gaussians, with
                                              point-specific exponents (IZeta= 3).
                        Self-potential: point-specific (ISelfS= 7).
                        Self-field    : sphere-specific E.n sum rule (ISelfD= 2).
 1st derivatives      : Analytical E(r).r(x)/FMM algorithm (CHGder, D1EAlg=3).
                        Cavity 1st derivative terms included.
 Solvent              : TetraHydroFuran, Eps=   7.425700 Eps(inf)=   1.974025
 ------------------------------------------------------------------------------
 Spheres list:
 ISph  on   Nord     Re0    Alpha      Xe            Ye            Ze
    1   C      1    1.8500  1.000     -1.722820      0.321637      0.747819
    2   O      2    2.2940  1.000     -0.943477     -0.448229     -0.153718
    3   C      3    1.8500  1.000      0.138594      0.393137     -0.539575
    4   C      4    1.8500  1.000     -0.412844      1.836218     -0.564608
    5   C      5    1.8500  1.000     -1.795951      1.707367      0.107965
    6   H      6    1.2000  1.000     -2.690630     -0.170413      0.866689
    7   H      7    1.2000  1.000     -1.225152      0.370087      1.730661
    8   H      8    1.2000  1.000      0.953723      0.297380      0.193292
    9   H      9    1.2000  1.000      0.500324      0.044655     -1.509462
   10   H     10    1.2000  1.000      0.242363      2.511084     -0.006854
   11   H     11    1.2000  1.000     -0.495869      2.220869     -1.584284
   12   H     12    1.2000  1.000     -1.986904      2.496014      0.840377
   13   H     13    1.2000  1.000     -2.596306      1.729898     -0.638274
 ------------------------------------------------------------------------------
 GePol: Number of generator spheres                  =      13
 GePol: Total number of spheres                      =      13
 GePol: Number of exposed spheres                    =      13 (100.00%)
 GePol: Number of points                             =     986
 GePol: Average weight of points                     =       0.12
 GePol: Minimum weight of points                     =   0.22D-08
 GePol: Maximum weight of points                     =    0.17992
 GePol: Number of points with low weight             =      46
 GePol: Fraction of low-weight points (<1% of avg)   =       4.67%
 GePol: Cavity surface area                          =    115.167 Ang**2
 GePol: Cavity volume                                =     98.415 Ang**3
 ------------------------------------------------------------------------------
 Atomic radii for non-electrostatic terms: SMD-CDS.
 ------------------------------------------------------------------------------
 PCM non-electrostatic energy =        -0.0025704105 Hartrees.
 Nuclear repulsion after PCM non-electrostatic terms =      190.7475640350 Hartrees.
 Leave Link  301 at Mon Aug 25 14:24:24 2025, MaxMem=  4294967296 cpu:               0.1 elap:               0.0
 (Enter /opt/apps/Gaussian/G16C/g16/l302.exe)
 NPDir=0 NMtPBC=     1 NCelOv=     1 NCel=       1 NClECP=     1 NCelD=      1
         NCelK=      1 NCelE2=     1 NClLst=     1 CellRange=     0.0.
 One-electron integrals computed using PRISM.
 NBasis=   111 RedAO= T EigKep=  3.65D-05  NBF=   111
 NBsUse=   111 1.00D-06 EigRej= -1.00D+00 NBFU=   111
 Precomputing XC quadrature grid using
 IXCGrd= 4 IRadAn=           5 IRanWt=          -1 IRanGd=           0 AccXCQ= 0.00D+00.
 Generated NRdTot=       0 NPtTot=           0 NUsed=           0 NTot=          32
 NSgBfM=   111   111   111   111   111 MxSgAt=    13 MxSgA2=    13.
 Leave Link  302 at Mon Aug 25 14:24:24 2025, MaxMem=  4294967296 cpu:               1.1 elap:               0.1
 (Enter /opt/apps/Gaussian/G16C/g16/l303.exe)
 DipDrv:  MaxL=1.
 Leave Link  303 at Mon Aug 25 14:24:24 2025, MaxMem=  4294967296 cpu:               0.1 elap:               0.0
 (Enter /opt/apps/Gaussian/G16C/g16/l401.exe)
 Initial guess from the checkpoint file:  "THF-dzpop.chk"
 B after Tr=     0.012462    0.003479    0.020166
         Rot=    0.999992    0.003202    0.000681   -0.002125 Ang=   0.45 deg.
 Guess basis will be translated and rotated to current coordinates.
 JPrj=2 DoOrth=T DoCkMO=T.
 Generating alternative initial guess.
 ExpMin= 4.38D-02 ExpMax= 5.48D+03 ExpMxC= 8.25D+02 IAcc=3 IRadAn=         5 AccDes= 0.00D+00
 Harris functional with IExCor= 4639 and IRadAn=       5 diagonalized for initial guess.
 HarFok:  IExCor= 4639 AccDes= 0.00D+00 IRadAn=         5 IDoV= 1 UseB2=F ITyADJ=14
 ICtDFT=  3500011 ScaDFX=  1.000000  1.000000  1.000000  1.000000
 FoFCou: FMM=F IPFlag=           0 FMFlag=      100000 FMFlg1=           0
         NFxFlg=           0 DoJE=T BraDBF=F KetDBF=T FulRan=T
         wScrn=  0.000000 ICntrl=       500 IOpCl=  0 I1Cent=   200000004 NGrid=           0
         NMat0=    1 NMatS0=      1 NMatT0=    0 NMatD0=    1 NMtDS0=    0 NMtDT0=    0
 Symmetry not used in FoFCou.
 Harris En= -222.057770169373    
 Leave Link  401 at Mon Aug 25 14:24:25 2025, MaxMem=  4294967296 cpu:               3.3 elap:               0.3
 (Enter /opt/apps/Gaussian/G16C/g16/l502.exe)
 Two-electron integral symmetry not used.
 Closed shell SCF:
 Using DIIS extrapolation, IDIIS=  1040.
 NGot=  4294967296 LenX=  4294939455 LenY=  4294926693
 Requested convergence on RMS density matrix=1.00D-08 within 128 cycles.
 Requested convergence on MAX density matrix=1.00D-06.
 Requested convergence on             energy=1.00D-06.
 No special actions if energy rises.
 Fock matrices will be formed incrementally for  20 cycles.

 Cycle   1  Pass 1  IDiag  1:
 FoFJK:  IHMeth= 1 ICntrl=       0 DoSepK=T KAlg= 0 I1Cent=           0 FoldK=F
 IRaf=         1 NMat=       1 IRICut=       1 DoRegI=T DoRafI=F ISym2E= 0 IDoP0=0 IntGTp=1.
 FoFCou: FMM=F IPFlag=           0 FMFlag=      100000 FMFlg1=           0
         NFxFlg=           0 DoJE=T BraDBF=F KetDBF=F FulRan=T
         wScrn=  0.000000 ICntrl=       500 IOpCl=  0 I1Cent=           0 NGrid=           0
         NMat0=    1 NMatS0=      1 NMatT0=    0 NMatD0=    1 NMtDS0=    0 NMtDT0=    0
 Symmetry not used in FoFCou.
 Inv3:  Mode=1 IEnd=     2916588.
 Iteration    1 A*A^-1 deviation from unit magnitude is 4.00D-15 for    970.
 Iteration    1 A*A^-1 deviation from orthogonality  is 2.28D-15 for    633    426.
 Iteration    1 A^-1*A deviation from unit magnitude is 4.22D-15 for    970.
 Iteration    1 A^-1*A deviation from orthogonality  is 1.30D-15 for    655     89.
 E= -232.392351936534    
 DIIS: error= 1.29D-03 at cycle   1 NSaved=   1.
 NSaved= 1 IEnMin= 1 EnMin= -232.392351936534     IErMin= 1 ErrMin= 1.29D-03
 ErrMax= 1.29D-03  0.00D+00 EMaxC= 1.00D-01 BMatC= 3.67D-04 BMatP= 3.67D-04
 IDIUse=3 WtCom= 9.87D-01 WtEn= 1.29D-02
 Coeff-Com:  0.100D+01
 Coeff-En:   0.100D+01
 Coeff:      0.100D+01
 Gap=     0.835 Goal=   None    Shift=    0.000
 GapD=    0.835 DampG=2.000 DampE=1.000 DampFc=2.0000 IDamp=-1.
 RMSDP=3.93D-04 MaxDP=5.15D-03              OVMax= 5.99D-03

 Cycle   2  Pass 1  IDiag  1:
 RMSU=  3.93D-04    CP:  1.00D+00
 E= -232.393015812631     Delta-E=       -0.000663876097 Rises=F Damp=F
 DIIS: error= 3.05D-04 at cycle   2 NSaved=   2.
 NSaved= 2 IEnMin= 2 EnMin= -232.393015812631     IErMin= 2 ErrMin= 3.05D-04
 ErrMax= 3.05D-04  0.00D+00 EMaxC= 1.00D-01 BMatC= 1.70D-05 BMatP= 3.67D-04
 IDIUse=3 WtCom= 9.97D-01 WtEn= 3.05D-03
 Coeff-Com: -0.191D+00 0.119D+01
 Coeff-En:   0.000D+00 0.100D+01
 Coeff:     -0.191D+00 0.119D+01
 Gap=     0.419 Goal=   None    Shift=    0.000
 RMSDP=1.13D-04 MaxDP=1.54D-03 DE=-6.64D-04 OVMax= 1.93D-03

 Cycle   3  Pass 1  IDiag  1:
 RMSU=  8.67D-05    CP:  1.00D+00  1.18D+00
 E= -232.393057272191     Delta-E=       -0.000041459560 Rises=F Damp=F
 DIIS: error= 8.59D-05 at cycle   3 NSaved=   3.
 NSaved= 3 IEnMin= 3 EnMin= -232.393057272191     IErMin= 3 ErrMin= 8.59D-05
 ErrMax= 8.59D-05  0.00D+00 EMaxC= 1.00D-01 BMatC= 2.01D-06 BMatP= 1.70D-05
 IDIUse=1 WtCom= 1.00D+00 WtEn= 0.00D+00
 Coeff-Com: -0.730D-01 0.333D+00 0.740D+00
 Coeff:     -0.730D-01 0.333D+00 0.740D+00
 Gap=     0.418 Goal=   None    Shift=    0.000
 RMSDP=2.67D-05 MaxDP=3.19D-04 DE=-4.15D-05 OVMax= 3.94D-04

 Cycle   4  Pass 1  IDiag  1:
 RMSU=  2.51D-05    CP:  1.00D+00  1.20D+00  1.04D+00
 E= -232.393059547064     Delta-E=       -0.000002274873 Rises=F Damp=F
 DIIS: error= 2.68D-05 at cycle   4 NSaved=   4.
 NSaved= 4 IEnMin= 4 EnMin= -232.393059547064     IErMin= 4 ErrMin= 2.68D-05
 ErrMax= 2.68D-05  0.00D+00 EMaxC= 1.00D-01 BMatC= 2.13D-07 BMatP= 2.01D-06
 IDIUse=1 WtCom= 1.00D+00 WtEn= 0.00D+00
 Coeff-Com:  0.651D-02-0.711D-01 0.182D+00 0.883D+00
 Coeff:      0.651D-02-0.711D-01 0.182D+00 0.883D+00
 Gap=     0.418 Goal=   None    Shift=    0.000
 RMSDP=1.04D-05 MaxDP=1.30D-04 DE=-2.27D-06 OVMax= 2.25D-04

 Cycle   5  Pass 1  IDiag  1:
 RMSU=  7.12D-06    CP:  1.00D+00  1.21D+00  1.11D+00  1.01D+00
 E= -232.393059853792     Delta-E=       -0.000000306729 Rises=F Damp=F
 DIIS: error= 9.90D-06 at cycle   5 NSaved=   5.
 NSaved= 5 IEnMin= 5 EnMin= -232.393059853792     IErMin= 5 ErrMin= 9.90D-06
 ErrMax= 9.90D-06  0.00D+00 EMaxC= 1.00D-01 BMatC= 2.05D-08 BMatP= 2.13D-07
 IDIUse=1 WtCom= 1.00D+00 WtEn= 0.00D+00
 Coeff-Com:  0.615D-02-0.426D-01 0.210D-01 0.304D+00 0.712D+00
 Coeff:      0.615D-02-0.426D-01 0.210D-01 0.304D+00 0.712D+00
 Gap=     0.418 Goal=   None    Shift=    0.000
 RMSDP=3.05D-06 MaxDP=4.12D-05 DE=-3.07D-07 OVMax= 5.60D-05

 Cycle   6  Pass 1  IDiag  1:
 RMSU=  1.87D-06    CP:  1.00D+00  1.22D+00  1.11D+00  1.04D+00  1.22D+00
 E= -232.393059872931     Delta-E=       -0.000000019138 Rises=F Damp=F
 DIIS: error= 4.94D-06 at cycle   6 NSaved=   6.
 NSaved= 6 IEnMin= 6 EnMin= -232.393059872931     IErMin= 6 ErrMin= 4.94D-06
 ErrMax= 4.94D-06  0.00D+00 EMaxC= 1.00D-01 BMatC= 4.06D-09 BMatP= 2.05D-08
 IDIUse=1 WtCom= 1.00D+00 WtEn= 0.00D+00
 Coeff-Com:  0.176D-02-0.841D-02-0.181D-01 0.582D-02 0.320D+00 0.698D+00
 Coeff:      0.176D-02-0.841D-02-0.181D-01 0.582D-02 0.320D+00 0.698D+00
 Gap=     0.418 Goal=   None    Shift=    0.000
 RMSDP=1.62D-06 MaxDP=2.40D-05 DE=-1.91D-08 OVMax= 2.89D-05

 Cycle   7  Pass 1  IDiag  1:
 RMSU=  5.70D-07    CP:  1.00D+00  1.22D+00  1.11D+00  1.06D+00  1.39D+00
                    CP:  1.13D+00
 E= -232.393059877298     Delta-E=       -0.000000004367 Rises=F Damp=F
 DIIS: error= 9.01D-07 at cycle   7 NSaved=   7.
 NSaved= 7 IEnMin= 7 EnMin= -232.393059877298     IErMin= 7 ErrMin= 9.01D-07
 ErrMax= 9.01D-07  0.00D+00 EMaxC= 1.00D-01 BMatC= 9.72D-11 BMatP= 4.06D-09
 IDIUse=1 WtCom= 1.00D+00 WtEn= 0.00D+00
 Coeff-Com: -0.622D-03 0.415D-02-0.148D-02-0.276D-01-0.785D-01-0.624D-02
 Coeff-Com:  0.111D+01
 Coeff:     -0.622D-03 0.415D-02-0.148D-02-0.276D-01-0.785D-01-0.624D-02
 Coeff:      0.111D+01
 Gap=     0.418 Goal=   None    Shift=    0.000
 RMSDP=8.74D-07 MaxDP=1.44D-05 DE=-4.37D-09 OVMax= 1.55D-05

 Cycle   8  Pass 1  IDiag  1:
 RMSU=  2.11D-07    CP:  1.00D+00  1.22D+00  1.10D+00  1.06D+00  1.47D+00
                    CP:  1.31D+00  1.36D+00
 E= -232.393059877648     Delta-E=       -0.000000000350 Rises=F Damp=F
 DIIS: error= 2.20D-07 at cycle   8 NSaved=   8.
 NSaved= 8 IEnMin= 8 EnMin= -232.393059877648     IErMin= 8 ErrMin= 2.20D-07
 ErrMax= 2.20D-07  0.00D+00 EMaxC= 1.00D-01 BMatC= 4.88D-12 BMatP= 9.72D-11
 IDIUse=1 WtCom= 1.00D+00 WtEn= 0.00D+00
 Coeff-Com: -0.119D-03 0.647D-03 0.777D-03-0.139D-02-0.199D-01-0.359D-01
 Coeff-Com:  0.446D-01 0.101D+01
 Coeff:     -0.119D-03 0.647D-03 0.777D-03-0.139D-02-0.199D-01-0.359D-01
 Coeff:      0.446D-01 0.101D+01
 Gap=     0.418 Goal=   None    Shift=    0.000
 RMSDP=1.50D-07 MaxDP=2.34D-06 DE=-3.50D-10 OVMax= 3.58D-06

 Cycle   9  Pass 1  IDiag  1:
 RMSU=  4.11D-08    CP:  1.00D+00  1.22D+00  1.10D+00  1.06D+00  1.48D+00
                    CP:  1.34D+00  1.47D+00  1.36D+00
 E= -232.393059877657     Delta-E=       -0.000000000010 Rises=F Damp=F
 DIIS: error= 6.21D-08 at cycle   9 NSaved=   9.
 NSaved= 9 IEnMin= 9 EnMin= -232.393059877657     IErMin= 9 ErrMin= 6.21D-08
 ErrMax= 6.21D-08  0.00D+00 EMaxC= 1.00D-01 BMatC= 1.03D-12 BMatP= 4.88D-12
 IDIUse=1 WtCom= 1.00D+00 WtEn= 0.00D+00
 Coeff-Com:  0.194D-04-0.181D-03 0.422D-03 0.226D-02 0.624D-03-0.118D-01
 Coeff-Com: -0.920D-01 0.329D+00 0.772D+00
 Coeff:      0.194D-04-0.181D-03 0.422D-03 0.226D-02 0.624D-03-0.118D-01
 Coeff:     -0.920D-01 0.329D+00 0.772D+00
 Gap=     0.418 Goal=   None    Shift=    0.000
 RMSDP=3.58D-08 MaxDP=5.85D-07 DE=-9.75D-12 OVMax= 9.07D-07

 Cycle  10  Pass 1  IDiag  1:
 RMSU=  1.43D-08    CP:  1.00D+00  1.22D+00  1.10D+00  1.06D+00  1.48D+00
                    CP:  1.34D+00  1.50D+00  1.49D+00  1.13D+00
 E= -232.393059877663     Delta-E=       -0.000000000006 Rises=F Damp=F
 DIIS: error= 1.59D-08 at cycle  10 NSaved=  10.
 NSaved=10 IEnMin=10 EnMin= -232.393059877663     IErMin=10 ErrMin= 1.59D-08
 ErrMax= 1.59D-08  0.00D+00 EMaxC= 1.00D-01 BMatC= 4.66D-14 BMatP= 1.03D-12
 IDIUse=1 WtCom= 1.00D+00 WtEn= 0.00D+00
 Coeff-Com:  0.144D-04-0.887D-04-0.224D-04 0.421D-03 0.206D-02 0.228D-02
 Coeff-Com: -0.145D-01-0.656D-01 0.951D-01 0.980D+00
 Coeff:      0.144D-04-0.887D-04-0.224D-04 0.421D-03 0.206D-02 0.228D-02
 Coeff:     -0.145D-01-0.656D-01 0.951D-01 0.980D+00
 Gap=     0.418 Goal=   None    Shift=    0.000
 RMSDP=1.42D-08 MaxDP=2.15D-07 DE=-5.66D-12 OVMax= 2.77D-07

 Cycle  11  Pass 1  IDiag  1:
 RMSU=  3.27D-09    CP:  1.00D+00  1.22D+00  1.10D+00  1.06D+00  1.48D+00
                    CP:  1.34D+00  1.50D+00  1.52D+00  1.30D+00  1.30D+00
 E= -232.393059877659     Delta-E=        0.000000000004 Rises=F Damp=F
 DIIS: error= 2.31D-09 at cycle  11 NSaved=  11.
 NSaved=11 IEnMin=10 EnMin= -232.393059877663     IErMin=11 ErrMin= 2.31D-09
 ErrMax= 2.31D-09  0.00D+00 EMaxC= 1.00D-01 BMatC= 1.13D-15 BMatP= 4.66D-14
 IDIUse=1 WtCom= 1.00D+00 WtEn= 0.00D+00
 Coeff-Com: -0.164D-05 0.123D-04-0.173D-04-0.118D-03-0.153D-03 0.379D-03
 Coeff-Com:  0.504D-02-0.105D-01-0.394D-01-0.563D-01 0.110D+01
 Coeff:     -0.164D-05 0.123D-04-0.173D-04-0.118D-03-0.153D-03 0.379D-03
 Coeff:      0.504D-02-0.105D-01-0.394D-01-0.563D-01 0.110D+01
 Gap=     0.418 Goal=   None    Shift=    0.000
 RMSDP=3.26D-09 MaxDP=5.76D-08 DE= 4.41D-12 OVMax= 5.28D-08

 Error on total polarization charges =  0.02885
 SCF Done:  E(RwB97XD) =  -232.393059878     A.U. after   11 cycles
            NFock= 11  Conv=0.33D-08     -V/T= 2.0093
 KE= 2.302417245104D+02 PE=-9.221617830437D+02 EE= 2.687794346206D+02
 SMD-CDS (non-electrostatic) energy       (kcal/mol) =      -1.61
 (included in total energy above)
 Leave Link  502 at Mon Aug 25 14:24:30 2025, MaxMem=  4294967296 cpu:              78.2 elap:               5.7
 (Enter /opt/apps/Gaussian/G16C/g16/l701.exe)
 ... and contract with generalized density number  0.
 Compute integral first derivatives.
 R6Disp: Adding Grimme-D2 dispersion energy 1st derivatives to the gradient.
 D1PCM: PCM CHGder 1st derivatives, ID1Alg=3 FixD1E=F DoIter=F DoCFld=F I1PDM=0.
 GePol: Maximum number of non-zero 1st derivatives   =     315
 Leave Link  701 at Mon Aug 25 14:24:31 2025, MaxMem=  4294967296 cpu:               3.6 elap:               0.3
 (Enter /opt/apps/Gaussian/G16C/g16/l702.exe)
 L702 exits ... SP integral derivatives will be done elsewhere.
 Leave Link  702 at Mon Aug 25 14:24:31 2025, MaxMem=  4294967296 cpu:               0.0 elap:               0.0
 (Enter /opt/apps/Gaussian/G16C/g16/l703.exe)
 Integral derivatives from FoFJK, PRISM(SPDF).
 Compute integral first derivatives, UseDBF=F ICtDFT=           0.
 Calling FoFJK, ICntrl=      2127 FMM=F ISym2X=0 I1Cent= 0 IOpClX= 0 NMat=1 NMatS=1 NMatT=0.
 FoFJK:  IHMeth= 1 ICntrl=    2127 DoSepK=T KAlg= 0 I1Cent=           0 FoldK=F
 IRaf=         1 NMat=       1 IRICut=       1 DoRegI=T DoRafI=F ISym2E= 0 IDoP0=0 IntGTp=1.
 FoFCou: FMM=F IPFlag=           0 FMFlag=      100000 FMFlg1=         800
         NFxFlg=           0 DoJE=F BraDBF=F KetDBF=F FulRan=T
         wScrn=  0.000000 ICntrl=      2527 IOpCl=  0 I1Cent=           0 NGrid=           0
         NMat0=    1 NMatS0=      1 NMatT0=    0 NMatD0=    1 NMtDS0=    0 NMtDT0=    0
 Symmetry not used in FoFCou.
 Leave Link  703 at Mon Aug 25 14:24:31 2025, MaxMem=  4294967296 cpu:               9.9 elap:               0.7
 (Enter /opt/apps/Gaussian/G16C/g16/l716.exe)
 Dipole        = 8.14523414D-02 8.54681023D-01 1.84677705D-01
 -------------------------------------------------------------------
 Center     Atomic                   Forces (Hartrees/Bohr)
 Number     Number              X              Y              Z
 -------------------------------------------------------------------
      1        6          -0.001193452    0.000777729    0.000777918
      2        8           0.000591558   -0.000260869   -0.000145678
      3        6           0.000525462    0.000427069   -0.000372477
      4        6           0.000104344   -0.000075890    0.000042850
      5        6           0.000175684   -0.000381611    0.000149326
      6        1          -0.000329922   -0.000378275   -0.000120338
      7        1          -0.000013809   -0.000212277    0.000069613
      8        1           0.000088975    0.000134205    0.000000856
      9        1           0.000059114   -0.000400068   -0.000378281
     10        1           0.000469038    0.000131311    0.000140636
     11        1          -0.000075305   -0.000098992   -0.000467156
     12        1          -0.000276017    0.000281799    0.000417842
     13        1          -0.000125669    0.000055870   -0.000115111
 -------------------------------------------------------------------
 Cartesian Forces:  Max     0.001193452 RMS     0.000371768
 Leave Link  716 at Mon Aug 25 14:24:31 2025, MaxMem=  4294967296 cpu:               0.0 elap:               0.0
 (Enter /opt/apps/Gaussian/G16C/g16/l103.exe)

 GradGradGradGradGradGradGradGradGradGradGradGradGradGradGradGradGradGrad
 Berny optimization.
 Using GEDIIS/GDIIS optimizer.
 FormGI is forming the generalized inverse of G from B-inverse, IUseBI=4.
 Internal  Forces:  Max     0.000989520 RMS     0.000278525
 Search for a local minimum.
 Step number   5 out of a maximum of   81
 All quantities printed in internal units (Hartrees-Bohrs-Radians)
 RMS Force = .27852D-03 SwitMx=.10000D-02 MixMth= 2
 Mixed Optimization -- En-DIIS/RFO-DIIS
 Swapping is turned off.
 Update second derivatives using D2CorX and points    4    5
 DE= -2.26D-04 DEPred=-2.00D-04 R= 1.13D+00
 TightC=F SS=  1.41D+00  RLast= 1.96D-01 DXNew= 2.2930D+00 5.8798D-01
 Trust test= 1.13D+00 RLast= 1.96D-01 DXMaxT set to 1.36D+00
 ITU=  1  1  1  1  0
     Eigenvalues ---    0.00478   0.00719   0.02638   0.03509   0.04994
     Eigenvalues ---    0.05238   0.05571   0.05807   0.05876   0.06620
     Eigenvalues ---    0.06902   0.07034   0.07462   0.09567   0.10833
     Eigenvalues ---    0.11242   0.11506   0.12906   0.20504   0.25692
     Eigenvalues ---    0.27106   0.27815   0.31543   0.33734   0.36512
     Eigenvalues ---    0.37154   0.37230   0.37230   0.37230   0.37236
     Eigenvalues ---    0.37312   0.37461   0.41111
 En-DIIS/RFO-DIIS/Sim-DIIS IScMMF=       -3 using points:     5    4
 RFO step:  Lambda=-4.14197722D-05.
 NNeg= 0 NGDIIS= 2 SimSw=  2.50D-01 Rises=F DC= -2.26D-04 SmlDif=  1.00D-05
 NRisDI= 0 DoIntr=F SqrtH=F CThrHd= 10.0 CDAdj=  3.0
 RMS Error=  0.7006479208D-02 NUsed= 2 OKEnD=T EnDIS=F
 InvSVX:  RCond= 9.26D-03 Info=           0 Equed=N FErr=  1.63D-15 BErr=  4.40D-17
 DidBck=F Rises=F RFO-DIIS coefs:    1.26112   -0.26112
 Iteration  1 RMS(Cart)=  0.00703074 RMS(Int)=  0.00003779
 Iteration  2 RMS(Cart)=  0.00003232 RMS(Int)=  0.00002455
 Iteration  3 RMS(Cart)=  0.00000000 RMS(Int)=  0.00002455
 ITry= 1 IFail=0 DXMaxC= 2.61D-02 DCOld= 1.00D+10 DXMaxT= 1.36D+00 DXLimC= 3.00D+00 Rises=F
 Variable       Old X    -DE/DX   Delta X   Delta X   Delta X     New X
                                 (Linear)    (Quad)   (Total)
    R1        2.68104   0.00099  -0.00062   0.00279   0.00215   2.68319
    R2        2.88764   0.00004   0.00227  -0.00122   0.00104   2.88868
    R3        2.06396   0.00045   0.00050   0.00069   0.00118   2.06514
    R4        2.08384   0.00005  -0.00036   0.00039   0.00003   2.08387
    R5        2.69089   0.00050   0.00105  -0.00029   0.00076   2.69165
    R6        2.91973   0.00002   0.00091  -0.00136  -0.00044   2.91929
    R7        2.07930   0.00006  -0.00076   0.00058  -0.00018   2.07912
    R8        2.06402   0.00048   0.00047   0.00084   0.00130   2.06532
    R9        2.91652   0.00094  -0.00015   0.00250   0.00236   2.91888
   R10        2.06649   0.00043   0.00030   0.00080   0.00110   2.06759
   R11        2.06542   0.00041   0.00019   0.00080   0.00099   2.06641
   R12        2.06565   0.00053   0.00065   0.00089   0.00153   2.06718
   R13        2.06832   0.00017  -0.00076   0.00080   0.00004   2.06836
    A1        1.82585  -0.00047   0.00250  -0.00114   0.00127   1.82712
    A2        1.88752   0.00014  -0.00102  -0.00144  -0.00244   1.88508
    A3        1.92015  -0.00006   0.00001  -0.00015  -0.00012   1.92003
    A4        1.99513   0.00030   0.00024  -0.00006   0.00021   1.99534
    A5        1.93367   0.00018  -0.00044   0.00180   0.00137   1.93504
    A6        1.89938  -0.00011  -0.00116   0.00081  -0.00036   1.89901
    A7        1.84314   0.00062   0.00313   0.00232   0.00534   1.84849
    A8        1.85985  -0.00033   0.00107  -0.00153  -0.00053   1.85932
    A9        1.90820   0.00022   0.00047   0.00068   0.00117   1.90937
   A10        1.87945  -0.00008   0.00094  -0.00327  -0.00231   1.87713
   A11        1.93529  -0.00013   0.00126  -0.00106   0.00019   1.93547
   A12        1.98429   0.00036  -0.00269   0.00368   0.00101   1.98530
   A13        1.89477  -0.00004  -0.00090   0.00131   0.00041   1.89517
   A14        1.80782   0.00017   0.00104   0.00087   0.00188   1.80970
   A15        1.93296  -0.00018   0.00052  -0.00190  -0.00138   1.93158
   A16        1.95081  -0.00015   0.00029  -0.00243  -0.00213   1.94868
   A17        1.94572   0.00019  -0.00173   0.00351   0.00179   1.94751
   A18        1.94751  -0.00013   0.00049  -0.00126  -0.00076   1.94676
   A19        1.87986   0.00009  -0.00057   0.00114   0.00056   1.88042
   A20        1.78779   0.00027   0.00114   0.00141   0.00247   1.79026
   A21        1.96283  -0.00020  -0.00289   0.00070  -0.00218   1.96065
   A22        1.91682  -0.00004   0.00359  -0.00293   0.00064   1.91746
   A23        1.96959   0.00025  -0.00458   0.00503   0.00046   1.97005
   A24        1.93530  -0.00031   0.00253  -0.00303  -0.00052   1.93477
   A25        1.89045   0.00001   0.00055  -0.00130  -0.00074   1.88971
    D1        0.75178  -0.00028  -0.01014  -0.00181  -0.01196   0.73982
    D2        2.88496  -0.00011  -0.00900  -0.00325  -0.01227   2.87269
    D3       -1.32583  -0.00019  -0.01102  -0.00322  -0.01423  -1.34006
    D4       -0.60316   0.00042   0.00771   0.00575   0.01345  -0.58971
    D5       -2.72248   0.00005   0.01400  -0.00151   0.01249  -2.70998
    D6        1.45413   0.00019   0.01271   0.00171   0.01443   1.46856
    D7       -2.66435   0.00040   0.00721   0.00828   0.01549  -2.64886
    D8        1.49951   0.00003   0.01350   0.00103   0.01453   1.51404
    D9       -0.60707   0.00017   0.01221   0.00424   0.01647  -0.59060
   D10        1.46531   0.00017   0.00892   0.00582   0.01473   1.48004
   D11       -0.65401  -0.00020   0.01522  -0.00143   0.01377  -0.64024
   D12       -2.76059  -0.00006   0.01393   0.00178   0.01571  -2.74488
   D13       -0.58581   0.00017   0.00830  -0.00210   0.00623  -0.57958
   D14        1.50680  -0.00005   0.01066  -0.00388   0.00679   1.51359
   D15       -2.72089  -0.00002   0.01037  -0.00379   0.00660  -2.71429
   D16        0.18771  -0.00011  -0.00355   0.00478   0.00123   0.18894
   D17        2.27564   0.00012  -0.00474   0.00848   0.00373   2.27937
   D18       -1.91132   0.00001  -0.00491   0.00700   0.00209  -1.90924
   D19       -1.88730  -0.00011  -0.00544   0.00547   0.00004  -1.88726
   D20        0.20063   0.00012  -0.00663   0.00917   0.00254   0.20317
   D21        2.29685   0.00001  -0.00680   0.00769   0.00090   2.29775
   D22        2.25526  -0.00022  -0.00324   0.00185  -0.00139   2.25387
   D23       -1.94000   0.00002  -0.00443   0.00555   0.00111  -1.93888
   D24        0.15623  -0.00009  -0.00460   0.00407  -0.00053   0.15570
   D25        0.24274   0.00000  -0.00266  -0.00539  -0.00806   0.23469
   D26        2.35742   0.00007  -0.00781  -0.00108  -0.00890   2.34852
   D27       -1.80137   0.00003  -0.00848  -0.00141  -0.00991  -1.81128
   D28       -1.83644   0.00002  -0.00303  -0.00539  -0.00842  -1.84485
   D29        0.27824   0.00008  -0.00818  -0.00108  -0.00925   0.26899
   D30        2.40263   0.00005  -0.00885  -0.00142  -0.01027   2.39237
   D31        2.34401  -0.00014  -0.00144  -0.00840  -0.00985   2.33416
   D32       -1.82450  -0.00008  -0.00659  -0.00410  -0.01069  -1.83518
   D33        0.29990  -0.00011  -0.00726  -0.00443  -0.01170   0.28820
         Item               Value     Threshold  Converged?
 Maximum Force            0.000990     0.000015     NO 
 RMS     Force            0.000279     0.000010     NO 
 Maximum Displacement     0.026079     0.000060     NO 
 RMS     Displacement     0.007027     0.000040     NO 
 Predicted change in Energy=-2.077882D-05
 Lowest energy point so far.  Saving SCF results.
 GradGradGradGradGradGradGradGradGradGradGradGradGradGradGradGradGradGrad

 Leave Link  103 at Mon Aug 25 14:24:31 2025, MaxMem=  4294967296 cpu:               0.1 elap:               0.0
 (Enter /opt/apps/Gaussian/G16C/g16/l202.exe)
                          Input orientation:                          
 ---------------------------------------------------------------------
 Center     Atomic      Atomic             Coordinates (Angstroms)
 Number     Number       Type             X           Y           Z
 ---------------------------------------------------------------------
      1          6           0       -1.726081    0.320638    0.748227
      2          8           0       -0.937146   -0.448125   -0.147680
      3          6           0        0.142459    0.394593   -0.538935
      4          6           0       -0.412849    1.835880   -0.567079
      5          6           0       -1.794751    1.708457    0.111092
      6          1           0       -2.694667   -0.174010    0.855150
      7          1           0       -1.238952    0.365748    1.736508
      8          1           0        0.960386    0.303407    0.191249
      9          1           0        0.500881    0.041961   -1.509327
     10          1           0        0.245128    2.514139   -0.015598
     11          1           0       -0.500586    2.214552   -1.589156
     12          1           0       -1.981088    2.495360    0.847770
     13          1           0       -2.597683    1.737105   -0.632195
 ---------------------------------------------------------------------
                    Distance matrix (angstroms):
                    1          2          3          4          5
     1  C    0.000000
     2  O    1.419882   0.000000
     3  C    2.270176   1.424359   0.000000
     4  C    2.398034   2.380643   1.544819   0.000000
     5  C    1.528626   2.335229   2.429312   1.544606   0.000000
     6  H    1.092825   2.041981   3.211863   3.356946   2.215210
     7  H    1.102738   2.074522   2.662099   2.854864   2.180311
     8  H    2.743652   2.068888   1.100222   2.193013   3.093763
     9  H    3.183327   2.040143   1.092921   2.222809   3.266940
    10  H    3.046398   3.192213   2.185611   1.094120   2.196880
    11  H    3.248401   3.059131   2.197435   1.093495   2.195869
    12  H    2.191883   3.277932   3.293270   2.212710   1.093907
    13  H    2.161396   2.787000   3.052771   2.188036   1.094531
                    6          7          8          9         10
     6  H    0.000000
     7  H    1.785283   0.000000
     8  H    3.745410   2.688643   0.000000
     9  H    3.981070   3.696932   1.780858   0.000000
    10  H    4.077590   3.144512   2.332748   2.899707   0.000000
    11  H    4.061262   3.875991   2.992783   2.393629   1.766897
    12  H    2.763112   2.424019   3.726654   4.211323   2.387844
    13  H    2.423625   3.055736   3.923443   3.639227   3.010906
                   11         12         13
    11  H    0.000000
    12  H    2.865196   0.000000
    13  H    2.354050   1.773538   0.000000
 Symmetry turned off by external request.
 Stoichiometry    C4H8O
 Framework group  C1[X(C4H8O)]
 Deg. of freedom    33
 Full point group                 C1      NOp   1
 Rotational constants (GHZ):           7.1531883           6.9462703           4.0029569
 Leave Link  202 at Mon Aug 25 14:24:31 2025, MaxMem=  4294967296 cpu:               0.0 elap:               0.0
 (Enter /opt/apps/Gaussian/G16C/g16/l301.exe)
 Standard basis: 6-31+G(d) (6D, 7F)
 Ernie: Thresh=  0.10000D-02 Tol=  0.10000D-05 Strict=F.
   111 basis functions,   192 primitive gaussians,   111 cartesian basis functions
    20 alpha electrons       20 beta electrons
       nuclear repulsion energy       190.6220340847 Hartrees.
 IExCor= 4639 DFT=T Ex+Corr=wB97XD ExCW=0 ScaHFX=  1.000000
 ScaDFX=  1.000000  1.000000  1.000000  1.000000 ScalE2=  1.000000  1.000000
 IRadAn=      5 IRanWt=     -1 IRanGd=            0 ICorTp=0 IEmpDi=121
 HFx  wShort=  0.000000 wLong=  0.200000 cFull=  0.222036 cShort=  0.000000 cLong=  0.777964
 DFx  wShort=  0.000000 wLong=  0.200000 cFull=  0.000000 cShort=  0.000000 cLong=  1.000000
 NAtoms=   13 NActive=   13 NUniq=   13 SFac= 1.00D+00 NAtFMM=   60 NAOKFM=F Big=F
 Integral buffers will be    131072 words long.
 Raffenetti 2 integral format.
 Two-electron integral symmetry is turned off.
 R6Disp:  Grimme-D2 Dispersion energy=       -0.0056591351 Hartrees.
 Nuclear repulsion after empirical dispersion term =      190.6163749496 Hartrees.
 ------------------------------------------------------------------------------
 Polarizable Continuum Model (PCM)
 =================================
 Model                : PCM.
 Atomic radii         : SMD-Coulomb.
 Polarization charges : Total charges.
 Charge compensation  : None.
 Solution method      : On-the-fly selection.
 Cavity type          : VdW (van der Waals Surface) (Alpha=1.000).
 Cavity algorithm     : GePol (No added spheres)
                        Default sphere list used, NSphG=   13.
                        Lebedev-Laikov grids with approx.  5.0 points / Ang**2.
                        Smoothing algorithm: York/Karplus (Gamma=1.0000).
                        Polarization charges: spherical gaussians, with
                                              point-specific exponents (IZeta= 3).
                        Self-potential: point-specific (ISelfS= 7).
                        Self-field    : sphere-specific E.n sum rule (ISelfD= 2).
 1st derivatives      : Analytical E(r).r(x)/FMM algorithm (CHGder, D1EAlg=3).
                        Cavity 1st derivative terms included.
 Solvent              : TetraHydroFuran, Eps=   7.425700 Eps(inf)=   1.974025
 ------------------------------------------------------------------------------
 Spheres list:
 ISph  on   Nord     Re0    Alpha      Xe            Ye            Ze
    1   C      1    1.8500  1.000     -1.726081      0.320638      0.748227
    2   O      2    2.2940  1.000     -0.937146     -0.448125     -0.147680
    3   C      3    1.8500  1.000      0.142459      0.394593     -0.538935
    4   C      4    1.8500  1.000     -0.412849      1.835880     -0.567079
    5   C      5    1.8500  1.000     -1.794751      1.708457      0.111092
    6   H      6    1.2000  1.000     -2.694667     -0.174010      0.855150
    7   H      7    1.2000  1.000     -1.238952      0.365748      1.736508
    8   H      8    1.2000  1.000      0.960386      0.303407      0.191249
    9   H      9    1.2000  1.000      0.500881      0.041961     -1.509327
   10   H     10    1.2000  1.000      0.245128      2.514139     -0.015598
   11   H     11    1.2000  1.000     -0.500586      2.214552     -1.589156
   12   H     12    1.2000  1.000     -1.981088      2.495360      0.847770
   13   H     13    1.2000  1.000     -2.597683      1.737105     -0.632195
 ------------------------------------------------------------------------------
 GePol: Number of generator spheres                  =      13
 GePol: Total number of spheres                      =      13
 GePol: Number of exposed spheres                    =      13 (100.00%)
 GePol: Number of points                             =     990
 GePol: Average weight of points                     =       0.12
 GePol: Minimum weight of points                     =   0.12D-07
 GePol: Maximum weight of points                     =    0.17992
 GePol: Number of points with low weight             =      53
 GePol: Fraction of low-weight points (<1% of avg)   =       5.35%
 GePol: Cavity surface area                          =    115.292 Ang**2
 GePol: Cavity volume                                =     98.519 Ang**3
 ------------------------------------------------------------------------------
 Atomic radii for non-electrostatic terms: SMD-CDS.
 ------------------------------------------------------------------------------
 PCM non-electrostatic energy =        -0.0025676093 Hartrees.
 Nuclear repulsion after PCM non-electrostatic terms =      190.6138073403 Hartrees.
 Leave Link  301 at Mon Aug 25 14:24:32 2025, MaxMem=  4294967296 cpu:               0.1 elap:               0.0
 (Enter /opt/apps/Gaussian/G16C/g16/l302.exe)
 NPDir=0 NMtPBC=     1 NCelOv=     1 NCel=       1 NClECP=     1 NCelD=      1
         NCelK=      1 NCelE2=     1 NClLst=     1 CellRange=     0.0.
 One-electron integrals computed using PRISM.
 NBasis=   111 RedAO= T EigKep=  3.60D-05  NBF=   111
 NBsUse=   111 1.00D-06 EigRej= -1.00D+00 NBFU=   111
 Precomputing XC quadrature grid using
 IXCGrd= 4 IRadAn=           5 IRanWt=          -1 IRanGd=           0 AccXCQ= 0.00D+00.
 Generated NRdTot=       0 NPtTot=           0 NUsed=           0 NTot=          32
 NSgBfM=   111   111   111   111   111 MxSgAt=    13 MxSgA2=    13.
 Leave Link  302 at Mon Aug 25 14:24:32 2025, MaxMem=  4294967296 cpu:               1.0 elap:               0.1
 (Enter /opt/apps/Gaussian/G16C/g16/l303.exe)
 DipDrv:  MaxL=1.
 Leave Link  303 at Mon Aug 25 14:24:32 2025, MaxMem=  4294967296 cpu:               0.1 elap:               0.0
 (Enter /opt/apps/Gaussian/G16C/g16/l401.exe)
 Initial guess from the checkpoint file:  "THF-dzpop.chk"
 B after Tr=     0.004069    0.002357    0.004407
         Rot=    1.000000    0.000571    0.000087   -0.000530 Ang=   0.09 deg.
 Guess basis will be translated and rotated to current coordinates.
 JPrj=2 DoOrth=T DoCkMO=T.
 Generating alternative initial guess.
 ExpMin= 4.38D-02 ExpMax= 5.48D+03 ExpMxC= 8.25D+02 IAcc=3 IRadAn=         5 AccDes= 0.00D+00
 Harris functional with IExCor= 4639 and IRadAn=       5 diagonalized for initial guess.
 HarFok:  IExCor= 4639 AccDes= 0.00D+00 IRadAn=         5 IDoV= 1 UseB2=F ITyADJ=14
 ICtDFT=  3500011 ScaDFX=  1.000000  1.000000  1.000000  1.000000
 FoFCou: FMM=F IPFlag=           0 FMFlag=      100000 FMFlg1=           0
         NFxFlg=           0 DoJE=T BraDBF=F KetDBF=T FulRan=T
         wScrn=  0.000000 ICntrl=       500 IOpCl=  0 I1Cent=   200000004 NGrid=           0
         NMat0=    1 NMatS0=      1 NMatT0=    0 NMatD0=    1 NMtDS0=    0 NMtDT0=    0
 Symmetry not used in FoFCou.
 Harris En= -222.058173566313    
 Leave Link  401 at Mon Aug 25 14:24:32 2025, MaxMem=  4294967296 cpu:               3.3 elap:               0.3
 (Enter /opt/apps/Gaussian/G16C/g16/l502.exe)
 Two-electron integral symmetry not used.
 Closed shell SCF:
 Using DIIS extrapolation, IDIIS=  1040.
 NGot=  4294967296 LenX=  4294939455 LenY=  4294926693
 Requested convergence on RMS density matrix=1.00D-08 within 128 cycles.
 Requested convergence on MAX density matrix=1.00D-06.
 Requested convergence on             energy=1.00D-06.
 No special actions if energy rises.
 Fock matrices will be formed incrementally for  20 cycles.

 Cycle   1  Pass 1  IDiag  1:
 FoFJK:  IHMeth= 1 ICntrl=       0 DoSepK=T KAlg= 0 I1Cent=           0 FoldK=F
 IRaf=         1 NMat=       1 IRICut=       1 DoRegI=T DoRafI=F ISym2E= 0 IDoP0=0 IntGTp=1.
 FoFCou: FMM=F IPFlag=           0 FMFlag=      100000 FMFlg1=           0
         NFxFlg=           0 DoJE=T BraDBF=F KetDBF=F FulRan=T
         wScrn=  0.000000 ICntrl=       500 IOpCl=  0 I1Cent=           0 NGrid=           0
         NMat0=    1 NMatS0=      1 NMatT0=    0 NMatD0=    1 NMtDS0=    0 NMtDT0=    0
 Symmetry not used in FoFCou.
 Inv3:  Mode=1 IEnd=     2940300.
 Iteration    1 A*A^-1 deviation from unit magnitude is 3.77D-15 for    983.
 Iteration    1 A*A^-1 deviation from orthogonality  is 1.88D-15 for    679    208.
 Iteration    1 A^-1*A deviation from unit magnitude is 3.55D-15 for    983.
 Iteration    1 A^-1*A deviation from orthogonality  is 1.85D-15 for    571    496.
 E= -232.393010392747    
 DIIS: error= 4.90D-04 at cycle   1 NSaved=   1.
 NSaved= 1 IEnMin= 1 EnMin= -232.393010392747     IErMin= 1 ErrMin= 4.90D-04
 ErrMax= 4.90D-04  0.00D+00 EMaxC= 1.00D-01 BMatC= 3.97D-05 BMatP= 3.97D-05
 IDIUse=3 WtCom= 9.95D-01 WtEn= 4.90D-03
 Coeff-Com:  0.100D+01
 Coeff-En:   0.100D+01
 Coeff:      0.100D+01
 Gap=     0.832 Goal=   None    Shift=    0.000
 RMSDP=1.33D-04 MaxDP=1.47D-03              OVMax= 2.00D-03

 Cycle   2  Pass 1  IDiag  1:
 RMSU=  1.33D-04    CP:  1.00D+00
 E= -232.393081337316     Delta-E=       -0.000070944569 Rises=F Damp=F
 DIIS: error= 8.15D-05 at cycle   2 NSaved=   2.
 NSaved= 2 IEnMin= 2 EnMin= -232.393081337316     IErMin= 2 ErrMin= 8.15D-05
 ErrMax= 8.15D-05  0.00D+00 EMaxC= 1.00D-01 BMatC= 1.95D-06 BMatP= 3.97D-05
 IDIUse=1 WtCom= 1.00D+00 WtEn= 0.00D+00
 Coeff-Com: -0.169D+00 0.117D+01
 Coeff:     -0.169D+00 0.117D+01
 Gap=     0.418 Goal=   None    Shift=    0.000
 RMSDP=3.70D-05 MaxDP=4.33D-04 DE=-7.09D-05 OVMax= 6.30D-04

 Cycle   3  Pass 1  IDiag  1:
 RMSU=  2.80D-05    CP:  1.00D+00  1.18D+00
 E= -232.393085637570     Delta-E=       -0.000004300254 Rises=F Damp=F
 DIIS: error= 3.80D-05 at cycle   3 NSaved=   3.
 NSaved= 3 IEnMin= 3 EnMin= -232.393085637570     IErMin= 3 ErrMin= 3.80D-05
 ErrMax= 3.80D-05  0.00D+00 EMaxC= 1.00D-01 BMatC= 4.37D-07 BMatP= 1.95D-06
 IDIUse=1 WtCom= 1.00D+00 WtEn= 0.00D+00
 Coeff-Com: -0.871D-01 0.418D+00 0.669D+00
 Coeff:     -0.871D-01 0.418D+00 0.669D+00
 Gap=     0.418 Goal=   None    Shift=    0.000
 RMSDP=1.01D-05 MaxDP=1.20D-04 DE=-4.30D-06 OVMax= 1.61D-04

 Cycle   4  Pass 1  IDiag  1:
 RMSU=  9.54D-06    CP:  1.00D+00  1.20D+00  9.43D-01
 E= -232.393086068737     Delta-E=       -0.000000431167 Rises=F Damp=F
 DIIS: error= 1.07D-05 at cycle   4 NSaved=   4.
 NSaved= 4 IEnMin= 4 EnMin= -232.393086068737     IErMin= 4 ErrMin= 1.07D-05
 ErrMax= 1.07D-05  0.00D+00 EMaxC= 1.00D-01 BMatC= 3.22D-08 BMatP= 4.37D-07
 IDIUse=1 WtCom= 1.00D+00 WtEn= 0.00D+00
 Coeff-Com: -0.643D-03-0.381D-01 0.163D+00 0.876D+00
 Coeff:     -0.643D-03-0.381D-01 0.163D+00 0.876D+00
 Gap=     0.418 Goal=   None    Shift=    0.000
 RMSDP=3.71D-06 MaxDP=4.89D-05 DE=-4.31D-07 OVMax= 7.34D-05

 Cycle   5  Pass 1  IDiag  1:
 RMSU=  2.62D-06    CP:  1.00D+00  1.21D+00  1.00D+00  1.13D+00
 E= -232.393086105424     Delta-E=       -0.000000036688 Rises=F Damp=F
 DIIS: error= 6.81D-06 at cycle   5 NSaved=   5.
 NSaved= 5 IEnMin= 5 EnMin= -232.393086105424     IErMin= 5 ErrMin= 6.81D-06
 ErrMax= 6.81D-06  0.00D+00 EMaxC= 1.00D-01 BMatC= 7.51D-09 BMatP= 3.22D-08
 IDIUse=1 WtCom= 1.00D+00 WtEn= 0.00D+00
 Coeff-Com:  0.671D-02-0.521D-01 0.210D-01 0.418D+00 0.607D+00
 Coeff:      0.671D-02-0.521D-01 0.210D-01 0.418D+00 0.607D+00
 Gap=     0.418 Goal=   None    Shift=    0.000
 RMSDP=1.31D-06 MaxDP=1.88D-05 DE=-3.67D-08 OVMax= 2.09D-05

 Cycle   6  Pass 1  IDiag  1:
 RMSU=  9.99D-07    CP:  1.00D+00  1.21D+00  1.02D+00  1.17D+00  1.12D+00
 E= -232.393086111837     Delta-E=       -0.000000006413 Rises=F Damp=F
 DIIS: error= 9.94D-07 at cycle   6 NSaved=   6.
 NSaved= 6 IEnMin= 6 EnMin= -232.393086111837     IErMin= 6 ErrMin= 9.94D-07
 ErrMax= 9.94D-07  0.00D+00 EMaxC= 1.00D-01 BMatC= 2.49D-10 BMatP= 7.51D-09
 IDIUse=1 WtCom= 1.00D+00 WtEn= 0.00D+00
 Coeff-Com:  0.176D-02-0.892D-02-0.142D-01 0.632D-02 0.138D+00 0.877D+00
 Coeff:      0.176D-02-0.892D-02-0.142D-01 0.632D-02 0.138D+00 0.877D+00
 Gap=     0.418 Goal=   None    Shift=    0.000
 RMSDP=7.78D-07 MaxDP=1.30D-05 DE=-6.41D-09 OVMax= 1.03D-05

 Cycle   7  Pass 1  IDiag  1:
 RMSU=  2.19D-07    CP:  1.00D+00  1.22D+00  1.01D+00  1.20D+00  1.30D+00
                    CP:  1.32D+00
 E= -232.393086112284     Delta-E=       -0.000000000447 Rises=F Damp=F
 DIIS: error= 2.44D-07 at cycle   7 NSaved=   7.
 NSaved= 7 IEnMin= 7 EnMin= -232.393086112284     IErMin= 7 ErrMin= 2.44D-07
 ErrMax= 2.44D-07  0.00D+00 EMaxC= 1.00D-01 BMatC= 1.06D-11 BMatP= 2.49D-10
 IDIUse=1 WtCom= 1.00D+00 WtEn= 0.00D+00
 Coeff-Com: -0.480D-03 0.373D-02-0.199D-02-0.305D-01-0.442D-01 0.228D-01
 Coeff-Com:  0.105D+01
 Coeff:     -0.480D-03 0.373D-02-0.199D-02-0.305D-01-0.442D-01 0.228D-01
 Coeff:      0.105D+01
 Gap=     0.418 Goal=   None    Shift=    0.000
 RMSDP=3.22D-07 MaxDP=5.62D-06 DE=-4.47D-10 OVMax= 4.56D-06

 Cycle   8  Pass 1  IDiag  1:
 RMSU=  7.29D-08    CP:  1.00D+00  1.22D+00  1.01D+00  1.21D+00  1.37D+00
                    CP:  1.49D+00  1.24D+00
 E= -232.393086112320     Delta-E=       -0.000000000036 Rises=F Damp=F
 DIIS: error= 7.55D-08 at cycle   8 NSaved=   8.
 NSaved= 8 IEnMin= 8 EnMin= -232.393086112320     IErMin= 8 ErrMin= 7.55D-08
 ErrMax= 7.55D-08  0.00D+00 EMaxC= 1.00D-01 BMatC= 7.68D-13 BMatP= 1.06D-11
 IDIUse=1 WtCom= 1.00D+00 WtEn= 0.00D+00
 Coeff-Com: -0.127D-03 0.761D-03 0.654D-03-0.228D-02-0.983D-02-0.471D-01
 Coeff-Com:  0.616D-01 0.996D+00
 Coeff:     -0.127D-03 0.761D-03 0.654D-03-0.228D-02-0.983D-02-0.471D-01
 Coeff:      0.616D-01 0.996D+00
 Gap=     0.418 Goal=   None    Shift=    0.000
 RMSDP=6.18D-08 MaxDP=1.15D-06 DE=-3.57D-11 OVMax= 1.24D-06

 Cycle   9  Pass 1  IDiag  1:
 RMSU=  1.52D-08    CP:  1.00D+00  1.22D+00  1.01D+00  1.21D+00  1.38D+00
                    CP:  1.52D+00  1.33D+00  1.32D+00
 E= -232.393086112326     Delta-E=       -0.000000000006 Rises=F Damp=F
 DIIS: error= 2.75D-08 at cycle   9 NSaved=   9.
 NSaved= 9 IEnMin= 9 EnMin= -232.393086112326     IErMin= 9 ErrMin= 2.75D-08
 ErrMax= 2.75D-08  0.00D+00 EMaxC= 1.00D-01 BMatC= 1.72D-13 BMatP= 7.68D-13
 IDIUse=1 WtCom= 1.00D+00 WtEn= 0.00D+00
 Coeff-Com:  0.801D-05-0.148D-03 0.452D-03 0.269D-02 0.153D-02-0.194D-01
 Coeff-Com: -0.993D-01 0.339D+00 0.775D+00
 Coeff:      0.801D-05-0.148D-03 0.452D-03 0.269D-02 0.153D-02-0.194D-01
 Coeff:     -0.993D-01 0.339D+00 0.775D+00
 Gap=     0.418 Goal=   None    Shift=    0.000
 RMSDP=1.40D-08 MaxDP=2.72D-07 DE=-6.08D-12 OVMax= 3.60D-07

 Cycle  10  Pass 1  IDiag  1:
 RMSU=  4.92D-09    CP:  1.00D+00  1.22D+00  1.01D+00  1.21D+00  1.38D+00
                    CP:  1.53D+00  1.35D+00  1.45D+00  1.08D+00
 E= -232.393086112328     Delta-E=       -0.000000000002 Rises=F Damp=F
 DIIS: error= 4.94D-09 at cycle  10 NSaved=  10.
 NSaved=10 IEnMin=10 EnMin= -232.393086112328     IErMin=10 ErrMin= 4.94D-09
 ErrMax= 4.94D-09  0.00D+00 EMaxC= 1.00D-01 BMatC= 4.79D-15 BMatP= 1.72D-13
 IDIUse=1 WtCom= 1.00D+00 WtEn= 0.00D+00
 Coeff-Com:  0.104D-04-0.699D-04-0.385D-04 0.329D-03 0.803D-03 0.303D-02
 Coeff-Com: -0.825D-02-0.675D-01 0.363D-01 0.104D+01
 Coeff:      0.104D-04-0.699D-04-0.385D-04 0.329D-03 0.803D-03 0.303D-02
 Coeff:     -0.825D-02-0.675D-01 0.363D-01 0.104D+01
 Gap=     0.418 Goal=   None    Shift=    0.000
 RMSDP=4.34D-09 MaxDP=5.29D-08 DE=-1.65D-12 OVMax= 1.05D-07

 Error on total polarization charges =  0.02887
 SCF Done:  E(RwB97XD) =  -232.393086112     A.U. after   10 cycles
            NFock= 10  Conv=0.43D-08     -V/T= 2.0094
 KE= 2.302311658769D+02 PE=-9.218905004891D+02 EE= 2.686524411595D+02
 SMD-CDS (non-electrostatic) energy       (kcal/mol) =      -1.61
 (included in total energy above)
 Leave Link  502 at Mon Aug 25 14:24:37 2025, MaxMem=  4294967296 cpu:              70.6 elap:               5.1
 (Enter /opt/apps/Gaussian/G16C/g16/l701.exe)
 ... and contract with generalized density number  0.
 Compute integral first derivatives.
 R6Disp: Adding Grimme-D2 dispersion energy 1st derivatives to the gradient.
 D1PCM: PCM CHGder 1st derivatives, ID1Alg=3 FixD1E=F DoIter=F DoCFld=F I1PDM=0.
 GePol: Maximum number of non-zero 1st derivatives   =     315
 Leave Link  701 at Mon Aug 25 14:24:37 2025, MaxMem=  4294967296 cpu:               4.1 elap:               0.3
 (Enter /opt/apps/Gaussian/G16C/g16/l702.exe)
 L702 exits ... SP integral derivatives will be done elsewhere.
 Leave Link  702 at Mon Aug 25 14:24:37 2025, MaxMem=  4294967296 cpu:               0.0 elap:               0.0
 (Enter /opt/apps/Gaussian/G16C/g16/l703.exe)
 Integral derivatives from FoFJK, PRISM(SPDF).
 Compute integral first derivatives, UseDBF=F ICtDFT=           0.
 Calling FoFJK, ICntrl=      2127 FMM=F ISym2X=0 I1Cent= 0 IOpClX= 0 NMat=1 NMatS=1 NMatT=0.
 FoFJK:  IHMeth= 1 ICntrl=    2127 DoSepK=T KAlg= 0 I1Cent=           0 FoldK=F
 IRaf=         1 NMat=       1 IRICut=       1 DoRegI=T DoRafI=F ISym2E= 0 IDoP0=0 IntGTp=1.
 FoFCou: FMM=F IPFlag=           0 FMFlag=      100000 FMFlg1=         800
         NFxFlg=           0 DoJE=F BraDBF=F KetDBF=F FulRan=T
         wScrn=  0.000000 ICntrl=      2527 IOpCl=  0 I1Cent=           0 NGrid=           0
         NMat0=    1 NMatS0=      1 NMatT0=    0 NMatD0=    1 NMtDS0=    0 NMtDT0=    0
 Symmetry not used in FoFCou.
 Leave Link  703 at Mon Aug 25 14:24:38 2025, MaxMem=  4294967296 cpu:               9.9 elap:               0.7
 (Enter /opt/apps/Gaussian/G16C/g16/l716.exe)
 Dipole        = 7.60320774D-02 8.56941558D-01 1.79689613D-01
 -------------------------------------------------------------------
 Center     Atomic                   Forces (Hartrees/Bohr)
 Number     Number              X              Y              Z
 -------------------------------------------------------------------
      1        6          -0.000473970    0.000386335    0.000294149
      2        8           0.000249098   -0.000250754   -0.000066653
      3        6          -0.000196638    0.000170386   -0.000193591
      4        6           0.000149915    0.000095058    0.000031511
      5        6           0.000349881   -0.000222731    0.000294412
      6        1          -0.000010688   -0.000043621   -0.000099710
      7        1           0.000021125   -0.000127422   -0.000064254
      8        1           0.000071837    0.000058998    0.000059257
      9        1           0.000031633   -0.000071528    0.000007114
     10        1           0.000058979    0.000027716   -0.000055260
     11        1          -0.000109198   -0.000056883   -0.000068436
     12        1          -0.000089565   -0.000016758   -0.000022183
     13        1          -0.000052410    0.000051205   -0.000116355
 -------------------------------------------------------------------
 Cartesian Forces:  Max     0.000473970 RMS     0.000167341
 Leave Link  716 at Mon Aug 25 14:24:38 2025, MaxMem=  4294967296 cpu:               0.0 elap:               0.0
 (Enter /opt/apps/Gaussian/G16C/g16/l103.exe)

 GradGradGradGradGradGradGradGradGradGradGradGradGradGradGradGradGradGrad
 Berny optimization.
 Using GEDIIS/GDIIS optimizer.
 FormGI is forming the generalized inverse of G from B-inverse, IUseBI=4.
 Internal  Forces:  Max     0.000284580 RMS     0.000074660
 Search for a local minimum.
 Step number   6 out of a maximum of   81
 All quantities printed in internal units (Hartrees-Bohrs-Radians)
 RMS Force = .74660D-04 SwitMx=.10000D-02 MixMth= 2
 Mixed Optimization -- En-DIIS/RFO-DIIS
 Swapping is turned off.
 Update second derivatives using D2CorX and points    4    5    6
 DE= -2.62D-05 DEPred=-2.08D-05 R= 1.26D+00
 TightC=F SS=  1.41D+00  RLast= 5.93D-02 DXNew= 2.2930D+00 1.7802D-01
 Trust test= 1.26D+00 RLast= 5.93D-02 DXMaxT set to 1.36D+00
 ITU=  1  1  1  1  1  0
     Eigenvalues ---    0.00372   0.00774   0.02591   0.03397   0.04980
     Eigenvalues ---    0.05215   0.05496   0.05798   0.05882   0.06508
     Eigenvalues ---    0.06903   0.07111   0.07458   0.09569   0.10844
     Eigenvalues ---    0.11205   0.11440   0.12560   0.20684   0.25974
     Eigenvalues ---    0.27120   0.27857   0.31712   0.33599   0.36061
     Eigenvalues ---    0.37167   0.37230   0.37230   0.37231   0.37234
     Eigenvalues ---    0.37400   0.37832   0.41218
 En-DIIS/RFO-DIIS/Sim-DIIS IScMMF=       -3 using points:     6    5    4
 RFO step:  Lambda=-9.08586169D-06.
 NNeg= 0 NGDIIS= 3 SimSw=  2.50D-01 Rises=F DC= -2.62D-05 SmlDif=  1.00D-05
 NRisDI= 0 DoIntr=F SqrtH=F CThrHd= 10.0 CDAdj=  3.0
 RMS Error=  0.4518496582D-02 NUsed= 3 OKEnD=T EnDIS=F
 InvSVX:  RCond= 4.39D-05 Info=           0 Equed=N FErr=  4.59D-14 BErr=  5.41D-17
 DidBck=F Rises=F RFO-DIIS coefs:    2.03759   -1.17307    0.13548
 Iteration  1 RMS(Cart)=  0.00546697 RMS(Int)=  0.00001790
 Iteration  2 RMS(Cart)=  0.00001875 RMS(Int)=  0.00000838
 Iteration  3 RMS(Cart)=  0.00000000 RMS(Int)=  0.00000838
 ITry= 1 IFail=0 DXMaxC= 1.78D-02 DCOld= 1.00D+10 DXMaxT= 1.36D+00 DXLimC= 3.00D+00 Rises=F
 Variable       Old X    -DE/DX   Delta X   Delta X   Delta X     New X
                                 (Linear)    (Quad)   (Total)
    R1        2.68319   0.00028   0.00255  -0.00077   0.00180   2.68499
    R2        2.88868  -0.00010  -0.00010   0.00002  -0.00008   2.88860
    R3        2.06514   0.00002   0.00097  -0.00087   0.00010   2.06524
    R4        2.08387  -0.00005   0.00021  -0.00065  -0.00043   2.08344
    R5        2.69165   0.00010   0.00024   0.00018   0.00043   2.69208
    R6        2.91929  -0.00006  -0.00093   0.00014  -0.00079   2.91849
    R7        2.07912   0.00009   0.00021  -0.00009   0.00012   2.07924
    R8        2.06532   0.00003   0.00111  -0.00096   0.00014   2.06547
    R9        2.91888   0.00008   0.00253  -0.00236   0.00016   2.91904
   R10        2.06759   0.00003   0.00098  -0.00091   0.00007   2.06766
   R11        2.06641   0.00005   0.00093  -0.00075   0.00018   2.06659
   R12        2.06718  -0.00001   0.00126  -0.00125   0.00001   2.06719
   R13        2.06836   0.00012   0.00044  -0.00016   0.00027   2.06864
    A1        1.82712  -0.00011   0.00002   0.00072   0.00074   1.82786
    A2        1.88508   0.00001  -0.00200   0.00094  -0.00107   1.88401
    A3        1.92003  -0.00005  -0.00013  -0.00128  -0.00140   1.91863
    A4        1.99534   0.00008   0.00009  -0.00056  -0.00047   1.99487
    A5        1.93504   0.00008   0.00165   0.00006   0.00171   1.93676
    A6        1.89901  -0.00001   0.00023   0.00010   0.00032   1.89933
    A7        1.84849   0.00004   0.00392  -0.00247   0.00148   1.84997
    A8        1.85932   0.00005  -0.00110   0.00206   0.00098   1.86030
    A9        1.90937   0.00006   0.00096  -0.00073   0.00023   1.90960
   A10        1.87713  -0.00009  -0.00289   0.00244  -0.00045   1.87669
   A11        1.93547  -0.00010  -0.00046  -0.00054  -0.00099   1.93448
   A12        1.98530   0.00009   0.00245  -0.00188   0.00056   1.98587
   A13        1.89517  -0.00000   0.00089  -0.00119  -0.00029   1.89488
   A14        1.80970  -0.00006   0.00141  -0.00171  -0.00031   1.80938
   A15        1.93158   0.00001  -0.00170   0.00183   0.00012   1.93170
   A16        1.94868   0.00002  -0.00236   0.00196  -0.00039   1.94829
   A17        1.94751   0.00007   0.00275  -0.00086   0.00191   1.94942
   A18        1.94676  -0.00003  -0.00104  -0.00085  -0.00189   1.94487
   A19        1.88042   0.00000   0.00088  -0.00033   0.00054   1.88096
   A20        1.79026   0.00018   0.00196   0.00114   0.00311   1.79337
   A21        1.96065  -0.00006  -0.00077   0.00080   0.00004   1.96069
   A22        1.91746  -0.00003  -0.00119   0.00065  -0.00053   1.91693
   A23        1.97005   0.00003   0.00285  -0.00183   0.00102   1.97108
   A24        1.93477  -0.00014  -0.00185  -0.00057  -0.00239   1.93238
   A25        1.88971   0.00001  -0.00105  -0.00011  -0.00118   1.88854
    D1        0.73982  -0.00014  -0.00715  -0.00033  -0.00749   0.73233
    D2        2.87269  -0.00011  -0.00806  -0.00011  -0.00818   2.86451
    D3       -1.34006  -0.00014  -0.00905  -0.00017  -0.00922  -1.34928
    D4       -0.58971   0.00011   0.00996  -0.00011   0.00985  -0.57986
    D5       -2.70998  -0.00002   0.00570   0.00097   0.00667  -2.70332
    D6        1.46856   0.00003   0.00838   0.00013   0.00849   1.47705
    D7       -2.64886   0.00012   0.01233  -0.00142   0.01092  -2.63795
    D8        1.51404   0.00000   0.00808  -0.00034   0.00774   1.52178
    D9       -0.59060   0.00005   0.01075  -0.00118   0.00956  -0.58103
   D10        1.48004   0.00002   0.01065  -0.00117   0.00948   1.48952
   D11       -0.64024  -0.00010   0.00640  -0.00010   0.00630  -0.63394
   D12       -2.74488  -0.00006   0.00907  -0.00094   0.00813  -2.73676
   D13       -0.57958   0.00005   0.00216  -0.00110   0.00105  -0.57853
   D14        1.51359  -0.00001   0.00151  -0.00095   0.00056   1.51414
   D15       -2.71429  -0.00003   0.00147  -0.00138   0.00008  -2.71420
   D16        0.18894   0.00001   0.00312   0.00181   0.00492   0.19385
   D17        2.27937   0.00006   0.00633   0.00073   0.00705   2.28641
   D18       -1.90924   0.00008   0.00472   0.00285   0.00756  -1.90168
   D19       -1.88726  -0.00003   0.00286   0.00174   0.00460  -1.88266
   D20        0.20317   0.00001   0.00607   0.00066   0.00673   0.20990
   D21        2.29775   0.00003   0.00446   0.00278   0.00724   2.30499
   D22        2.25387  -0.00002   0.00024   0.00510   0.00534   2.25921
   D23       -1.93888   0.00003   0.00345   0.00402   0.00746  -1.93142
   D24        0.15570   0.00005   0.00183   0.00614   0.00797   0.16367
   D25        0.23469  -0.00002  -0.00698  -0.00130  -0.00830   0.22639
   D26        2.34852   0.00004  -0.00518  -0.00057  -0.00576   2.34277
   D27       -1.81128  -0.00002  -0.00588  -0.00242  -0.00830  -1.81958
   D28       -1.84485  -0.00002  -0.00716  -0.00203  -0.00921  -1.85406
   D29        0.26899   0.00004  -0.00536  -0.00130  -0.00667   0.26232
   D30        2.39237  -0.00003  -0.00606  -0.00316  -0.00921   2.38316
   D31        2.33416  -0.00005  -0.00947  -0.00043  -0.00991   2.32425
   D32       -1.83518   0.00001  -0.00767   0.00030  -0.00737  -1.84256
   D33        0.28820  -0.00006  -0.00837  -0.00155  -0.00992   0.27828
         Item               Value     Threshold  Converged?
 Maximum Force            0.000285     0.000015     NO 
 RMS     Force            0.000075     0.000010     NO 
 Maximum Displacement     0.017808     0.000060     NO 
 RMS     Displacement     0.005465     0.000040     NO 
 Predicted change in Energy=-4.381577D-06
 Lowest energy point so far.  Saving SCF results.
 GradGradGradGradGradGradGradGradGradGradGradGradGradGradGradGradGradGrad

 Leave Link  103 at Mon Aug 25 14:24:38 2025, MaxMem=  4294967296 cpu:               0.1 elap:               0.0
 (Enter /opt/apps/Gaussian/G16C/g16/l202.exe)
                          Input orientation:                          
 ---------------------------------------------------------------------
 Center     Atomic      Atomic             Coordinates (Angstroms)
 Number     Number       Type             X           Y           Z
 ---------------------------------------------------------------------
      1          6           0       -1.728164    0.319459    0.748004
      2          8           0       -0.934272   -0.448672   -0.145574
      3          6           0        0.143928    0.395794   -0.537758
      4          6           0       -0.413022    1.835922   -0.569496
      5          6           0       -1.792215    1.709100    0.114475
      6          1           0       -2.697846   -0.174840    0.846832
      7          1           0       -1.246625    0.359462    1.738987
      8          1           0        0.961518    0.308367    0.193358
      9          1           0        0.504154    0.041082   -1.506809
     10          1           0        0.247284    2.517633   -0.025022
     11          1           0       -0.507402    2.209142   -1.593087
     12          1           0       -1.975532    2.494792    0.853206
     13          1           0       -2.596755    1.742462   -0.627089
 ---------------------------------------------------------------------
                    Distance matrix (angstroms):
                    1          2          3          4          5
     1  C    0.000000
     2  O    1.420834   0.000000
     3  C    2.272386   1.424587   0.000000
     4  C    2.401055   2.381341   1.544399   0.000000
     5  C    1.528582   2.336594   2.428751   1.544692   0.000000
     6  H    1.092878   2.042069   3.212225   3.357019   2.214892
     7  H    1.102510   2.074178   2.668057   2.864249   2.181337
     8  H    2.746296   2.069300   1.100285   2.191969   3.090521
     9  H    3.185109   2.040072   1.092997   2.222885   3.268663
    10  H    3.054820   3.195242   2.185356   1.094159   2.198349
    11  H    3.246824   3.056385   2.196857   1.093590   2.194665
    12  H    2.191879   3.278073   3.291304   2.213510   1.093911
    13  H    2.161080   2.792270   3.054969   2.186491   1.094675
                    6          7          8          9         10
     6  H    0.000000
     7  H    1.785347   0.000000
     8  H    3.748528   2.695826   0.000000
     9  H    3.979831   3.701592   1.780783   0.000000
    10  H    4.084523   3.162466   2.332097   2.897409   0.000000
    11  H    4.053964   3.882072   2.993669   2.393986   1.767356
    12  H    2.765632   2.423953   3.720499   4.211793   2.390128
    13  H    2.420477   3.055135   3.923145   3.644755   3.008643
                   11         12         13
    11  H    0.000000
    12  H    2.867290   0.000000
    13  H    2.348689   1.772905   0.000000
 Symmetry turned off by external request.
 Stoichiometry    C4H8O
 Framework group  C1[X(C4H8O)]
 Deg. of freedom    33
 Full point group                 C1      NOp   1
 Rotational constants (GHZ):           7.1472725           6.9457398           3.9980329
 Leave Link  202 at Mon Aug 25 14:24:38 2025, MaxMem=  4294967296 cpu:               0.1 elap:               0.0
 (Enter /opt/apps/Gaussian/G16C/g16/l301.exe)
 Standard basis: 6-31+G(d) (6D, 7F)
 Ernie: Thresh=  0.10000D-02 Tol=  0.10000D-05 Strict=F.
   111 basis functions,   192 primitive gaussians,   111 cartesian basis functions
    20 alpha electrons       20 beta electrons
       nuclear repulsion energy       190.5705398004 Hartrees.
 IExCor= 4639 DFT=T Ex+Corr=wB97XD ExCW=0 ScaHFX=  1.000000
 ScaDFX=  1.000000  1.000000  1.000000  1.000000 ScalE2=  1.000000  1.000000
 IRadAn=      5 IRanWt=     -1 IRanGd=            0 ICorTp=0 IEmpDi=121
 HFx  wShort=  0.000000 wLong=  0.200000 cFull=  0.222036 cShort=  0.000000 cLong=  0.777964
 DFx  wShort=  0.000000 wLong=  0.200000 cFull=  0.000000 cShort=  0.000000 cLong=  1.000000
 NAtoms=   13 NActive=   13 NUniq=   13 SFac= 1.00D+00 NAtFMM=   60 NAOKFM=F Big=F
 Integral buffers will be    131072 words long.
 Raffenetti 2 integral format.
 Two-electron integral symmetry is turned off.
 R6Disp:  Grimme-D2 Dispersion energy=       -0.0056560193 Hartrees.
 Nuclear repulsion after empirical dispersion term =      190.5648837811 Hartrees.
 ------------------------------------------------------------------------------
 Polarizable Continuum Model (PCM)
 =================================
 Model                : PCM.
 Atomic radii         : SMD-Coulomb.
 Polarization charges : Total charges.
 Charge compensation  : None.
 Solution method      : On-the-fly selection.
 Cavity type          : VdW (van der Waals Surface) (Alpha=1.000).
 Cavity algorithm     : GePol (No added spheres)
                        Default sphere list used, NSphG=   13.
                        Lebedev-Laikov grids with approx.  5.0 points / Ang**2.
                        Smoothing algorithm: York/Karplus (Gamma=1.0000).
                        Polarization charges: spherical gaussians, with
                                              point-specific exponents (IZeta= 3).
                        Self-potential: point-specific (ISelfS= 7).
                        Self-field    : sphere-specific E.n sum rule (ISelfD= 2).
 1st derivatives      : Analytical E(r).r(x)/FMM algorithm (CHGder, D1EAlg=3).
                        Cavity 1st derivative terms included.
 Solvent              : TetraHydroFuran, Eps=   7.425700 Eps(inf)=   1.974025
 ------------------------------------------------------------------------------
 Spheres list:
 ISph  on   Nord     Re0    Alpha      Xe            Ye            Ze
    1   C      1    1.8500  1.000     -1.728164      0.319459      0.748004
    2   O      2    2.2940  1.000     -0.934272     -0.448672     -0.145574
    3   C      3    1.8500  1.000      0.143928      0.395794     -0.537758
    4   C      4    1.8500  1.000     -0.413022      1.835922     -0.569496
    5   C      5    1.8500  1.000     -1.792215      1.709100      0.114475
    6   H      6    1.2000  1.000     -2.697846     -0.174840      0.846832
    7   H      7    1.2000  1.000     -1.246625      0.359462      1.738987
    8   H      8    1.2000  1.000      0.961518      0.308367      0.193358
    9   H      9    1.2000  1.000      0.504154      0.041082     -1.506809
   10   H     10    1.2000  1.000      0.247284      2.517633     -0.025022
   11   H     11    1.2000  1.000     -0.507402      2.209142     -1.593087
   12   H     12    1.2000  1.000     -1.975532      2.494792      0.853206
   13   H     13    1.2000  1.000     -2.596755      1.742462     -0.627089
 ------------------------------------------------------------------------------
 GePol: Number of generator spheres                  =      13
 GePol: Total number of spheres                      =      13
 GePol: Number of exposed spheres                    =      13 (100.00%)
 GePol: Number of points                             =     992
 GePol: Average weight of points                     =       0.12
 GePol: Minimum weight of points                     =   0.21D-09
 GePol: Maximum weight of points                     =    0.17992
 GePol: Number of points with low weight             =      59
 GePol: Fraction of low-weight points (<1% of avg)   =       5.95%
 GePol: Cavity surface area                          =    115.356 Ang**2
 GePol: Cavity volume                                =     98.576 Ang**3
 ------------------------------------------------------------------------------
 Atomic radii for non-electrostatic terms: SMD-CDS.
 ------------------------------------------------------------------------------
 PCM non-electrostatic energy =        -0.0025675278 Hartrees.
 Nuclear repulsion after PCM non-electrostatic terms =      190.5623162533 Hartrees.
 Leave Link  301 at Mon Aug 25 14:24:38 2025, MaxMem=  4294967296 cpu:               0.1 elap:               0.0
 (Enter /opt/apps/Gaussian/G16C/g16/l302.exe)
 NPDir=0 NMtPBC=     1 NCelOv=     1 NCel=       1 NClECP=     1 NCelD=      1
         NCelK=      1 NCelE2=     1 NClLst=     1 CellRange=     0.0.
 One-electron integrals computed using PRISM.
 NBasis=   111 RedAO= T EigKep=  3.53D-05  NBF=   111
 NBsUse=   111 1.00D-06 EigRej= -1.00D+00 NBFU=   111
 Precomputing XC quadrature grid using
 IXCGrd= 4 IRadAn=           5 IRanWt=          -1 IRanGd=           0 AccXCQ= 0.00D+00.
 Generated NRdTot=       0 NPtTot=           0 NUsed=           0 NTot=          32
 NSgBfM=   111   111   111   111   111 MxSgAt=    13 MxSgA2=    13.
 Leave Link  302 at Mon Aug 25 14:24:38 2025, MaxMem=  4294967296 cpu:               0.9 elap:               0.1
 (Enter /opt/apps/Gaussian/G16C/g16/l303.exe)
 DipDrv:  MaxL=1.
 Leave Link  303 at Mon Aug 25 14:24:38 2025, MaxMem=  4294967296 cpu:               0.0 elap:               0.0
 (Enter /opt/apps/Gaussian/G16C/g16/l401.exe)
 Initial guess from the checkpoint file:  "THF-dzpop.chk"
 B after Tr=     0.001901    0.000659    0.001501
         Rot=    1.000000    0.000142   -0.000020   -0.000179 Ang=   0.03 deg.
 Guess basis will be translated and rotated to current coordinates.
 JPrj=2 DoOrth=T DoCkMO=T.
 Leave Link  401 at Mon Aug 25 14:24:38 2025, MaxMem=  4294967296 cpu:               0.2 elap:               0.1
 (Enter /opt/apps/Gaussian/G16C/g16/l502.exe)
 Two-electron integral symmetry not used.
 Closed shell SCF:
 Using DIIS extrapolation, IDIIS=  1040.
 NGot=  4294967296 LenX=  4294939455 LenY=  4294926693
 Requested convergence on RMS density matrix=1.00D-08 within 128 cycles.
 Requested convergence on MAX density matrix=1.00D-06.
 Requested convergence on             energy=1.00D-06.
 No special actions if energy rises.
 Fock matrices will be formed incrementally for  20 cycles.

 Cycle   1  Pass 1  IDiag  1:
 FoFJK:  IHMeth= 1 ICntrl=       0 DoSepK=T KAlg= 0 I1Cent=           0 FoldK=F
 IRaf=         1 NMat=       1 IRICut=       1 DoRegI=T DoRafI=F ISym2E= 0 IDoP0=0 IntGTp=1.
 FoFCou: FMM=F IPFlag=           0 FMFlag=      100000 FMFlg1=           0
         NFxFlg=           0 DoJE=T BraDBF=F KetDBF=F FulRan=T
         wScrn=  0.000000 ICntrl=       500 IOpCl=  0 I1Cent=           0 NGrid=           0
         NMat0=    1 NMatS0=      1 NMatT0=    0 NMatD0=    1 NMtDS0=    0 NMtDT0=    0
 Symmetry not used in FoFCou.
 Inv3:  Mode=1 IEnd=     2952192.
 Iteration    1 A*A^-1 deviation from unit magnitude is 4.88D-15 for    990.
 Iteration    1 A*A^-1 deviation from orthogonality  is 1.95D-15 for    660      4.
 Iteration    1 A^-1*A deviation from unit magnitude is 4.88D-15 for    990.
 Iteration    1 A^-1*A deviation from orthogonality  is 1.49D-15 for    608    377.
 E= -232.393052155115    
 DIIS: error= 4.14D-04 at cycle   1 NSaved=   1.
 NSaved= 1 IEnMin= 1 EnMin= -232.393052155115     IErMin= 1 ErrMin= 4.14D-04
 ErrMax= 4.14D-04  0.00D+00 EMaxC= 1.00D-01 BMatC= 2.15D-05 BMatP= 2.15D-05
 IDIUse=3 WtCom= 9.96D-01 WtEn= 4.14D-03
 Coeff-Com:  0.100D+01
 Coeff-En:   0.100D+01
 Coeff:      0.100D+01
 Gap=     0.830 Goal=   None    Shift=    0.000
 RMSDP=1.08D-04 MaxDP=1.83D-03              OVMax= 1.34D-03

 Cycle   2  Pass 1  IDiag  1:
 RMSU=  1.07D-04    CP:  1.00D+00
 E= -232.393089419029     Delta-E=       -0.000037263914 Rises=F Damp=F
 DIIS: error= 6.25D-05 at cycle   2 NSaved=   2.
 NSaved= 2 IEnMin= 2 EnMin= -232.393089419029     IErMin= 2 ErrMin= 6.25D-05
 ErrMax= 6.25D-05  0.00D+00 EMaxC= 1.00D-01 BMatC= 9.15D-07 BMatP= 2.15D-05
 IDIUse=1 WtCom= 1.00D+00 WtEn= 0.00D+00
 Coeff-Com: -0.182D+00 0.118D+01
 Coeff:     -0.182D+00 0.118D+01
 Gap=     0.418 Goal=   None    Shift=    0.000
 RMSDP=2.60D-05 MaxDP=3.67D-04 DE=-3.73D-05 OVMax= 4.85D-04

 Cycle   3  Pass 1  IDiag  1:
 RMSU=  1.65D-05    CP:  1.00D+00  1.19D+00
 E= -232.393091655993     Delta-E=       -0.000002236963 Rises=F Damp=F
 DIIS: error= 2.42D-05 at cycle   3 NSaved=   3.
 NSaved= 3 IEnMin= 3 EnMin= -232.393091655993     IErMin= 3 ErrMin= 2.42D-05
 ErrMax= 2.42D-05  0.00D+00 EMaxC= 1.00D-01 BMatC= 1.17D-07 BMatP= 9.15D-07
 IDIUse=1 WtCom= 1.00D+00 WtEn= 0.00D+00
 Coeff-Com: -0.673D-01 0.327D+00 0.740D+00
 Coeff:     -0.673D-01 0.327D+00 0.740D+00
 Gap=     0.418 Goal=   None    Shift=    0.000
 RMSDP=5.75D-06 MaxDP=9.06D-05 DE=-2.24D-06 OVMax= 1.10D-04

 Cycle   4  Pass 1  IDiag  1:
 RMSU=  5.50D-06    CP:  1.00D+00  1.20D+00  1.07D+00
 E= -232.393091759559     Delta-E=       -0.000000103566 Rises=F Damp=F
 DIIS: error= 1.29D-05 at cycle   4 NSaved=   4.
 NSaved= 4 IEnMin= 4 EnMin= -232.393091759559     IErMin= 4 ErrMin= 1.29D-05
 ErrMax= 1.29D-05  0.00D+00 EMaxC= 1.00D-01 BMatC= 3.19D-08 BMatP= 1.17D-07
 IDIUse=1 WtCom= 1.00D+00 WtEn= 0.00D+00
 Coeff-Com:  0.219D-02-0.607D-01 0.325D+00 0.733D+00
 Coeff:      0.219D-02-0.607D-01 0.325D+00 0.733D+00
 Gap=     0.418 Goal=   None    Shift=    0.000
 RMSDP=2.43D-06 MaxDP=4.16D-05 DE=-1.04D-07 OVMax= 4.82D-05

 Cycle   5  Pass 1  IDiag  1:
 RMSU=  1.96D-06    CP:  1.00D+00  1.20D+00  1.14D+00  1.08D+00
 E= -232.393091788152     Delta-E=       -0.000000028594 Rises=F Damp=F
 DIIS: error= 3.15D-06 at cycle   5 NSaved=   5.
 NSaved= 5 IEnMin= 5 EnMin= -232.393091788152     IErMin= 5 ErrMin= 3.15D-06
 ErrMax= 3.15D-06  0.00D+00 EMaxC= 1.00D-01 BMatC= 1.79D-09 BMatP= 3.19D-08
 IDIUse=1 WtCom= 1.00D+00 WtEn= 0.00D+00
 Coeff-Com:  0.548D-02-0.450D-01 0.634D-01 0.266D+00 0.710D+00
 Coeff:      0.548D-02-0.450D-01 0.634D-01 0.266D+00 0.710D+00
 Gap=     0.418 Goal=   None    Shift=    0.000
 RMSDP=8.83D-07 MaxDP=1.24D-05 DE=-2.86D-08 OVMax= 1.27D-05

 Cycle   6  Pass 1  IDiag  1:
 RMSU=  6.62D-07    CP:  1.00D+00  1.20D+00  1.16D+00  1.14D+00  1.17D+00
 E= -232.393091789992     Delta-E=       -0.000000001840 Rises=F Damp=F
 DIIS: error= 6.99D-07 at cycle   6 NSaved=   6.
 NSaved= 6 IEnMin= 6 EnMin= -232.393091789992     IErMin= 6 ErrMin= 6.99D-07
 ErrMax= 6.99D-07  0.00D+00 EMaxC= 1.00D-01 BMatC= 1.16D-10 BMatP= 1.79D-09
 IDIUse=1 WtCom= 1.00D+00 WtEn= 0.00D+00
 Coeff-Com:  0.119D-02-0.565D-02-0.184D-01-0.617D-02 0.187D+00 0.842D+00
 Coeff:      0.119D-02-0.565D-02-0.184D-01-0.617D-02 0.187D+00 0.842D+00
 Gap=     0.418 Goal=   None    Shift=    0.000
 RMSDP=5.08D-07 MaxDP=7.11D-06 DE=-1.84D-09 OVMax= 5.40D-06

 Cycle   7  Pass 1  IDiag  1:
 RMSU=  1.49D-07    CP:  1.00D+00  1.20D+00  1.16D+00  1.20D+00  1.33D+00
                    CP:  1.25D+00
 E= -232.393091790165     Delta-E=       -0.000000000173 Rises=F Damp=F
 DIIS: error= 1.31D-07 at cycle   7 NSaved=   7.
 NSaved= 7 IEnMin= 7 EnMin= -232.393091790165     IErMin= 7 ErrMin= 1.31D-07
 ErrMax= 1.31D-07  0.00D+00 EMaxC= 1.00D-01 BMatC= 4.12D-12 BMatP= 1.16D-10
 IDIUse=1 WtCom= 1.00D+00 WtEn= 0.00D+00
 Coeff-Com: -0.296D-03 0.281D-02-0.661D-02-0.204D-01-0.344D-01 0.843D-01
 Coeff-Com:  0.975D+00
 Coeff:     -0.296D-03 0.281D-02-0.661D-02-0.204D-01-0.344D-01 0.843D-01
 Coeff:      0.975D+00
 Gap=     0.418 Goal=   None    Shift=    0.000
 RMSDP=1.77D-07 MaxDP=2.81D-06 DE=-1.73D-10 OVMax= 1.94D-06

 Cycle   8  Pass 1  IDiag  1:
 RMSU=  4.16D-08    CP:  1.00D+00  1.20D+00  1.15D+00  1.21D+00  1.39D+00
                    CP:  1.38D+00  1.21D+00
 E= -232.393091790178     Delta-E=       -0.000000000013 Rises=F Damp=F
 DIIS: error= 4.12D-08 at cycle   8 NSaved=   8.
 NSaved= 8 IEnMin= 8 EnMin= -232.393091790178     IErMin= 8 ErrMin= 4.12D-08
 ErrMax= 4.12D-08  0.00D+00 EMaxC= 1.00D-01 BMatC= 1.78D-13 BMatP= 4.12D-12
 IDIUse=1 WtCom= 1.00D+00 WtEn= 0.00D+00
 Coeff-Com: -0.427D-04 0.169D-03 0.117D-02 0.123D-02-0.667D-02-0.432D-01
 Coeff-Com: -0.571D-01 0.110D+01
 Coeff:     -0.427D-04 0.169D-03 0.117D-02 0.123D-02-0.667D-02-0.432D-01
 Coeff:     -0.571D-01 0.110D+01
 Gap=     0.418 Goal=   None    Shift=    0.000
 RMSDP=4.20D-08 MaxDP=7.51D-07 DE=-1.28D-11 OVMax= 4.69D-07

 Cycle   9  Pass 1  IDiag  1:
 RMSU=  8.08D-09    CP:  1.00D+00  1.20D+00  1.15D+00  1.21D+00  1.40D+00
                    CP:  1.41D+00  1.32D+00  1.39D+00
 E= -232.393091790172     Delta-E=        0.000000000006 Rises=F Damp=F
 DIIS: error= 1.01D-08 at cycle   9 NSaved=   9.
 NSaved= 9 IEnMin= 8 EnMin= -232.393091790178     IErMin= 9 ErrMin= 1.01D-08
 ErrMax= 1.01D-08  0.00D+00 EMaxC= 1.00D-01 BMatC= 2.76D-14 BMatP= 1.78D-13
 IDIUse=1 WtCom= 1.00D+00 WtEn= 0.00D+00
 Coeff-Com:  0.670D-05-0.135D-03 0.733D-03 0.167D-02 0.445D-03-0.171D-01
 Coeff-Com: -0.785D-01 0.291D+00 0.802D+00
 Coeff:      0.670D-05-0.135D-03 0.733D-03 0.167D-02 0.445D-03-0.171D-01
 Coeff:     -0.785D-01 0.291D+00 0.802D+00
 Gap=     0.418 Goal=   None    Shift=    0.000
 RMSDP=6.55D-09 MaxDP=1.28D-07 DE= 6.37D-12 OVMax= 8.82D-08

 Error on total polarization charges =  0.02887
 SCF Done:  E(RwB97XD) =  -232.393091790     A.U. after    9 cycles
            NFock=  9  Conv=0.66D-08     -V/T= 2.0094
 KE= 2.302289366190D+02 PE=-9.217876679979D+02 EE= 2.686033233354D+02
 SMD-CDS (non-electrostatic) energy       (kcal/mol) =      -1.61
 (included in total energy above)
 Leave Link  502 at Mon Aug 25 14:24:43 2025, MaxMem=  4294967296 cpu:              65.5 elap:               4.7
 (Enter /opt/apps/Gaussian/G16C/g16/l701.exe)
 ... and contract with generalized density number  0.
 Compute integral first derivatives.
 R6Disp: Adding Grimme-D2 dispersion energy 1st derivatives to the gradient.
 D1PCM: PCM CHGder 1st derivatives, ID1Alg=3 FixD1E=F DoIter=F DoCFld=F I1PDM=0.
 GePol: Maximum number of non-zero 1st derivatives   =     315
 Leave Link  701 at Mon Aug 25 14:24:43 2025, MaxMem=  4294967296 cpu:               3.8 elap:               0.3
 (Enter /opt/apps/Gaussian/G16C/g16/l702.exe)
 L702 exits ... SP integral derivatives will be done elsewhere.
 Leave Link  702 at Mon Aug 25 14:24:43 2025, MaxMem=  4294967296 cpu:               0.0 elap:               0.0
 (Enter /opt/apps/Gaussian/G16C/g16/l703.exe)
 Integral derivatives from FoFJK, PRISM(SPDF).
 Compute integral first derivatives, UseDBF=F ICtDFT=           0.
 Calling FoFJK, ICntrl=      2127 FMM=F ISym2X=0 I1Cent= 0 IOpClX= 0 NMat=1 NMatS=1 NMatT=0.
 FoFJK:  IHMeth= 1 ICntrl=    2127 DoSepK=T KAlg= 0 I1Cent=           0 FoldK=F
 IRaf=         1 NMat=       1 IRICut=       1 DoRegI=T DoRafI=F ISym2E= 0 IDoP0=0 IntGTp=1.
 FoFCou: FMM=F IPFlag=           0 FMFlag=      100000 FMFlg1=         800
         NFxFlg=           0 DoJE=F BraDBF=F KetDBF=F FulRan=T
         wScrn=  0.000000 ICntrl=      2527 IOpCl=  0 I1Cent=           0 NGrid=           0
         NMat0=    1 NMatS0=      1 NMatT0=    0 NMatD0=    1 NMtDS0=    0 NMtDT0=    0
 Symmetry not used in FoFCou.
 Leave Link  703 at Mon Aug 25 14:24:44 2025, MaxMem=  4294967296 cpu:               9.9 elap:               0.7
 (Enter /opt/apps/Gaussian/G16C/g16/l716.exe)
 Dipole        = 7.26450081D-02 8.59264669D-01 1.78031687D-01
 -------------------------------------------------------------------
 Center     Atomic                   Forces (Hartrees/Bohr)
 Number     Number              X              Y              Z
 -------------------------------------------------------------------
      1        6           0.000175763    0.000005400   -0.000025238
      2        8          -0.000010594    0.000141188   -0.000122942
      3        6          -0.000114018   -0.000027349    0.000033914
      4        6           0.000038143   -0.000078927    0.000060245
      5        6          -0.000078729   -0.000023128   -0.000011803
      6        1           0.000022808    0.000019683   -0.000031956
      7        1           0.000004482    0.000011585    0.000020074
      8        1           0.000042744   -0.000020190    0.000070675
      9        1           0.000010008   -0.000013737    0.000034286
     10        1          -0.000026814    0.000018427   -0.000060374
     11        1          -0.000011783   -0.000040769    0.000004018
     12        1           0.000014039   -0.000040908    0.000020413
     13        1          -0.000066051    0.000048724    0.000008690
 -------------------------------------------------------------------
 Cartesian Forces:  Max     0.000175763 RMS     0.000056976
 Leave Link  716 at Mon Aug 25 14:24:44 2025, MaxMem=  4294967296 cpu:               0.0 elap:               0.0
 (Enter /opt/apps/Gaussian/G16C/g16/l103.exe)

 GradGradGradGradGradGradGradGradGradGradGradGradGradGradGradGradGradGrad
 Berny optimization.
 Using GEDIIS/GDIIS optimizer.
 FormGI is forming the generalized inverse of G from B-inverse, IUseBI=4.
 Internal  Forces:  Max     0.000165491 RMS     0.000037328
 Search for a local minimum.
 Step number   7 out of a maximum of   81
 All quantities printed in internal units (Hartrees-Bohrs-Radians)
 RMS Force = .37328D-04 SwitMx=.10000D-02 MixMth= 2
 Mixed Optimization -- En-DIIS/RFO-DIIS
 Swapping is turned off.
 Update second derivatives using D2CorX and points    4    5    6    7
 DE= -5.68D-06 DEPred=-4.38D-06 R= 1.30D+00
 TightC=F SS=  1.41D+00  RLast= 4.43D-02 DXNew= 2.2930D+00 1.3297D-01
 Trust test= 1.30D+00 RLast= 4.43D-02 DXMaxT set to 1.36D+00
 ITU=  1  1  1  1  1  1  0
     Eigenvalues ---    0.00231   0.00818   0.02678   0.03544   0.05007
     Eigenvalues ---    0.05203   0.05432   0.05799   0.05886   0.06619
     Eigenvalues ---    0.06952   0.07156   0.07429   0.09554   0.10785
     Eigenvalues ---    0.11277   0.11417   0.12814   0.21211   0.25953
     Eigenvalues ---    0.27131   0.27933   0.31856   0.33562   0.35954
     Eigenvalues ---    0.37153   0.37230   0.37230   0.37233   0.37246
     Eigenvalues ---    0.37408   0.37890   0.43359
 En-DIIS/RFO-DIIS/Sim-DIIS IScMMF=       -3 using points:     7    6    5    4
 RFO step:  Lambda=-2.01973722D-06.
 NNeg= 0 NGDIIS= 4 SimSw=  2.50D-01 Rises=F DC= -5.68D-06 SmlDif=  1.00D-05
 NRisDI= 0 DoIntr=F SqrtH=F CThrHd= 10.0 CDAdj=  3.0
 RMS Error=  0.2798908537D-02 NUsed= 4 OKEnD=F EnDIS=F
 InvSVX:  RCond= 3.71D-06 Info=           0 Equed=N FErr=  6.22D-13 BErr=  7.09D-17
 DidBck=F Rises=F RFO-DIIS coefs:    1.02427    0.44115   -0.55805    0.09264
 Iteration  1 RMS(Cart)=  0.00190335 RMS(Int)=  0.00000670
 Iteration  2 RMS(Cart)=  0.00000206 RMS(Int)=  0.00000648
 Iteration  3 RMS(Cart)=  0.00000000 RMS(Int)=  0.00000648
 ITry= 1 IFail=0 DXMaxC= 6.41D-03 DCOld= 1.00D+10 DXMaxT= 1.36D+00 DXLimC= 3.00D+00 Rises=F
 Variable       Old X    -DE/DX   Delta X   Delta X   Delta X     New X
                                 (Linear)    (Quad)   (Total)
    R1        2.68499  -0.00007   0.00126  -0.00116   0.00012   2.68510
    R2        2.88860  -0.00007  -0.00032   0.00031  -0.00002   2.88859
    R3        2.06524  -0.00003   0.00038  -0.00030   0.00007   2.06532
    R4        2.08344   0.00002   0.00013  -0.00008   0.00004   2.08349
    R5        2.69208  -0.00017  -0.00001  -0.00017  -0.00018   2.69190
    R6        2.91849  -0.00004  -0.00055   0.00036  -0.00019   2.91830
    R7        2.07924   0.00008   0.00019   0.00004   0.00022   2.07946
    R8        2.06547  -0.00002   0.00044  -0.00035   0.00010   2.06556
    R9        2.91904   0.00001   0.00116  -0.00082   0.00033   2.91938
   R10        2.06766  -0.00003   0.00041  -0.00034   0.00007   2.06773
   R11        2.06659  -0.00002   0.00040  -0.00029   0.00010   2.06669
   R12        2.06719  -0.00002   0.00048  -0.00039   0.00009   2.06728
   R13        2.06864   0.00004   0.00030  -0.00011   0.00019   2.06883
    A1        1.82786   0.00005  -0.00028   0.00042   0.00015   1.82801
    A2        1.88401  -0.00002  -0.00080   0.00050  -0.00031   1.88370
    A3        1.91863  -0.00001  -0.00009  -0.00017  -0.00026   1.91837
    A4        1.99487  -0.00006   0.00000  -0.00010  -0.00010   1.99478
    A5        1.93676   0.00002   0.00084  -0.00049   0.00034   1.93710
    A6        1.89933   0.00002   0.00025  -0.00011   0.00014   1.89947
    A7        1.84997  -0.00001   0.00141  -0.00126   0.00018   1.85014
    A8        1.86030  -0.00001  -0.00060   0.00029  -0.00030   1.86000
    A9        1.90960  -0.00000   0.00038  -0.00020   0.00017   1.90978
   A10        1.87669  -0.00002  -0.00142   0.00115  -0.00027   1.87641
   A11        1.93448   0.00003  -0.00038   0.00046   0.00008   1.93456
   A12        1.98587   0.00001   0.00144  -0.00112   0.00032   1.98619
   A13        1.89488  -0.00001   0.00050  -0.00052  -0.00001   1.89487
   A14        1.80938   0.00003   0.00050  -0.00040   0.00009   1.80948
   A15        1.93170   0.00000  -0.00082   0.00097   0.00014   1.93184
   A16        1.94829  -0.00002  -0.00110   0.00076  -0.00034   1.94796
   A17        1.94942  -0.00001   0.00149  -0.00114   0.00036   1.94978
   A18        1.94487   0.00000  -0.00057   0.00030  -0.00028   1.94459
   A19        1.88096  -0.00000   0.00048  -0.00045   0.00003   1.88099
   A20        1.79337  -0.00010   0.00082  -0.00046   0.00037   1.79374
   A21        1.96069   0.00002   0.00001  -0.00023  -0.00022   1.96047
   A22        1.91693   0.00003  -0.00098   0.00102   0.00004   1.91698
   A23        1.97108   0.00003   0.00186  -0.00156   0.00030   1.97138
   A24        1.93238   0.00005  -0.00120   0.00098  -0.00020   1.93218
   A25        1.88854  -0.00003  -0.00057   0.00030  -0.00028   1.88826
    D1        0.73233   0.00008  -0.00215   0.00166  -0.00049   0.73184
    D2        2.86451   0.00003  -0.00272   0.00203  -0.00068   2.86383
    D3       -1.34928   0.00003  -0.00294   0.00209  -0.00085  -1.35013
    D4       -0.57986  -0.00003   0.00377  -0.00127   0.00249  -0.57737
    D5       -2.70332  -0.00001   0.00101   0.00101   0.00201  -2.70131
    D6        1.47705  -0.00001   0.00241   0.00008   0.00248   1.47953
    D7       -2.63795  -0.00000   0.00492  -0.00209   0.00282  -2.63512
    D8        1.52178   0.00001   0.00216   0.00018   0.00234   1.52412
    D9       -0.58103   0.00002   0.00356  -0.00075   0.00281  -0.57822
   D10        1.48952   0.00000   0.00392  -0.00148   0.00244   1.49196
   D11       -0.63394   0.00002   0.00116   0.00079   0.00196  -0.63198
   D12       -2.73676   0.00003   0.00257  -0.00013   0.00243  -2.73433
   D13       -0.57853  -0.00004  -0.00002  -0.00164  -0.00166  -0.58019
   D14        1.51414  -0.00002  -0.00061  -0.00103  -0.00165   1.51250
   D15       -2.71420  -0.00004  -0.00060  -0.00111  -0.00172  -2.71593
   D16        0.19385   0.00003   0.00195   0.00109   0.00304   0.19689
   D17        2.28641   0.00003   0.00359   0.00000   0.00358   2.29000
   D18       -1.90168   0.00002   0.00290   0.00059   0.00348  -1.89819
   D19       -1.88266   0.00002   0.00206   0.00091   0.00297  -1.87970
   D20        0.20990   0.00002   0.00370  -0.00018   0.00351   0.21341
   D21        2.30499   0.00001   0.00301   0.00041   0.00341   2.30840
   D22        2.25921   0.00001   0.00063   0.00206   0.00269   2.26189
   D23       -1.93142   0.00001   0.00227   0.00097   0.00323  -1.92819
   D24        0.16367  -0.00000   0.00158   0.00156   0.00314   0.16681
   D25        0.22639  -0.00000  -0.00301  -0.00017  -0.00319   0.22319
   D26        2.34277  -0.00003  -0.00151  -0.00155  -0.00306   2.33970
   D27       -1.81958  -0.00001  -0.00180  -0.00155  -0.00336  -1.82294
   D28       -1.85406  -0.00002  -0.00307  -0.00051  -0.00359  -1.85765
   D29        0.26232  -0.00004  -0.00157  -0.00189  -0.00346   0.25886
   D30        2.38316  -0.00002  -0.00186  -0.00189  -0.00375   2.37940
   D31        2.32425  -0.00001  -0.00431   0.00064  -0.00368   2.32057
   D32       -1.84256  -0.00003  -0.00281  -0.00073  -0.00355  -1.84611
   D33        0.27828  -0.00001  -0.00311  -0.00073  -0.00384   0.27444
         Item               Value     Threshold  Converged?
 Maximum Force            0.000165     0.000015     NO 
 RMS     Force            0.000037     0.000010     NO 
 Maximum Displacement     0.006407     0.000060     NO 
 RMS     Displacement     0.001903     0.000040     NO 
 Predicted change in Energy=-8.479305D-07
 Lowest energy point so far.  Saving SCF results.
 GradGradGradGradGradGradGradGradGradGradGradGradGradGradGradGradGradGrad

 Leave Link  103 at Mon Aug 25 14:24:44 2025, MaxMem=  4294967296 cpu:               0.1 elap:               0.0
 (Enter /opt/apps/Gaussian/G16C/g16/l202.exe)
                          Input orientation:                          
 ---------------------------------------------------------------------
 Center     Atomic      Atomic             Coordinates (Angstroms)
 Number     Number       Type             X           Y           Z
 ---------------------------------------------------------------------
      1          6           0       -1.728564    0.319106    0.747485
      2          8           0       -0.934041   -0.448382   -0.146182
      3          6           0        0.144446    0.396135   -0.537114
      4          6           0       -0.413279    1.835820   -0.570464
      5          6           0       -1.791713    1.709491    0.115520
      6          1           0       -2.698498   -0.175142    0.844527
      7          1           0       -1.247897    0.357461    1.738982
      8          1           0        0.961091    0.309502    0.195330
      9          1           0        0.506186    0.040691   -1.505390
     10          1           0        0.247565    2.518993   -0.028412
     11          1           0       -0.509455    2.206871   -1.594735
     12          1           0       -1.973514    2.494452    0.855475
     13          1           0       -2.597277    1.744706   -0.624994
 ---------------------------------------------------------------------
                    Distance matrix (angstroms):
                    1          2          3          4          5
     1  C    0.000000
     2  O    1.420895   0.000000
     3  C    2.272509   1.424491   0.000000
     4  C    2.401538   2.380921   1.544299   0.000000
     5  C    1.528574   2.336772   2.428898   1.544867   0.000000
     6  H    1.092918   2.041928   3.212106   3.356843   2.214848
     7  H    1.102533   2.074061   2.668470   2.866300   2.181594
     8  H    2.745763   2.069431   1.100404   2.192026   3.089380
     9  H    3.185446   2.039827   1.093048   2.223058   3.269951
    10  H    3.057222   3.196150   2.185392   1.094194   2.198787
    11  H    3.245902   3.054333   2.196569   1.093646   2.194663
    12  H    2.191756   3.277818   3.290591   2.213918   1.093960
    13  H    2.161179   2.793787   3.056699   2.186578   1.094776
                    6          7          8          9         10
     6  H    0.000000
     7  H    1.785486   0.000000
     8  H    3.748190   2.695328   0.000000
     9  H    3.979786   3.701770   1.780911   0.000000
    10  H    4.086523   3.167382   2.332602   2.896606   0.000000
    11  H    4.051654   3.883206   2.994470   2.394127   1.767446
    12  H    2.766307   2.423600   3.717755   4.212308   2.390616
    13  H    2.419825   3.055104   3.923611   3.648321   3.008082
                   11         12         13
    11  H    0.000000
    12  H    2.868745   0.000000
    13  H    2.347977   1.772847   0.000000
 Symmetry turned off by external request.
 Stoichiometry    C4H8O
 Framework group  C1[X(C4H8O)]
 Deg. of freedom    33
 Full point group                 C1      NOp   1
 Rotational constants (GHZ):           7.1460653           6.9463153           3.9975736
 Leave Link  202 at Mon Aug 25 14:24:44 2025, MaxMem=  4294967296 cpu:               0.0 elap:               0.0
 (Enter /opt/apps/Gaussian/G16C/g16/l301.exe)
 Standard basis: 6-31+G(d) (6D, 7F)
 Ernie: Thresh=  0.10000D-02 Tol=  0.10000D-05 Strict=F.
   111 basis functions,   192 primitive gaussians,   111 cartesian basis functions
    20 alpha electrons       20 beta electrons
       nuclear repulsion energy       190.5650907960 Hartrees.
 IExCor= 4639 DFT=T Ex+Corr=wB97XD ExCW=0 ScaHFX=  1.000000
 ScaDFX=  1.000000  1.000000  1.000000  1.000000 ScalE2=  1.000000  1.000000
 IRadAn=      5 IRanWt=     -1 IRanGd=            0 ICorTp=0 IEmpDi=121
 HFx  wShort=  0.000000 wLong=  0.200000 cFull=  0.222036 cShort=  0.000000 cLong=  0.777964
 DFx  wShort=  0.000000 wLong=  0.200000 cFull=  0.000000 cShort=  0.000000 cLong=  1.000000
 NAtoms=   13 NActive=   13 NUniq=   13 SFac= 1.00D+00 NAtFMM=   60 NAOKFM=F Big=F
 Integral buffers will be    131072 words long.
 Raffenetti 2 integral format.
 Two-electron integral symmetry is turned off.
 R6Disp:  Grimme-D2 Dispersion energy=       -0.0056554542 Hartrees.
 Nuclear repulsion after empirical dispersion term =      190.5594353418 Hartrees.
 ------------------------------------------------------------------------------
 Polarizable Continuum Model (PCM)
 =================================
 Model                : PCM.
 Atomic radii         : SMD-Coulomb.
 Polarization charges : Total charges.
 Charge compensation  : None.
 Solution method      : On-the-fly selection.
 Cavity type          : VdW (van der Waals Surface) (Alpha=1.000).
 Cavity algorithm     : GePol (No added spheres)
                        Default sphere list used, NSphG=   13.
                        Lebedev-Laikov grids with approx.  5.0 points / Ang**2.
                        Smoothing algorithm: York/Karplus (Gamma=1.0000).
                        Polarization charges: spherical gaussians, with
                                              point-specific exponents (IZeta= 3).
                        Self-potential: point-specific (ISelfS= 7).
                        Self-field    : sphere-specific E.n sum rule (ISelfD= 2).
 1st derivatives      : Analytical E(r).r(x)/FMM algorithm (CHGder, D1EAlg=3).
                        Cavity 1st derivative terms included.
 Solvent              : TetraHydroFuran, Eps=   7.425700 Eps(inf)=   1.974025
 ------------------------------------------------------------------------------
 Spheres list:
 ISph  on   Nord     Re0    Alpha      Xe            Ye            Ze
    1   C      1    1.8500  1.000     -1.728564      0.319106      0.747485
    2   O      2    2.2940  1.000     -0.934041     -0.448382     -0.146182
    3   C      3    1.8500  1.000      0.144446      0.396135     -0.537114
    4   C      4    1.8500  1.000     -0.413279      1.835820     -0.570464
    5   C      5    1.8500  1.000     -1.791713      1.709491      0.115520
    6   H      6    1.2000  1.000     -2.698498     -0.175142      0.844527
    7   H      7    1.2000  1.000     -1.247897      0.357461      1.738982
    8   H      8    1.2000  1.000      0.961091      0.309502      0.195330
    9   H      9    1.2000  1.000      0.506186      0.040691     -1.505390
   10   H     10    1.2000  1.000      0.247565      2.518993     -0.028412
   11   H     11    1.2000  1.000     -0.509455      2.206871     -1.594735
   12   H     12    1.2000  1.000     -1.973514      2.494452      0.855475
   13   H     13    1.2000  1.000     -2.597277      1.744706     -0.624994
 ------------------------------------------------------------------------------
 GePol: Number of generator spheres                  =      13
 GePol: Total number of spheres                      =      13
 GePol: Number of exposed spheres                    =      13 (100.00%)
 GePol: Number of points                             =     992
 GePol: Average weight of points                     =       0.12
 GePol: Minimum weight of points                     =   0.52D-10
 GePol: Maximum weight of points                     =    0.17992
 GePol: Number of points with low weight             =      57
 GePol: Fraction of low-weight points (<1% of avg)   =       5.75%
 GePol: Cavity surface area                          =    115.366 Ang**2
 GePol: Cavity volume                                =     98.588 Ang**3
 ------------------------------------------------------------------------------
 Atomic radii for non-electrostatic terms: SMD-CDS.
 ------------------------------------------------------------------------------
 PCM non-electrostatic energy =        -0.0025674174 Hartrees.
 Nuclear repulsion after PCM non-electrostatic terms =      190.5568679243 Hartrees.
 Leave Link  301 at Mon Aug 25 14:24:44 2025, MaxMem=  4294967296 cpu:               0.1 elap:               0.0
 (Enter /opt/apps/Gaussian/G16C/g16/l302.exe)
 NPDir=0 NMtPBC=     1 NCelOv=     1 NCel=       1 NClECP=     1 NCelD=      1
         NCelK=      1 NCelE2=     1 NClLst=     1 CellRange=     0.0.
 One-electron integrals computed using PRISM.
 NBasis=   111 RedAO= T EigKep=  3.51D-05  NBF=   111
 NBsUse=   111 1.00D-06 EigRej= -1.00D+00 NBFU=   111
 Precomputing XC quadrature grid using
 IXCGrd= 4 IRadAn=           5 IRanWt=          -1 IRanGd=           0 AccXCQ= 0.00D+00.
 Generated NRdTot=       0 NPtTot=           0 NUsed=           0 NTot=          32
 NSgBfM=   111   111   111   111   111 MxSgAt=    13 MxSgA2=    13.
 Leave Link  302 at Mon Aug 25 14:24:44 2025, MaxMem=  4294967296 cpu:               0.7 elap:               0.1
 (Enter /opt/apps/Gaussian/G16C/g16/l303.exe)
 DipDrv:  MaxL=1.
 Leave Link  303 at Mon Aug 25 14:24:44 2025, MaxMem=  4294967296 cpu:               0.1 elap:               0.0
 (Enter /opt/apps/Gaussian/G16C/g16/l401.exe)
 Initial guess from the checkpoint file:  "THF-dzpop.chk"
 B after Tr=     0.000177    0.000165   -0.000309
         Rot=    1.000000   -0.000062    0.000008   -0.000006 Ang=  -0.01 deg.
 Guess basis will be translated and rotated to current coordinates.
 JPrj=2 DoOrth=T DoCkMO=T.
 Leave Link  401 at Mon Aug 25 14:24:44 2025, MaxMem=  4294967296 cpu:               0.2 elap:               0.1
 (Enter /opt/apps/Gaussian/G16C/g16/l502.exe)
 Two-electron integral symmetry not used.
 Closed shell SCF:
 Using DIIS extrapolation, IDIIS=  1040.
 NGot=  4294967296 LenX=  4294939455 LenY=  4294926693
 Requested convergence on RMS density matrix=1.00D-08 within 128 cycles.
 Requested convergence on MAX density matrix=1.00D-06.
 Requested convergence on             energy=1.00D-06.
 No special actions if energy rises.
 Fock matrices will be formed incrementally for  20 cycles.

 Cycle   1  Pass 1  IDiag  1:
 FoFJK:  IHMeth= 1 ICntrl=       0 DoSepK=T KAlg= 0 I1Cent=           0 FoldK=F
 IRaf=         1 NMat=       1 IRICut=       1 DoRegI=T DoRafI=F ISym2E= 0 IDoP0=0 IntGTp=1.
 FoFCou: FMM=F IPFlag=           0 FMFlag=      100000 FMFlg1=           0
         NFxFlg=           0 DoJE=T BraDBF=F KetDBF=F FulRan=T
         wScrn=  0.000000 ICntrl=       500 IOpCl=  0 I1Cent=           0 NGrid=           0
         NMat0=    1 NMatS0=      1 NMatT0=    0 NMatD0=    1 NMtDS0=    0 NMtDT0=    0
 Symmetry not used in FoFCou.
 Inv3:  Mode=1 IEnd=     2952192.
 Iteration    1 A*A^-1 deviation from unit magnitude is 3.66D-15 for    990.
 Iteration    1 A*A^-1 deviation from orthogonality  is 1.37D-15 for    531    164.
 Iteration    1 A^-1*A deviation from unit magnitude is 3.66D-15 for    990.
 Iteration    1 A^-1*A deviation from orthogonality  is 1.82D-15 for    702    245.
 E= -232.393088410389    
 DIIS: error= 1.59D-04 at cycle   1 NSaved=   1.
 NSaved= 1 IEnMin= 1 EnMin= -232.393088410389     IErMin= 1 ErrMin= 1.59D-04
 ErrMax= 1.59D-04  0.00D+00 EMaxC= 1.00D-01 BMatC= 2.48D-06 BMatP= 2.48D-06
 IDIUse=3 WtCom= 9.98D-01 WtEn= 1.59D-03
 Coeff-Com:  0.100D+01
 Coeff-En:   0.100D+01
 Coeff:      0.100D+01
 Gap=     0.830 Goal=   None    Shift=    0.000
 RMSDP=3.62D-05 MaxDP=6.83D-04              OVMax= 4.60D-04

 Cycle   2  Pass 1  IDiag  1:
 RMSU=  3.61D-05    CP:  1.00D+00
 E= -232.393092636526     Delta-E=       -0.000004226136 Rises=F Damp=F
 DIIS: error= 2.28D-05 at cycle   2 NSaved=   2.
 NSaved= 2 IEnMin= 2 EnMin= -232.393092636526     IErMin= 2 ErrMin= 2.28D-05
 ErrMax= 2.28D-05  0.00D+00 EMaxC= 1.00D-01 BMatC= 9.97D-08 BMatP= 2.48D-06
 IDIUse=1 WtCom= 1.00D+00 WtEn= 0.00D+00
 Coeff-Com: -0.184D+00 0.118D+01
 Coeff:     -0.184D+00 0.118D+01
 Gap=     0.418 Goal=   None    Shift=    0.000
 RMSDP=9.31D-06 MaxDP=1.51D-04 DE=-4.23D-06 OVMax= 1.64D-04

 Cycle   3  Pass 1  IDiag  1:
 RMSU=  5.88D-06    CP:  1.00D+00  1.20D+00
 E= -232.393092895092     Delta-E=       -0.000000258566 Rises=F Damp=F
 DIIS: error= 5.04D-06 at cycle   3 NSaved=   3.
 NSaved= 3 IEnMin= 3 EnMin= -232.393092895092     IErMin= 3 ErrMin= 5.04D-06
 ErrMax= 5.04D-06  0.00D+00 EMaxC= 1.00D-01 BMatC= 5.60D-09 BMatP= 9.97D-08
 IDIUse=1 WtCom= 1.00D+00 WtEn= 0.00D+00
 Coeff-Com: -0.347D-01 0.131D+00 0.904D+00
 Coeff:     -0.347D-01 0.131D+00 0.904D+00
 Gap=     0.418 Goal=   None    Shift=    0.000
 RMSDP=2.00D-06 MaxDP=2.58D-05 DE=-2.59D-07 OVMax= 3.24D-05

 Cycle   4  Pass 1  IDiag  1:
 RMSU=  1.78D-06    CP:  1.00D+00  1.20D+00  1.14D+00
 E= -232.393092903354     Delta-E=       -0.000000008262 Rises=F Damp=F
 DIIS: error= 2.42D-06 at cycle   4 NSaved=   4.
 NSaved= 4 IEnMin= 4 EnMin= -232.393092903354     IErMin= 4 ErrMin= 2.42D-06
 ErrMax= 2.42D-06  0.00D+00 EMaxC= 1.00D-01 BMatC= 1.70D-09 BMatP= 5.60D-09
 IDIUse=1 WtCom= 1.00D+00 WtEn= 0.00D+00
 Coeff-Com:  0.868D-02-0.922D-01 0.342D+00 0.742D+00
 Coeff:      0.868D-02-0.922D-01 0.342D+00 0.742D+00
 Gap=     0.418 Goal=   None    Shift=    0.000
 RMSDP=6.93D-07 MaxDP=1.03D-05 DE=-8.26D-09 OVMax= 1.18D-05

 Cycle   5  Pass 1  IDiag  1:
 RMSU=  5.29D-07    CP:  1.00D+00  1.21D+00  1.21D+00  1.03D+00
 E= -232.393092905371     Delta-E=       -0.000000002017 Rises=F Damp=F
 DIIS: error= 4.42D-07 at cycle   5 NSaved=   5.
 NSaved= 5 IEnMin= 5 EnMin= -232.393092905371     IErMin= 5 ErrMin= 4.42D-07
 ErrMax= 4.42D-07  0.00D+00 EMaxC= 1.00D-01 BMatC= 4.28D-11 BMatP= 1.70D-09
 IDIUse=1 WtCom= 1.00D+00 WtEn= 0.00D+00
 Coeff-Com:  0.275D-02-0.204D-01 0.153D-01 0.120D+00 0.882D+00
 Coeff:      0.275D-02-0.204D-01 0.153D-01 0.120D+00 0.882D+00
 Gap=     0.418 Goal=   None    Shift=    0.000
 RMSDP=2.64D-07 MaxDP=3.89D-06 DE=-2.02D-09 OVMax= 3.35D-06

 Cycle   6  Pass 1  IDiag  1:
 RMSU=  1.08D-07    CP:  1.00D+00  1.21D+00  1.21D+00  1.13D+00  1.30D+00
 E= -232.393092905426     Delta-E=       -0.000000000055 Rises=F Damp=F
 DIIS: error= 3.74D-07 at cycle   6 NSaved=   6.
 NSaved= 6 IEnMin= 6 EnMin= -232.393092905426     IErMin= 6 ErrMin= 3.74D-07
 ErrMax= 3.74D-07  0.00D+00 EMaxC= 1.00D-01 BMatC= 2.22D-11 BMatP= 4.28D-11
 IDIUse=1 WtCom= 1.00D+00 WtEn= 0.00D+00
 Coeff-Com:  0.284D-03 0.173D-02-0.395D-01-0.399D-01 0.463D+00 0.614D+00
 Coeff:      0.284D-03 0.173D-02-0.395D-01-0.399D-01 0.463D+00 0.614D+00
 Gap=     0.418 Goal=   None    Shift=    0.000
 RMSDP=9.97D-08 MaxDP=1.43D-06 DE=-5.53D-11 OVMax= 1.21D-06

 Cycle   7  Pass 1  IDiag  1:
 RMSU=  3.30D-08    CP:  1.00D+00  1.21D+00  1.21D+00  1.17D+00  1.42D+00
                    CP:  9.88D-01
 E= -232.393092905445     Delta-E=       -0.000000000018 Rises=F Damp=F
 DIIS: error= 4.18D-08 at cycle   7 NSaved=   7.
 NSaved= 7 IEnMin= 7 EnMin= -232.393092905445     IErMin= 7 ErrMin= 4.18D-08
 ErrMax= 4.18D-08  0.00D+00 EMaxC= 1.00D-01 BMatC= 3.08D-13 BMatP= 2.22D-11
 IDIUse=1 WtCom= 1.00D+00 WtEn= 0.00D+00
 Coeff-Com: -0.235D-03 0.216D-02-0.548D-02-0.150D-01-0.301D-01 0.497D-01
 Coeff-Com:  0.999D+00
 Coeff:     -0.235D-03 0.216D-02-0.548D-02-0.150D-01-0.301D-01 0.497D-01
 Coeff:      0.999D+00
 Gap=     0.418 Goal=   None    Shift=    0.000
 RMSDP=4.33D-08 MaxDP=8.50D-07 DE=-1.84D-11 OVMax= 4.57D-07

 Cycle   8  Pass 1  IDiag  1:
 RMSU=  1.12D-08    CP:  1.00D+00  1.21D+00  1.21D+00  1.18D+00  1.47D+00
                    CP:  1.14D+00  1.31D+00
 E= -232.393092905449     Delta-E=       -0.000000000004 Rises=F Damp=F
 DIIS: error= 9.33D-09 at cycle   8 NSaved=   8.
 NSaved= 8 IEnMin= 8 EnMin= -232.393092905449     IErMin= 8 ErrMin= 9.33D-09
 ErrMax= 9.33D-09  0.00D+00 EMaxC= 1.00D-01 BMatC= 2.10D-14 BMatP= 3.08D-13
 IDIUse=1 WtCom= 1.00D+00 WtEn= 0.00D+00
 Coeff-Com: -0.334D-04 0.598D-04 0.194D-02 0.130D-02-0.284D-01-0.339D-01
 Coeff-Com:  0.483D-01 0.101D+01
 Coeff:     -0.334D-04 0.598D-04 0.194D-02 0.130D-02-0.284D-01-0.339D-01
 Coeff:      0.483D-01 0.101D+01
 Gap=     0.418 Goal=   None    Shift=    0.000
 RMSDP=1.00D-08 MaxDP=2.34D-07 DE=-4.15D-12 OVMax= 1.29D-07

 Cycle   9  Pass 1  IDiag  1:
 RMSU=  3.02D-09    CP:  1.00D+00  1.21D+00  1.21D+00  1.18D+00  1.48D+00
                    CP:  1.18D+00  1.44D+00  1.36D+00
 E= -232.393092905446     Delta-E=        0.000000000003 Rises=F Damp=F
 DIIS: error= 3.12D-09 at cycle   9 NSaved=   9.
 NSaved= 9 IEnMin= 8 EnMin= -232.393092905449     IErMin= 9 ErrMin= 3.12D-09
 ErrMax= 3.12D-09  0.00D+00 EMaxC= 1.00D-01 BMatC= 3.66D-15 BMatP= 2.10D-14
 IDIUse=1 WtCom= 1.00D+00 WtEn= 0.00D+00
 Coeff-Com:  0.112D-04-0.180D-03 0.107D-02 0.177D-02-0.547D-02-0.142D-01
 Coeff-Com: -0.776D-01 0.299D+00 0.796D+00
 Coeff:      0.112D-04-0.180D-03 0.107D-02 0.177D-02-0.547D-02-0.142D-01
 Coeff:     -0.776D-01 0.299D+00 0.796D+00
 Gap=     0.418 Goal=   None    Shift=    0.000
 RMSDP=2.30D-09 MaxDP=4.26D-08 DE= 2.96D-12 OVMax= 3.65D-08

 Error on total polarization charges =  0.02887
 SCF Done:  E(RwB97XD) =  -232.393092905     A.U. after    9 cycles
            NFock=  9  Conv=0.23D-08     -V/T= 2.0094
 KE= 2.302282938056D+02 PE=-9.217764833808D+02 EE= 2.685982287454D+02
 SMD-CDS (non-electrostatic) energy       (kcal/mol) =      -1.61
 (included in total energy above)
 Leave Link  502 at Mon Aug 25 14:24:49 2025, MaxMem=  4294967296 cpu:              64.8 elap:               4.6
 (Enter /opt/apps/Gaussian/G16C/g16/l701.exe)
 ... and contract with generalized density number  0.
 Compute integral first derivatives.
 R6Disp: Adding Grimme-D2 dispersion energy 1st derivatives to the gradient.
 D1PCM: PCM CHGder 1st derivatives, ID1Alg=3 FixD1E=F DoIter=F DoCFld=F I1PDM=0.
 GePol: Maximum number of non-zero 1st derivatives   =     315
 Leave Link  701 at Mon Aug 25 14:24:49 2025, MaxMem=  4294967296 cpu:               3.8 elap:               0.3
 (Enter /opt/apps/Gaussian/G16C/g16/l702.exe)
 L702 exits ... SP integral derivatives will be done elsewhere.
 Leave Link  702 at Mon Aug 25 14:24:49 2025, MaxMem=  4294967296 cpu:               0.0 elap:               0.0
 (Enter /opt/apps/Gaussian/G16C/g16/l703.exe)
 Integral derivatives from FoFJK, PRISM(SPDF).
 Compute integral first derivatives, UseDBF=F ICtDFT=           0.
 Calling FoFJK, ICntrl=      2127 FMM=F ISym2X=0 I1Cent= 0 IOpClX= 0 NMat=1 NMatS=1 NMatT=0.
 FoFJK:  IHMeth= 1 ICntrl=    2127 DoSepK=T KAlg= 0 I1Cent=           0 FoldK=F
 IRaf=         1 NMat=       1 IRICut=       1 DoRegI=T DoRafI=F ISym2E= 0 IDoP0=0 IntGTp=1.
 FoFCou: FMM=F IPFlag=           0 FMFlag=      100000 FMFlg1=         800
         NFxFlg=           0 DoJE=F BraDBF=F KetDBF=F FulRan=T
         wScrn=  0.000000 ICntrl=      2527 IOpCl=  0 I1Cent=           0 NGrid=           0
         NMat0=    1 NMatS0=      1 NMatT0=    0 NMatD0=    1 NMtDS0=    0 NMtDT0=    0
 Symmetry not used in FoFCou.
 Leave Link  703 at Mon Aug 25 14:24:50 2025, MaxMem=  4294967296 cpu:              10.0 elap:               0.7
 (Enter /opt/apps/Gaussian/G16C/g16/l716.exe)
 Dipole        = 7.24455599D-02 8.58849896D-01 1.78515205D-01
 -------------------------------------------------------------------
 Center     Atomic                   Forces (Hartrees/Bohr)
 Number     Number              X              Y              Z
 -------------------------------------------------------------------
      1        6           0.000231629   -0.000089658   -0.000042057
      2        8          -0.000043434    0.000086463   -0.000107293
      3        6          -0.000108387   -0.000057227    0.000062499
      4        6           0.000041585   -0.000032822    0.000051714
      5        6          -0.000130176    0.000029250   -0.000081578
      6        1           0.000044377    0.000046043   -0.000003839
      7        1          -0.000022060    0.000037042    0.000002229
      8        1          -0.000009986   -0.000014173    0.000039916
      9        1           0.000016541    0.000037215    0.000059639
     10        1          -0.000048973    0.000005464   -0.000072133
     11        1          -0.000010385   -0.000038536    0.000041841
     12        1           0.000053872   -0.000053730   -0.000006436
     13        1          -0.000014602    0.000044669    0.000055497
 -------------------------------------------------------------------
 Cartesian Forces:  Max     0.000231629 RMS     0.000065705
 Leave Link  716 at Mon Aug 25 14:24:50 2025, MaxMem=  4294967296 cpu:               0.0 elap:               0.0
 (Enter /opt/apps/Gaussian/G16C/g16/l103.exe)

 GradGradGradGradGradGradGradGradGradGradGradGradGradGradGradGradGradGrad
 Berny optimization.
 Using GEDIIS/GDIIS optimizer.
 FormGI is forming the generalized inverse of G from B-inverse, IUseBI=4.
 Internal  Forces:  Max     0.000141684 RMS     0.000040100
 Search for a local minimum.
 Step number   8 out of a maximum of   81
 All quantities printed in internal units (Hartrees-Bohrs-Radians)
 RMS Force = .40100D-04 SwitMx=.10000D-02 MixMth= 2
 Mixed Optimization -- En-DIIS/RFO-DIIS
 Swapping is turned off.
 Update second derivatives using D2CorX and points    4    5    6    7    8
 DE= -1.12D-06 DEPred=-8.48D-07 R= 1.32D+00
 TightC=F SS=  1.41D+00  RLast= 1.64D-02 DXNew= 2.2930D+00 4.9318D-02
 Trust test= 1.32D+00 RLast= 1.64D-02 DXMaxT set to 1.36D+00
 ITU=  1  1  1  1  1  1  1  0
     Eigenvalues ---    0.00059   0.00698   0.02676   0.03554   0.04992
     Eigenvalues ---    0.05239   0.05783   0.05846   0.06005   0.06790
     Eigenvalues ---    0.06937   0.07176   0.07745   0.09579   0.10811
     Eigenvalues ---    0.11257   0.11876   0.13746   0.21481   0.26307
     Eigenvalues ---    0.27109   0.28202   0.31718   0.33968   0.37091
     Eigenvalues ---    0.37204   0.37230   0.37231   0.37243   0.37361
     Eigenvalues ---    0.37401   0.39935   0.49103
 En-DIIS/RFO-DIIS/Sim-DIIS IScMMF=       -3 using points:     8    7    6    5    4
 RFO step:  Lambda=-7.75771834D-06.
 NNeg= 0 NGDIIS= 5 SimSw=  2.50D-01 Rises=F DC= -1.12D-06 SmlDif=  1.00D-05
 NRisDI= 0 DoIntr=F SqrtH=F CThrHd= 10.0 CDAdj=  3.0
 RMS Error=  0.1278317164D-01 NUsed= 5 OKEnD=F EnDIS=F
 InvSVX:  RCond= 6.99D-08 Info=           0 Equed=N FErr=  8.03D-11 BErr=  7.37D-17
 DIIS inversion failure, remove point   5.
 InvSVX:  RCond= 4.88D-07 Info=           0 Equed=N FErr=  1.04D-11 BErr=  4.56D-17
 Point number   2 has DIIS coefficient -9.25D+00 and has been removed
 InvSVX:  RCond= 1.26D-05 Info=           0 Equed=N FErr=  1.02D-12 BErr=  6.83D-17
 RFO-DIIS uses    3 points instead of    5
 DidBck=F Rises=F RFO-DIIS coefs:    2.38347    0.00000   -1.64967    0.26620    0.00000
 Iteration  1 RMS(Cart)=  0.00809313 RMS(Int)=  0.00003316
 Iteration  2 RMS(Cart)=  0.00003715 RMS(Int)=  0.00001247
 Iteration  3 RMS(Cart)=  0.00000000 RMS(Int)=  0.00001247
 ITry= 1 IFail=0 DXMaxC= 2.73D-02 DCOld= 1.00D+10 DXMaxT= 1.36D+00 DXLimC= 3.00D+00 Rises=F
 Variable       Old X    -DE/DX   Delta X   Delta X   Delta X     New X
                                 (Linear)    (Quad)   (Total)
    R1        2.68510  -0.00010   0.00208  -0.00169   0.00039   2.68550
    R2        2.88859  -0.00002  -0.00041   0.00032  -0.00010   2.88849
    R3        2.06532  -0.00006  -0.00007   0.00026   0.00019   2.06551
    R4        2.08349  -0.00001  -0.00054   0.00070   0.00015   2.08364
    R5        2.69190  -0.00014   0.00014  -0.00098  -0.00083   2.69106
    R6        2.91830  -0.00003  -0.00124   0.00042  -0.00083   2.91748
    R7        2.07946   0.00002   0.00052   0.00040   0.00092   2.08039
    R8        2.06556  -0.00006  -0.00001   0.00027   0.00026   2.06582
    R9        2.91938  -0.00006   0.00005   0.00115   0.00120   2.92057
   R10        2.06773  -0.00006  -0.00010   0.00026   0.00016   2.06789
   R11        2.06669  -0.00005   0.00013   0.00020   0.00033   2.06702
   R12        2.06728  -0.00005  -0.00027   0.00051   0.00024   2.06752
   R13        2.06883  -0.00002   0.00063   0.00010   0.00073   2.06956
    A1        1.82801   0.00007   0.00089  -0.00031   0.00056   1.82857
    A2        1.88370  -0.00002  -0.00125   0.00025  -0.00099   1.88271
    A3        1.91837   0.00001  -0.00227   0.00121  -0.00106   1.91731
    A4        1.99478  -0.00007  -0.00084   0.00039  -0.00044   1.99433
    A5        1.93710  -0.00001   0.00248  -0.00124   0.00124   1.93834
    A6        1.89947   0.00002   0.00073  -0.00018   0.00055   1.90002
    A7        1.85014  -0.00007   0.00087  -0.00077   0.00008   1.85022
    A8        1.86000   0.00003   0.00108  -0.00225  -0.00121   1.85880
    A9        1.90978  -0.00002   0.00025   0.00034   0.00060   1.91038
   A10        1.87641  -0.00000  -0.00038  -0.00046  -0.00082   1.87559
   A11        1.93456   0.00002  -0.00132   0.00152   0.00021   1.93476
   A12        1.98619  -0.00003   0.00096   0.00031   0.00127   1.98746
   A13        1.89487   0.00000  -0.00054   0.00044  -0.00010   1.89477
   A14        1.80948   0.00001  -0.00080   0.00100   0.00014   1.80961
   A15        1.93184   0.00001   0.00072  -0.00002   0.00072   1.93256
   A16        1.94796  -0.00000  -0.00044  -0.00085  -0.00127   1.94668
   A17        1.94978  -0.00002   0.00266  -0.00118   0.00150   1.95128
   A18        1.94459   0.00001  -0.00280   0.00164  -0.00114   1.94345
   A19        1.88099  -0.00001   0.00064  -0.00057   0.00007   1.88106
   A20        1.79374  -0.00009   0.00416  -0.00272   0.00139   1.79513
   A21        1.96047   0.00002   0.00034  -0.00106  -0.00071   1.95976
   A22        1.91698   0.00003  -0.00084   0.00096   0.00013   1.91711
   A23        1.97138  -0.00001   0.00171  -0.00051   0.00122   1.97260
   A24        1.93218   0.00007  -0.00345   0.00263  -0.00080   1.93138
   A25        1.88826  -0.00002  -0.00182   0.00068  -0.00114   1.88712
    D1        0.73184   0.00007  -0.00786   0.00691  -0.00095   0.73088
    D2        2.86383   0.00003  -0.00899   0.00733  -0.00167   2.86215
    D3       -1.35013   0.00004  -0.01014   0.00794  -0.00219  -1.35232
    D4       -0.57737  -0.00005   0.01349  -0.00370   0.00980  -0.56757
    D5       -2.70131  -0.00000   0.00868  -0.00084   0.00784  -2.69346
    D6        1.47953  -0.00001   0.01133  -0.00167   0.00966   1.48919
    D7       -2.63512  -0.00004   0.01489  -0.00402   0.01087  -2.62425
    D8        1.52412   0.00001   0.01008  -0.00116   0.00892   1.53305
    D9       -0.57822  -0.00000   0.01273  -0.00199   0.01074  -0.56748
   D10        1.49196  -0.00001   0.01257  -0.00308   0.00950   1.50145
   D11       -0.63198   0.00005   0.00776  -0.00022   0.00754  -0.62444
   D12       -2.73433   0.00004   0.01042  -0.00105   0.00936  -2.72497
   D13       -0.58019  -0.00004  -0.00250  -0.00573  -0.00822  -0.58841
   D14        1.51250  -0.00002  -0.00331  -0.00503  -0.00834   1.50415
   D15       -2.71593  -0.00003  -0.00403  -0.00457  -0.00860  -2.72453
   D16        0.19689   0.00003   0.01068   0.00299   0.01366   0.21055
   D17        2.29000   0.00002   0.01371   0.00216   0.01587   2.30587
   D18       -1.89819   0.00001   0.01472   0.00087   0.01559  -1.88261
   D19       -1.87970   0.00003   0.01046   0.00309   0.01355  -1.86615
   D20        0.21341   0.00001   0.01349   0.00227   0.01575   0.22916
   D21        2.30840   0.00001   0.01449   0.00097   0.01547   2.32387
   D22        2.26189   0.00003   0.01147   0.00111   0.01258   2.27447
   D23       -1.92819   0.00002   0.01451   0.00029   0.01479  -1.91340
   D24        0.16681   0.00002   0.01551  -0.00101   0.01450   0.18131
   D25        0.22319  -0.00000  -0.01376   0.00017  -0.01360   0.20960
   D26        2.33970  -0.00003  -0.00983  -0.00310  -0.01294   2.32677
   D27       -1.82294  -0.00001  -0.01349  -0.00066  -0.01414  -1.83708
   D28       -1.85765  -0.00001  -0.01547   0.00019  -0.01528  -1.87294
   D29        0.25886  -0.00004  -0.01155  -0.00308  -0.01463   0.24423
   D30        2.37940  -0.00002  -0.01520  -0.00064  -0.01583   2.36357
   D31        2.32057   0.00001  -0.01619   0.00059  -0.01561   2.30496
   D32       -1.84611  -0.00003  -0.01227  -0.00268  -0.01495  -1.86106
   D33        0.27444  -0.00001  -0.01592  -0.00024  -0.01616   0.25828
         Item               Value     Threshold  Converged?
 Maximum Force            0.000142     0.000015     NO 
 RMS     Force            0.000040     0.000010     NO 
 Maximum Displacement     0.027318     0.000060     NO 
 RMS     Displacement     0.008092     0.000040     NO 
 Predicted change in Energy=-2.860874D-06
 Lowest energy point so far.  Saving SCF results.
 GradGradGradGradGradGradGradGradGradGradGradGradGradGradGradGradGradGrad

 Leave Link  103 at Mon Aug 25 14:24:50 2025, MaxMem=  4294967296 cpu:               0.1 elap:               0.0
 (Enter /opt/apps/Gaussian/G16C/g16/l202.exe)
                          Input orientation:                          
 ---------------------------------------------------------------------
 Center     Atomic      Atomic             Coordinates (Angstroms)
 Number     Number       Type             X           Y           Z
 ---------------------------------------------------------------------
      1          6           0       -1.730023    0.317547    0.745051
      2          8           0       -0.933692   -0.447208   -0.149680
      3          6           0        0.146313    0.397529   -0.534289
      4          6           0       -0.414466    1.835378   -0.574596
      5          6           0       -1.789543    1.711100    0.119874
      6          1           0       -2.701027   -0.176069    0.835508
      7          1           0       -1.252190    0.348962    1.738253
      8          1           0        0.958200    0.314091    0.204523
      9          1           0        0.515456    0.039413   -1.498935
     10          1           0        0.248520    2.524699   -0.042868
     11          1           0       -0.518244    2.197256   -1.601590
     12          1           0       -1.964848    2.492933    0.864877
     13          1           0       -2.599406    1.754075   -0.616100
 ---------------------------------------------------------------------
                    Distance matrix (angstroms):
                    1          2          3          4          5
     1  C    0.000000
     2  O    1.421104   0.000000
     3  C    2.272387   1.424049   0.000000
     4  C    2.403325   2.379149   1.543862   0.000000
     5  C    1.528522   2.337399   2.429184   1.545500   0.000000
     6  H    1.093019   2.041467   3.211341   3.355991   2.214575
     7  H    1.102615   2.073551   2.668823   2.874106   2.182503
     8  H    2.742029   2.069852   1.100893   2.192157   3.083649
     9  H    3.186692   2.038951   1.093186   2.223657   3.275378
    10  H    3.067079   3.200198   2.185588   1.094280   2.200484
    11  H    3.241672   3.045297   2.195401   1.093820   2.194535
    12  H    2.191302   3.276742   3.287155   2.215433   1.094086
    13  H    2.161521   2.799607   3.063639   2.186846   1.095163
                    6          7          8          9         10
     6  H    0.000000
     7  H    1.785983   0.000000
     8  H    3.745443   2.690607   0.000000
     9  H    3.980179   3.701321   1.781359   0.000000
    10  H    4.094573   3.187218   2.334874   2.892756   0.000000
    11  H    4.041864   3.887083   2.998040   2.394862   1.767699
    12  H    2.768825   2.422246   3.705081   4.214176   2.392490
    13  H    2.417219   3.054883   3.924734   3.663581   3.005518
                   11         12         13
    11  H    0.000000
    12  H    2.874638   0.000000
    13  H    2.344959   1.772532   0.000000
 Symmetry turned off by external request.
 Stoichiometry    C4H8O
 Framework group  C1[X(C4H8O)]
 Deg. of freedom    33
 Full point group                 C1      NOp   1
 Rotational constants (GHZ):           7.1428372           6.9485008           3.9966269
 Leave Link  202 at Mon Aug 25 14:24:50 2025, MaxMem=  4294967296 cpu:               0.0 elap:               0.0
 (Enter /opt/apps/Gaussian/G16C/g16/l301.exe)
 Standard basis: 6-31+G(d) (6D, 7F)
 Ernie: Thresh=  0.10000D-02 Tol=  0.10000D-05 Strict=F.
   111 basis functions,   192 primitive gaussians,   111 cartesian basis functions
    20 alpha electrons       20 beta electrons
       nuclear repulsion energy       190.5543275358 Hartrees.
 IExCor= 4639 DFT=T Ex+Corr=wB97XD ExCW=0 ScaHFX=  1.000000
 ScaDFX=  1.000000  1.000000  1.000000  1.000000 ScalE2=  1.000000  1.000000
 IRadAn=      5 IRanWt=     -1 IRanGd=            0 ICorTp=0 IEmpDi=121
 HFx  wShort=  0.000000 wLong=  0.200000 cFull=  0.222036 cShort=  0.000000 cLong=  0.777964
 DFx  wShort=  0.000000 wLong=  0.200000 cFull=  0.000000 cShort=  0.000000 cLong=  1.000000
 NAtoms=   13 NActive=   13 NUniq=   13 SFac= 1.00D+00 NAtFMM=   60 NAOKFM=F Big=F
 Integral buffers will be    131072 words long.
 Raffenetti 2 integral format.
 Two-electron integral symmetry is turned off.
 R6Disp:  Grimme-D2 Dispersion energy=       -0.0056536765 Hartrees.
 Nuclear repulsion after empirical dispersion term =      190.5486738593 Hartrees.
 ------------------------------------------------------------------------------
 Polarizable Continuum Model (PCM)
 =================================
 Model                : PCM.
 Atomic radii         : SMD-Coulomb.
 Polarization charges : Total charges.
 Charge compensation  : None.
 Solution method      : On-the-fly selection.
 Cavity type          : VdW (van der Waals Surface) (Alpha=1.000).
 Cavity algorithm     : GePol (No added spheres)
                        Default sphere list used, NSphG=   13.
                        Lebedev-Laikov grids with approx.  5.0 points / Ang**2.
                        Smoothing algorithm: York/Karplus (Gamma=1.0000).
                        Polarization charges: spherical gaussians, with
                                              point-specific exponents (IZeta= 3).
                        Self-potential: point-specific (ISelfS= 7).
                        Self-field    : sphere-specific E.n sum rule (ISelfD= 2).
 1st derivatives      : Analytical E(r).r(x)/FMM algorithm (CHGder, D1EAlg=3).
                        Cavity 1st derivative terms included.
 Solvent              : TetraHydroFuran, Eps=   7.425700 Eps(inf)=   1.974025
 ------------------------------------------------------------------------------
 Spheres list:
 ISph  on   Nord     Re0    Alpha      Xe            Ye            Ze
    1   C      1    1.8500  1.000     -1.730023      0.317547      0.745051
    2   O      2    2.2940  1.000     -0.933692     -0.447208     -0.149680
    3   C      3    1.8500  1.000      0.146313      0.397529     -0.534289
    4   C      4    1.8500  1.000     -0.414466      1.835378     -0.574596
    5   C      5    1.8500  1.000     -1.789543      1.711100      0.119874
    6   H      6    1.2000  1.000     -2.701027     -0.176069      0.835508
    7   H      7    1.2000  1.000     -1.252190      0.348962      1.738253
    8   H      8    1.2000  1.000      0.958200      0.314091      0.204523
    9   H      9    1.2000  1.000      0.515456      0.039413     -1.498935
   10   H     10    1.2000  1.000      0.248520      2.524699     -0.042868
   11   H     11    1.2000  1.000     -0.518244      2.197256     -1.601590
   12   H     12    1.2000  1.000     -1.964848      2.492933      0.864877
   13   H     13    1.2000  1.000     -2.599406      1.754075     -0.616100
 ------------------------------------------------------------------------------
 GePol: Number of generator spheres                  =      13
 GePol: Total number of spheres                      =      13
 GePol: Number of exposed spheres                    =      13 (100.00%)
 GePol: Number of points                             =     987
 GePol: Average weight of points                     =       0.12
 GePol: Minimum weight of points                     =   0.16D-07
 GePol: Maximum weight of points                     =    0.17992
 GePol: Number of points with low weight             =      52
 GePol: Fraction of low-weight points (<1% of avg)   =       5.27%
 GePol: Cavity surface area                          =    115.400 Ang**2
 GePol: Cavity volume                                =     98.633 Ang**3
 ------------------------------------------------------------------------------
 Atomic radii for non-electrostatic terms: SMD-CDS.
 ------------------------------------------------------------------------------
 PCM non-electrostatic energy =        -0.0025673028 Hartrees.
 Nuclear repulsion after PCM non-electrostatic terms =      190.5461065565 Hartrees.
 Leave Link  301 at Mon Aug 25 14:24:50 2025, MaxMem=  4294967296 cpu:               0.1 elap:               0.0
 (Enter /opt/apps/Gaussian/G16C/g16/l302.exe)
 NPDir=0 NMtPBC=     1 NCelOv=     1 NCel=       1 NClECP=     1 NCelD=      1
         NCelK=      1 NCelE2=     1 NClLst=     1 CellRange=     0.0.
 One-electron integrals computed using PRISM.
 NBasis=   111 RedAO= T EigKep=  3.41D-05  NBF=   111
 NBsUse=   111 1.00D-06 EigRej= -1.00D+00 NBFU=   111
 Precomputing XC quadrature grid using
 IXCGrd= 4 IRadAn=           5 IRanWt=          -1 IRanGd=           0 AccXCQ= 0.00D+00.
 Generated NRdTot=       0 NPtTot=           0 NUsed=           0 NTot=          32
 NSgBfM=   111   111   111   111   111 MxSgAt=    13 MxSgA2=    13.
 Leave Link  302 at Mon Aug 25 14:24:50 2025, MaxMem=  4294967296 cpu:               1.0 elap:               0.1
 (Enter /opt/apps/Gaussian/G16C/g16/l303.exe)
 DipDrv:  MaxL=1.
 Leave Link  303 at Mon Aug 25 14:24:50 2025, MaxMem=  4294967296 cpu:               0.0 elap:               0.0
 (Enter /opt/apps/Gaussian/G16C/g16/l401.exe)
 Initial guess from the checkpoint file:  "THF-dzpop.chk"
 B after Tr=     0.000345    0.000424   -0.001958
         Rot=    1.000000   -0.000349    0.000026    0.000031 Ang=  -0.04 deg.
 Guess basis will be translated and rotated to current coordinates.
 JPrj=2 DoOrth=T DoCkMO=T.
 Generating alternative initial guess.
 ExpMin= 4.38D-02 ExpMax= 5.48D+03 ExpMxC= 8.25D+02 IAcc=3 IRadAn=         5 AccDes= 0.00D+00
 Harris functional with IExCor= 4639 and IRadAn=       5 diagonalized for initial guess.
 HarFok:  IExCor= 4639 AccDes= 0.00D+00 IRadAn=         5 IDoV= 1 UseB2=F ITyADJ=14
 ICtDFT=  3500011 ScaDFX=  1.000000  1.000000  1.000000  1.000000
 FoFCou: FMM=F IPFlag=           0 FMFlag=      100000 FMFlg1=           0
         NFxFlg=           0 DoJE=T BraDBF=F KetDBF=T FulRan=T
         wScrn=  0.000000 ICntrl=       500 IOpCl=  0 I1Cent=   200000004 NGrid=           0
         NMat0=    1 NMatS0=      1 NMatT0=    0 NMatD0=    1 NMtDS0=    0 NMtDT0=    0
 Symmetry not used in FoFCou.
 Harris En= -222.058327701921    
 Leave Link  401 at Mon Aug 25 14:24:51 2025, MaxMem=  4294967296 cpu:               3.3 elap:               0.2
 (Enter /opt/apps/Gaussian/G16C/g16/l502.exe)
 Two-electron integral symmetry not used.
 Closed shell SCF:
 Using DIIS extrapolation, IDIIS=  1040.
 NGot=  4294967296 LenX=  4294939455 LenY=  4294926693
 Requested convergence on RMS density matrix=1.00D-08 within 128 cycles.
 Requested convergence on MAX density matrix=1.00D-06.
 Requested convergence on             energy=1.00D-06.
 No special actions if energy rises.
 Fock matrices will be formed incrementally for  20 cycles.

 Cycle   1  Pass 1  IDiag  1:
 FoFJK:  IHMeth= 1 ICntrl=       0 DoSepK=T KAlg= 0 I1Cent=           0 FoldK=F
 IRaf=         1 NMat=       1 IRICut=       1 DoRegI=T DoRafI=F ISym2E= 0 IDoP0=0 IntGTp=1.
 FoFCou: FMM=F IPFlag=           0 FMFlag=      100000 FMFlg1=           0
         NFxFlg=           0 DoJE=T BraDBF=F KetDBF=F FulRan=T
         wScrn=  0.000000 ICntrl=       500 IOpCl=  0 I1Cent=           0 NGrid=           0
         NMat0=    1 NMatS0=      1 NMatT0=    0 NMatD0=    1 NMtDS0=    0 NMtDT0=    0
 Symmetry not used in FoFCou.
 Inv3:  Mode=1 IEnd=     2922507.
 Iteration    1 A*A^-1 deviation from unit magnitude is 3.22D-15 for    980.
 Iteration    1 A*A^-1 deviation from orthogonality  is 1.75D-15 for    681    498.
 Iteration    1 A^-1*A deviation from unit magnitude is 3.00D-15 for    980.
 Iteration    1 A^-1*A deviation from orthogonality  is 2.68D-15 for    971    325.
 E= -232.393013306673    
 DIIS: error= 6.78D-04 at cycle   1 NSaved=   1.
 NSaved= 1 IEnMin= 1 EnMin= -232.393013306673     IErMin= 1 ErrMin= 6.78D-04
 ErrMax= 6.78D-04  0.00D+00 EMaxC= 1.00D-01 BMatC= 4.56D-05 BMatP= 4.56D-05
 IDIUse=3 WtCom= 9.93D-01 WtEn= 6.78D-03
 Coeff-Com:  0.100D+01
 Coeff-En:   0.100D+01
 Coeff:      0.100D+01
 Gap=     0.830 Goal=   None    Shift=    0.000
 RMSDP=1.56D-04 MaxDP=3.00D-03              OVMax= 1.95D-03

 Cycle   2  Pass 1  IDiag  1:
 RMSU=  1.55D-04    CP:  1.00D+00
 E= -232.393091077861     Delta-E=       -0.000077771189 Rises=F Damp=F
 DIIS: error= 9.75D-05 at cycle   2 NSaved=   2.
 NSaved= 2 IEnMin= 2 EnMin= -232.393091077861     IErMin= 2 ErrMin= 9.75D-05
 ErrMax= 9.75D-05  0.00D+00 EMaxC= 1.00D-01 BMatC= 1.82D-06 BMatP= 4.56D-05
 IDIUse=1 WtCom= 1.00D+00 WtEn= 0.00D+00
 Coeff-Com: -0.186D+00 0.119D+01
 Coeff:     -0.186D+00 0.119D+01
 Gap=     0.418 Goal=   None    Shift=    0.000
 RMSDP=4.00D-05 MaxDP=6.34D-04 DE=-7.78D-05 OVMax= 6.88D-04

 Cycle   3  Pass 1  IDiag  1:
 RMSU=  2.53D-05    CP:  1.00D+00  1.20D+00
 E= -232.393095858467     Delta-E=       -0.000004780605 Rises=F Damp=F
 DIIS: error= 2.02D-05 at cycle   3 NSaved=   3.
 NSaved= 3 IEnMin= 3 EnMin= -232.393095858467     IErMin= 3 ErrMin= 2.02D-05
 ErrMax= 2.02D-05  0.00D+00 EMaxC= 1.00D-01 BMatC= 7.68D-08 BMatP= 1.82D-06
 IDIUse=1 WtCom= 1.00D+00 WtEn= 0.00D+00
 Coeff-Com: -0.228D-01 0.574D-01 0.965D+00
 Coeff:     -0.228D-01 0.574D-01 0.965D+00
 Gap=     0.418 Goal=   None    Shift=    0.000
 RMSDP=8.48D-06 MaxDP=1.02D-04 DE=-4.78D-06 OVMax= 1.35D-04

 Cycle   4  Pass 1  IDiag  1:
 RMSU=  7.04D-06    CP:  1.00D+00  1.20D+00  1.18D+00
 E= -232.393095991915     Delta-E=       -0.000000133448 Rises=F Damp=F
 DIIS: error= 9.39D-06 at cycle   4 NSaved=   4.
 NSaved= 4 IEnMin= 4 EnMin= -232.393095991915     IErMin= 4 ErrMin= 9.39D-06
 ErrMax= 9.39D-06  0.00D+00 EMaxC= 1.00D-01 BMatC= 2.67D-08 BMatP= 7.68D-08
 IDIUse=1 WtCom= 1.00D+00 WtEn= 0.00D+00
 Coeff-Com:  0.896D-02-0.930D-01 0.376D+00 0.708D+00
 Coeff:      0.896D-02-0.930D-01 0.376D+00 0.708D+00
 Gap=     0.418 Goal=   None    Shift=    0.000
 RMSDP=2.67D-06 MaxDP=4.08D-05 DE=-1.33D-07 OVMax= 4.60D-05

 Cycle   5  Pass 1  IDiag  1:
 RMSU=  2.11D-06    CP:  1.00D+00  1.21D+00  1.23D+00  1.03D+00
 E= -232.393096023418     Delta-E=       -0.000000031503 Rises=F Damp=F
 DIIS: error= 1.42D-06 at cycle   5 NSaved=   5.
 NSaved= 5 IEnMin= 5 EnMin= -232.393096023418     IErMin= 5 ErrMin= 1.42D-06
 ErrMax= 1.42D-06  0.00D+00 EMaxC= 1.00D-01 BMatC= 4.88D-10 BMatP= 2.67D-08
 IDIUse=1 WtCom= 1.00D+00 WtEn= 0.00D+00
 Coeff-Com:  0.167D-02-0.901D-02-0.293D-01 0.440D-01 0.993D+00
 Coeff:      0.167D-02-0.901D-02-0.293D-01 0.440D-01 0.993D+00
 Gap=     0.418 Goal=   None    Shift=    0.000
 RMSDP=1.23D-06 MaxDP=1.80D-05 DE=-3.15D-08 OVMax= 1.47D-05

 Cycle   6  Pass 1  IDiag  1:
 RMSU=  3.76D-07    CP:  1.00D+00  1.21D+00  1.24D+00  1.16D+00  1.33D+00
 E= -232.393096024396     Delta-E=       -0.000000000978 Rises=F Damp=F
 DIIS: error= 1.20D-06 at cycle   6 NSaved=   6.
 NSaved= 6 IEnMin= 6 EnMin= -232.393096024396     IErMin= 6 ErrMin= 1.20D-06
 ErrMax= 1.20D-06  0.00D+00 EMaxC= 1.00D-01 BMatC= 2.36D-10 BMatP= 4.88D-10
 IDIUse=1 WtCom= 1.00D+00 WtEn= 0.00D+00
 Coeff-Com:  0.174D-03 0.245D-02-0.434D-01-0.322D-01 0.496D+00 0.577D+00
 Coeff:      0.174D-03 0.245D-02-0.434D-01-0.322D-01 0.496D+00 0.577D+00
 Gap=     0.418 Goal=   None    Shift=    0.000
 RMSDP=2.90D-07 MaxDP=4.47D-06 DE=-9.78D-10 OVMax= 3.86D-06

 Cycle   7  Pass 1  IDiag  1:
 RMSU=  1.21D-07    CP:  1.00D+00  1.21D+00  1.24D+00  1.19D+00  1.41D+00
                    CP:  1.01D+00
 E= -232.393096024598     Delta-E=       -0.000000000202 Rises=F Damp=F
 DIIS: error= 1.76D-07 at cycle   7 NSaved=   7.
 NSaved= 7 IEnMin= 7 EnMin= -232.393096024598     IErMin= 7 ErrMin= 1.76D-07
 ErrMax= 1.76D-07  0.00D+00 EMaxC= 1.00D-01 BMatC= 7.79D-12 BMatP= 2.36D-10
 IDIUse=1 WtCom= 1.00D+00 WtEn= 0.00D+00
 Coeff-Com: -0.238D-03 0.206D-02-0.468D-02-0.136D-01-0.482D-01 0.103D+00
 Coeff-Com:  0.962D+00
 Coeff:     -0.238D-03 0.206D-02-0.468D-02-0.136D-01-0.482D-01 0.103D+00
 Coeff:      0.962D+00
 Gap=     0.418 Goal=   None    Shift=    0.000
 RMSDP=1.75D-07 MaxDP=3.79D-06 DE=-2.02D-10 OVMax= 2.14D-06

 Cycle   8  Pass 1  IDiag  1:
 RMSU=  4.66D-08    CP:  1.00D+00  1.21D+00  1.23D+00  1.20D+00  1.46D+00
                    CP:  1.21D+00  1.29D+00
 E= -232.393096024617     Delta-E=       -0.000000000019 Rises=F Damp=F
 DIIS: error= 4.41D-08 at cycle   8 NSaved=   8.
 NSaved= 8 IEnMin= 8 EnMin= -232.393096024617     IErMin= 8 ErrMin= 4.41D-08
 ErrMax= 4.41D-08  0.00D+00 EMaxC= 1.00D-01 BMatC= 3.29D-13 BMatP= 7.79D-12
 IDIUse=1 WtCom= 1.00D+00 WtEn= 0.00D+00
 Coeff-Com: -0.170D-04-0.782D-04 0.242D-02 0.151D-02-0.292D-01-0.336D-01
 Coeff-Com:  0.514D-02 0.105D+01
 Coeff:     -0.170D-04-0.782D-04 0.242D-02 0.151D-02-0.292D-01-0.336D-01
 Coeff:      0.514D-02 0.105D+01
 Gap=     0.418 Goal=   None    Shift=    0.000
 RMSDP=4.10D-08 MaxDP=9.92D-07 DE=-1.91D-11 OVMax= 6.29D-07

 Cycle   9  Pass 1  IDiag  1:
 RMSU=  1.15D-08    CP:  1.00D+00  1.21D+00  1.23D+00  1.20D+00  1.46D+00
                    CP:  1.26D+00  1.43D+00  1.41D+00
 E= -232.393096024623     Delta-E=       -0.000000000005 Rises=F Damp=F
 DIIS: error= 1.16D-08 at cycle   9 NSaved=   9.
 NSaved= 9 IEnMin= 9 EnMin= -232.393096024623     IErMin= 9 ErrMin= 1.16D-08
 ErrMax= 1.16D-08  0.00D+00 EMaxC= 1.00D-01 BMatC= 5.88D-14 BMatP= 3.29D-13
 IDIUse=1 WtCom= 1.00D+00 WtEn= 0.00D+00
 Coeff-Com:  0.141D-04-0.195D-03 0.113D-02 0.160D-02-0.490D-02-0.186D-01
 Coeff-Com: -0.774D-01 0.325D+00 0.773D+00
 Coeff:      0.141D-04-0.195D-03 0.113D-02 0.160D-02-0.490D-02-0.186D-01
 Coeff:     -0.774D-01 0.325D+00 0.773D+00
 Gap=     0.418 Goal=   None    Shift=    0.000
 RMSDP=8.69D-09 MaxDP=1.51D-07 DE=-5.37D-12 OVMax= 1.56D-07

 Error on total polarization charges =  0.02888
 SCF Done:  E(RwB97XD) =  -232.393096025     A.U. after    9 cycles
            NFock=  9  Conv=0.87D-08     -V/T= 2.0094
 KE= 2.302265995937D+02 PE=-9.217540909328D+02 EE= 2.685882887580D+02
 SMD-CDS (non-electrostatic) energy       (kcal/mol) =      -1.61
 (included in total energy above)
 Leave Link  502 at Mon Aug 25 14:24:55 2025, MaxMem=  4294967296 cpu:              66.6 elap:               4.8
 (Enter /opt/apps/Gaussian/G16C/g16/l701.exe)
 ... and contract with generalized density number  0.
 Compute integral first derivatives.
 R6Disp: Adding Grimme-D2 dispersion energy 1st derivatives to the gradient.
 D1PCM: PCM CHGder 1st derivatives, ID1Alg=3 FixD1E=F DoIter=F DoCFld=F I1PDM=0.
 GePol: Maximum number of non-zero 1st derivatives   =     313
 Leave Link  701 at Mon Aug 25 14:24:56 2025, MaxMem=  4294967296 cpu:               4.1 elap:               0.3
 (Enter /opt/apps/Gaussian/G16C/g16/l702.exe)
 L702 exits ... SP integral derivatives will be done elsewhere.
 Leave Link  702 at Mon Aug 25 14:24:56 2025, MaxMem=  4294967296 cpu:               0.0 elap:               0.0
 (Enter /opt/apps/Gaussian/G16C/g16/l703.exe)
 Integral derivatives from FoFJK, PRISM(SPDF).
 Compute integral first derivatives, UseDBF=F ICtDFT=           0.
 Calling FoFJK, ICntrl=      2127 FMM=F ISym2X=0 I1Cent= 0 IOpClX= 0 NMat=1 NMatS=1 NMatT=0.
 FoFJK:  IHMeth= 1 ICntrl=    2127 DoSepK=T KAlg= 0 I1Cent=           0 FoldK=F
 IRaf=         1 NMat=       1 IRICut=       1 DoRegI=T DoRafI=F ISym2E= 0 IDoP0=0 IntGTp=1.
 FoFCou: FMM=F IPFlag=           0 FMFlag=      100000 FMFlg1=         800
         NFxFlg=           0 DoJE=F BraDBF=F KetDBF=F FulRan=T
         wScrn=  0.000000 ICntrl=      2527 IOpCl=  0 I1Cent=           0 NGrid=           0
         NMat0=    1 NMatS0=      1 NMatT0=    0 NMatD0=    1 NMtDS0=    0 NMtDT0=    0
 Symmetry not used in FoFCou.
 Leave Link  703 at Mon Aug 25 14:24:57 2025, MaxMem=  4294967296 cpu:               9.9 elap:               0.7
 (Enter /opt/apps/Gaussian/G16C/g16/l716.exe)
 Dipole        = 7.21723687D-02 8.56874146D-01 1.81345026D-01
 -------------------------------------------------------------------
 Center     Atomic                   Forces (Hartrees/Bohr)
 Number     Number              X              Y              Z
 -------------------------------------------------------------------
      1        6           0.000405249   -0.000448072   -0.000084651
      2        8          -0.000163329   -0.000111598   -0.000027599
      3        6          -0.000012709   -0.000154029    0.000167416
      4        6           0.000045179    0.000127023    0.000019071
      5        6          -0.000355266    0.000239454   -0.000380063
      6        1           0.000104143    0.000117698    0.000102425
      7        1          -0.000122778    0.000127842   -0.000057063
      8        1          -0.000214439    0.000009140   -0.000087473
      9        1           0.000040093    0.000212141    0.000124764
     10        1          -0.000107883   -0.000035458   -0.000097725
     11        1          -0.000002173   -0.000031938    0.000156250
     12        1           0.000202509   -0.000081366   -0.000071675
     13        1           0.000181405    0.000029161    0.000236324
 -------------------------------------------------------------------
 Cartesian Forces:  Max     0.000448072 RMS     0.000174424
 Leave Link  716 at Mon Aug 25 14:24:57 2025, MaxMem=  4294967296 cpu:               0.0 elap:               0.0
 (Enter /opt/apps/Gaussian/G16C/g16/l103.exe)

 GradGradGradGradGradGradGradGradGradGradGradGradGradGradGradGradGradGrad
 Berny optimization.
 Using GEDIIS/GDIIS optimizer.
 FormGI is forming the generalized inverse of G from B-inverse, IUseBI=4.
 Internal  Forces:  Max     0.000290714 RMS     0.000103230
 Search for a local minimum.
 Step number   9 out of a maximum of   81
 All quantities printed in internal units (Hartrees-Bohrs-Radians)
 RMS Force = .10323D-03 SwitMx=.10000D-02 MixMth= 2
 Mixed Optimization -- En-DIIS/RFO-DIIS
 Swapping is turned off.
 Update second derivatives using D2CorX and points    4    5    6    7    8
                                                      9
 DE= -3.12D-06 DEPred=-2.86D-06 R= 1.09D+00
 TightC=F SS=  1.41D+00  RLast= 7.04D-02 DXNew= 2.2930D+00 2.1132D-01
 Trust test= 1.09D+00 RLast= 7.04D-02 DXMaxT set to 1.36D+00
 ITU=  1  1  1  1  1  1  1  1  0
     Eigenvalues ---    0.00039   0.00608   0.02667   0.03524   0.04984
     Eigenvalues ---    0.05234   0.05778   0.05865   0.06133   0.06721
     Eigenvalues ---    0.06944   0.07185   0.07983   0.09593   0.10833
     Eigenvalues ---    0.11231   0.11983   0.13754   0.21672   0.26003
     Eigenvalues ---    0.27086   0.28186   0.31946   0.34080   0.37123
     Eigenvalues ---    0.37204   0.37229   0.37230   0.37238   0.37354
     Eigenvalues ---    0.37444   0.40293   0.52246
 En-DIIS/RFO-DIIS/Sim-DIIS IScMMF=       -3 using points:     9    8    7    6    5    4
 RFO step:  Lambda=-7.98069661D-06.
 NNeg= 0 NGDIIS= 6 SimSw=  2.50D-01 Rises=F DC= -3.12D-06 SmlDif=  1.00D-05
 NRisDI= 0 DoIntr=F SqrtH=F CThrHd= 10.0 CDAdj=  3.0
 RMS Error=  0.1333156493D-01 NUsed= 6 OKEnD=F EnDIS=F
 InvSVX:  RCond= 1.18D-10 Info=           0 Equed=N FErr=  8.99D-08 BErr=  9.47D-17
 DIIS inversion failure, remove point   6.
 InvSVX:  RCond= 4.67D-10 Info=           0 Equed=N FErr=  2.38D-08 BErr=  5.02D-17
 DIIS inversion failure, remove point   5.
 InvSVX:  RCond= 3.41D-08 Info=           0 Equed=N FErr=  3.53D-10 BErr=  1.05D-16
 DIIS inversion failure, remove point   4.
 InvSVX:  RCond= 9.86D-08 Info=           0 Equed=N FErr=  1.30D-10 BErr=  7.19D-17
 DIIS inversion failure, remove point   3.
 InvSVX:  RCond= 1.19D-03 Info=           0 Equed=N FErr=  8.43D-15 BErr=  0.00D+00
 RFO-DIIS uses    2 points instead of    6
 DidBck=F Rises=F RFO-DIIS coefs:    2.60594   -1.60594    0.00000    0.00000    0.00000
                  RFO-DIIS coefs:    0.00000
 Iteration  1 RMS(Cart)=  0.01290091 RMS(Int)=  0.00008747
 Iteration  2 RMS(Cart)=  0.00009458 RMS(Int)=  0.00003624
 Iteration  3 RMS(Cart)=  0.00000000 RMS(Int)=  0.00003624
 ITry= 1 IFail=0 DXMaxC= 4.28D-02 DCOld= 1.00D+10 DXMaxT= 1.36D+00 DXLimC= 3.00D+00 Rises=F
 Variable       Old X    -DE/DX   Delta X   Delta X   Delta X     New X
                                 (Linear)    (Quad)   (Total)
    R1        2.68550  -0.00015   0.00063  -0.00005   0.00061   2.68611
    R2        2.88849   0.00021  -0.00016   0.00036   0.00021   2.88870
    R3        2.06551  -0.00014   0.00031  -0.00045  -0.00014   2.06536
    R4        2.08364  -0.00010   0.00025  -0.00028  -0.00003   2.08361
    R5        2.69106  -0.00001  -0.00134   0.00002  -0.00131   2.68975
    R6        2.91748  -0.00002  -0.00133  -0.00005  -0.00140   2.91608
    R7        2.08039  -0.00022   0.00148  -0.00065   0.00083   2.08122
    R8        2.06582  -0.00017   0.00042  -0.00055  -0.00014   2.06569
    R9        2.92057  -0.00026   0.00192  -0.00072   0.00118   2.92175
   R10        2.06789  -0.00013   0.00026  -0.00040  -0.00014   2.06775
   R11        2.06702  -0.00016   0.00053  -0.00049   0.00004   2.06706
   R12        2.06752  -0.00014   0.00038  -0.00051  -0.00012   2.06740
   R13        2.06956  -0.00029   0.00118  -0.00081   0.00037   2.06993
    A1        1.82857   0.00012   0.00091  -0.00008   0.00077   1.82934
    A2        1.88271  -0.00001  -0.00159   0.00153  -0.00003   1.88268
    A3        1.91731   0.00008  -0.00170   0.00077  -0.00092   1.91639
    A4        1.99433  -0.00005  -0.00071   0.00009  -0.00060   1.99374
    A5        1.93834  -0.00013   0.00199  -0.00155   0.00044   1.93878
    A6        1.90002   0.00000   0.00088  -0.00058   0.00029   1.90031
    A7        1.85022  -0.00026   0.00012  -0.00235  -0.00230   1.84792
    A8        1.85880   0.00019  -0.00194   0.00054  -0.00152   1.85728
    A9        1.91038  -0.00009   0.00097  -0.00077   0.00023   1.91062
   A10        1.87559   0.00005  -0.00132   0.00161   0.00033   1.87592
   A11        1.93476  -0.00002   0.00033  -0.00075  -0.00040   1.93436
   A12        1.98746  -0.00018   0.00204  -0.00069   0.00138   1.98884
   A13        1.89477   0.00005  -0.00016   0.00012  -0.00005   1.89472
   A14        1.80961  -0.00005   0.00022  -0.00060  -0.00054   1.80908
   A15        1.93256   0.00004   0.00115  -0.00005   0.00114   1.93370
   A16        1.94668   0.00003  -0.00205   0.00051  -0.00149   1.94519
   A17        1.95128  -0.00004   0.00241  -0.00007   0.00239   1.95366
   A18        1.94345   0.00005  -0.00184   0.00027  -0.00153   1.94192
   A19        1.88106  -0.00003   0.00011  -0.00006   0.00002   1.88108
   A20        1.79513  -0.00007   0.00223  -0.00060   0.00151   1.79663
   A21        1.95976   0.00005  -0.00115   0.00063  -0.00048   1.95928
   A22        1.91711   0.00003   0.00022  -0.00022   0.00003   1.91714
   A23        1.97260  -0.00013   0.00195  -0.00088   0.00112   1.97372
   A24        1.93138   0.00012  -0.00129   0.00048  -0.00078   1.93060
   A25        1.88712   0.00001  -0.00183   0.00055  -0.00130   1.88582
    D1        0.73088   0.00004  -0.00153   0.00353   0.00197   0.73285
    D2        2.86215   0.00004  -0.00268   0.00438   0.00167   2.86383
    D3       -1.35232   0.00008  -0.00352   0.00501   0.00148  -1.35084
    D4       -0.56757  -0.00013   0.01573  -0.00292   0.01282  -0.55475
    D5       -2.69346   0.00004   0.01259  -0.00182   0.01079  -2.68267
    D6        1.48919  -0.00002   0.01552  -0.00278   0.01273   1.50192
    D7       -2.62425  -0.00017   0.01746  -0.00479   0.01268  -2.61156
    D8        1.53305   0.00000   0.01433  -0.00369   0.01065   1.54370
    D9       -0.56748  -0.00006   0.01725  -0.00465   0.01259  -0.55489
   D10        1.50145  -0.00004   0.01525  -0.00284   0.01240   1.51386
   D11       -0.62444   0.00014   0.01211  -0.00175   0.01037  -0.61407
   D12       -2.72497   0.00008   0.01504  -0.00271   0.01231  -2.71266
   D13       -0.58841  -0.00005  -0.01321  -0.00324  -0.01643  -0.60484
   D14        1.50415  -0.00002  -0.01340  -0.00424  -0.01766   1.48650
   D15       -2.72453   0.00002  -0.01381  -0.00361  -0.01740  -2.74192
   D16        0.21055   0.00004   0.02194   0.00181   0.02375   0.23430
   D17        2.30587  -0.00002   0.02548   0.00136   0.02682   2.33269
   D18       -1.88261  -0.00000   0.02503   0.00159   0.02663  -1.85597
   D19       -1.86615   0.00005   0.02175   0.00283   0.02459  -1.84156
   D20        0.22916  -0.00001   0.02530   0.00237   0.02767   0.25683
   D21        2.32387   0.00000   0.02485   0.00261   0.02748   2.35135
   D22        2.27447   0.00013   0.02020   0.00376   0.02395   2.29842
   D23       -1.91340   0.00007   0.02374   0.00331   0.02702  -1.88638
   D24        0.18131   0.00008   0.02329   0.00354   0.02683   0.20815
   D25        0.20960   0.00001  -0.02183   0.00050  -0.02134   0.18826
   D26        2.32677  -0.00005  -0.02078   0.00042  -0.02037   2.30640
   D27       -1.83708  -0.00004  -0.02271   0.00087  -0.02183  -1.85891
   D28       -1.87294   0.00002  -0.02455   0.00096  -0.02358  -1.89652
   D29        0.24423  -0.00004  -0.02349   0.00087  -0.02261   0.22162
   D30        2.36357  -0.00003  -0.02542   0.00132  -0.02408   2.33950
   D31        2.30496   0.00004  -0.02507   0.00089  -0.02419   2.28076
   D32       -1.86106  -0.00001  -0.02401   0.00081  -0.02323  -1.88429
   D33        0.25828  -0.00000  -0.02595   0.00126  -0.02469   0.23359
         Item               Value     Threshold  Converged?
 Maximum Force            0.000291     0.000015     NO 
 RMS     Force            0.000103     0.000010     NO 
 Maximum Displacement     0.042850     0.000060     NO 
 RMS     Displacement     0.012901     0.000040     NO 
 Predicted change in Energy=-4.058720D-06
 Lowest energy point so far.  Saving SCF results.
 GradGradGradGradGradGradGradGradGradGradGradGradGradGradGradGradGradGrad

 Leave Link  103 at Mon Aug 25 14:24:57 2025, MaxMem=  4294967296 cpu:               0.1 elap:               0.0
 (Enter /opt/apps/Gaussian/G16C/g16/l202.exe)
                          Input orientation:                          
 ---------------------------------------------------------------------
 Center     Atomic      Atomic             Coordinates (Angstroms)
 Number     Number       Type             X           Y           Z
 ---------------------------------------------------------------------
      1          6           0       -1.731579    0.314641    0.740342
      2          8           0       -0.935026   -0.445952   -0.158245
      3          6           0        0.148111    0.399493   -0.529700
      4          6           0       -0.416711    1.834608   -0.581212
      5          6           0       -1.786147    1.713426    0.126223
      6          1           0       -2.704263   -0.176620    0.824432
      7          1           0       -1.255670    0.336313    1.734710
      8          1           0        0.949587    0.320780    0.221551
      9          1           0        0.532409    0.039189   -1.487506
     10          1           0        0.249395    2.532942   -0.065543
     11          1           0       -0.532031    2.182364   -1.611871
     12          1           0       -1.950440    2.490292    0.878797
     13          1           0       -2.602585    1.768228   -0.601951
 ---------------------------------------------------------------------
                    Distance matrix (angstroms):
                    1          2          3          4          5
     1  C    0.000000
     2  O    1.421428   0.000000
     3  C    2.270119   1.423356   0.000000
     4  C    2.405344   2.376658   1.543123   0.000000
     5  C    1.528632   2.338427   2.428581   1.546126   0.000000
     6  H    1.092943   2.041664   3.209613   3.354664   2.214206
     7  H    1.102600   2.073169   2.664985   2.883094   2.182906
     8  H    2.730903   2.069756   1.101334   2.191545   3.071285
     9  H    3.188232   2.038545   1.093114   2.223899   3.283732
    10  H    3.081325   3.207064   2.185704   1.094204   2.202683
    11  H    3.234224   3.030425   2.193699   1.093842   2.194010
    12  H    2.191011   3.275371   3.280125   2.216726   1.094021
    13  H    2.161785   2.807173   3.073269   2.186980   1.095359
                    6          7          8          9         10
     6  H    0.000000
     7  H    1.786093   0.000000
     8  H    3.736508   2.674518   0.000000
     9  H    3.983426   3.697051   1.781630   0.000000
    10  H    4.105835   3.214236   2.338024   2.884594   0.000000
    11  H    4.027278   3.889879   3.003685   2.396184   1.767671
    12  H    2.771936   2.419694   3.680885   4.215666   2.394341
    13  H    2.413989   3.053612   3.923160   3.688085   3.001051
                   11         12         13
    11  H    0.000000
    12  H    2.882729   0.000000
    13  H    2.340649   1.771803   0.000000
 Symmetry turned off by external request.
 Stoichiometry    C4H8O
 Framework group  C1[X(C4H8O)]
 Deg. of freedom    33
 Full point group                 C1      NOp   1
 Rotational constants (GHZ):           7.1438191           6.9499190           3.9979048
 Leave Link  202 at Mon Aug 25 14:24:57 2025, MaxMem=  4294967296 cpu:               0.0 elap:               0.0
 (Enter /opt/apps/Gaussian/G16C/g16/l301.exe)
 Standard basis: 6-31+G(d) (6D, 7F)
 Ernie: Thresh=  0.10000D-02 Tol=  0.10000D-05 Strict=F.
   111 basis functions,   192 primitive gaussians,   111 cartesian basis functions
    20 alpha electrons       20 beta electrons
       nuclear repulsion energy       190.5702664918 Hartrees.
 IExCor= 4639 DFT=T Ex+Corr=wB97XD ExCW=0 ScaHFX=  1.000000
 ScaDFX=  1.000000  1.000000  1.000000  1.000000 ScalE2=  1.000000  1.000000
 IRadAn=      5 IRanWt=     -1 IRanGd=            0 ICorTp=0 IEmpDi=121
 HFx  wShort=  0.000000 wLong=  0.200000 cFull=  0.222036 cShort=  0.000000 cLong=  0.777964
 DFx  wShort=  0.000000 wLong=  0.200000 cFull=  0.000000 cShort=  0.000000 cLong=  1.000000
 NAtoms=   13 NActive=   13 NUniq=   13 SFac= 1.00D+00 NAtFMM=   60 NAOKFM=F Big=F
 Integral buffers will be    131072 words long.
 Raffenetti 2 integral format.
 Two-electron integral symmetry is turned off.
 R6Disp:  Grimme-D2 Dispersion energy=       -0.0056531449 Hartrees.
 Nuclear repulsion after empirical dispersion term =      190.5646133469 Hartrees.
 ------------------------------------------------------------------------------
 Polarizable Continuum Model (PCM)
 =================================
 Model                : PCM.
 Atomic radii         : SMD-Coulomb.
 Polarization charges : Total charges.
 Charge compensation  : None.
 Solution method      : On-the-fly selection.
 Cavity type          : VdW (van der Waals Surface) (Alpha=1.000).
 Cavity algorithm     : GePol (No added spheres)
                        Default sphere list used, NSphG=   13.
                        Lebedev-Laikov grids with approx.  5.0 points / Ang**2.
                        Smoothing algorithm: York/Karplus (Gamma=1.0000).
                        Polarization charges: spherical gaussians, with
                                              point-specific exponents (IZeta= 3).
                        Self-potential: point-specific (ISelfS= 7).
                        Self-field    : sphere-specific E.n sum rule (ISelfD= 2).
 1st derivatives      : Analytical E(r).r(x)/FMM algorithm (CHGder, D1EAlg=3).
                        Cavity 1st derivative terms included.
 Solvent              : TetraHydroFuran, Eps=   7.425700 Eps(inf)=   1.974025
 ------------------------------------------------------------------------------
 Spheres list:
 ISph  on   Nord     Re0    Alpha      Xe            Ye            Ze
    1   C      1    1.8500  1.000     -1.731579      0.314641      0.740342
    2   O      2    2.2940  1.000     -0.935026     -0.445952     -0.158245
    3   C      3    1.8500  1.000      0.148111      0.399493     -0.529700
    4   C      4    1.8500  1.000     -0.416711      1.834608     -0.581212
    5   C      5    1.8500  1.000     -1.786147      1.713426      0.126223
    6   H      6    1.2000  1.000     -2.704263     -0.176620      0.824432
    7   H      7    1.2000  1.000     -1.255670      0.336313      1.734710
    8   H      8    1.2000  1.000      0.949587      0.320780      0.221551
    9   H      9    1.2000  1.000      0.532409      0.039189     -1.487506
   10   H     10    1.2000  1.000      0.249395      2.532942     -0.065543
   11   H     11    1.2000  1.000     -0.532031      2.182364     -1.611871
   12   H     12    1.2000  1.000     -1.950440      2.490292      0.878797
   13   H     13    1.2000  1.000     -2.602585      1.768228     -0.601951
 ------------------------------------------------------------------------------
 GePol: Number of generator spheres                  =      13
 GePol: Total number of spheres                      =      13
 GePol: Number of exposed spheres                    =      13 (100.00%)
 GePol: Number of points                             =     983
 GePol: Average weight of points                     =       0.12
 GePol: Minimum weight of points                     =   0.76D-07
 GePol: Maximum weight of points                     =    0.17992
 GePol: Number of points with low weight             =      48
 GePol: Fraction of low-weight points (<1% of avg)   =       4.88%
 GePol: Cavity surface area                          =    115.427 Ang**2
 GePol: Cavity volume                                =     98.678 Ang**3
 ------------------------------------------------------------------------------
 Atomic radii for non-electrostatic terms: SMD-CDS.
 ------------------------------------------------------------------------------
 PCM non-electrostatic energy =        -0.0025680298 Hartrees.
 Nuclear repulsion after PCM non-electrostatic terms =      190.5620453171 Hartrees.
 Leave Link  301 at Mon Aug 25 14:24:57 2025, MaxMem=  4294967296 cpu:               0.0 elap:               0.0
 (Enter /opt/apps/Gaussian/G16C/g16/l302.exe)
 NPDir=0 NMtPBC=     1 NCelOv=     1 NCel=       1 NClECP=     1 NCelD=      1
         NCelK=      1 NCelE2=     1 NClLst=     1 CellRange=     0.0.
 One-electron integrals computed using PRISM.
 NBasis=   111 RedAO= T EigKep=  3.26D-05  NBF=   111
 NBsUse=   111 1.00D-06 EigRej= -1.00D+00 NBFU=   111
 Precomputing XC quadrature grid using
 IXCGrd= 4 IRadAn=           5 IRanWt=          -1 IRanGd=           0 AccXCQ= 0.00D+00.
 Generated NRdTot=       0 NPtTot=           0 NUsed=           0 NTot=          32
 NSgBfM=   111   111   111   111   111 MxSgAt=    13 MxSgA2=    13.
 Leave Link  302 at Mon Aug 25 14:24:57 2025, MaxMem=  4294967296 cpu:               1.0 elap:               0.1
 (Enter /opt/apps/Gaussian/G16C/g16/l303.exe)
 DipDrv:  MaxL=1.
 Leave Link  303 at Mon Aug 25 14:24:57 2025, MaxMem=  4294967296 cpu:               0.1 elap:               0.0
 (Enter /opt/apps/Gaussian/G16C/g16/l401.exe)
 Initial guess from the checkpoint file:  "THF-dzpop.chk"
 B after Tr=    -0.000736   -0.000392   -0.005319
         Rot=    1.000000   -0.000835    0.000025    0.000207 Ang=  -0.10 deg.
 Guess basis will be translated and rotated to current coordinates.
 JPrj=2 DoOrth=T DoCkMO=T.
 Generating alternative initial guess.
 ExpMin= 4.38D-02 ExpMax= 5.48D+03 ExpMxC= 8.25D+02 IAcc=3 IRadAn=         5 AccDes= 0.00D+00
 Harris functional with IExCor= 4639 and IRadAn=       5 diagonalized for initial guess.
 HarFok:  IExCor= 4639 AccDes= 0.00D+00 IRadAn=         5 IDoV= 1 UseB2=F ITyADJ=14
 ICtDFT=  3500011 ScaDFX=  1.000000  1.000000  1.000000  1.000000
 FoFCou: FMM=F IPFlag=           0 FMFlag=      100000 FMFlg1=           0
         NFxFlg=           0 DoJE=T BraDBF=F KetDBF=T FulRan=T
         wScrn=  0.000000 ICntrl=       500 IOpCl=  0 I1Cent=   200000004 NGrid=           0
         NMat0=    1 NMatS0=      1 NMatT0=    0 NMatD0=    1 NMtDS0=    0 NMtDT0=    0
 Symmetry not used in FoFCou.
 Harris En= -222.058291087417    
 Leave Link  401 at Mon Aug 25 14:24:57 2025, MaxMem=  4294967296 cpu:               3.3 elap:               0.2
 (Enter /opt/apps/Gaussian/G16C/g16/l502.exe)
 Two-electron integral symmetry not used.
 Closed shell SCF:
 Using DIIS extrapolation, IDIIS=  1040.
 NGot=  4294967296 LenX=  4294939455 LenY=  4294926693
 Requested convergence on RMS density matrix=1.00D-08 within 128 cycles.
 Requested convergence on MAX density matrix=1.00D-06.
 Requested convergence on             energy=1.00D-06.
 No special actions if energy rises.
 Fock matrices will be formed incrementally for  20 cycles.

 Cycle   1  Pass 1  IDiag  1:
 FoFJK:  IHMeth= 1 ICntrl=       0 DoSepK=T KAlg= 0 I1Cent=           0 FoldK=F
 IRaf=         1 NMat=       1 IRICut=       1 DoRegI=T DoRafI=F ISym2E= 0 IDoP0=0 IntGTp=1.
 FoFCou: FMM=F IPFlag=           0 FMFlag=      100000 FMFlg1=           0
         NFxFlg=           0 DoJE=T BraDBF=F KetDBF=F FulRan=T
         wScrn=  0.000000 ICntrl=       500 IOpCl=  0 I1Cent=           0 NGrid=           0
         NMat0=    1 NMatS0=      1 NMatT0=    0 NMatD0=    1 NMtDS0=    0 NMtDT0=    0
 Symmetry not used in FoFCou.
 Inv3:  Mode=1 IEnd=     2898867.
 Iteration    1 A*A^-1 deviation from unit magnitude is 6.00D-15 for    977.
 Iteration    1 A*A^-1 deviation from orthogonality  is 2.02D-15 for    977    870.
 Iteration    1 A^-1*A deviation from unit magnitude is 5.77D-15 for    977.
 Iteration    1 A^-1*A deviation from orthogonality  is 1.67D-15 for    977    870.
 E= -232.392881669962    
 DIIS: error= 1.08D-03 at cycle   1 NSaved=   1.
 NSaved= 1 IEnMin= 1 EnMin= -232.392881669962     IErMin= 1 ErrMin= 1.08D-03
 ErrMax= 1.08D-03  0.00D+00 EMaxC= 1.00D-01 BMatC= 1.22D-04 BMatP= 1.22D-04
 IDIUse=3 WtCom= 9.89D-01 WtEn= 1.08D-02
 Coeff-Com:  0.100D+01
 Coeff-En:   0.100D+01
 Coeff:      0.100D+01
 Gap=     0.831 Goal=   None    Shift=    0.000
 GapD=    0.831 DampG=2.000 DampE=1.000 DampFc=2.0000 IDamp=-1.
 RMSDP=2.48D-04 MaxDP=4.81D-03              OVMax= 3.07D-03

 Cycle   2  Pass 1  IDiag  1:
 RMSU=  2.48D-04    CP:  1.00D+00
 E= -232.393089777243     Delta-E=       -0.000208107281 Rises=F Damp=F
 DIIS: error= 1.69D-04 at cycle   2 NSaved=   2.
 NSaved= 2 IEnMin= 2 EnMin= -232.393089777243     IErMin= 2 ErrMin= 1.69D-04
 ErrMax= 1.69D-04  0.00D+00 EMaxC= 1.00D-01 BMatC= 4.82D-06 BMatP= 1.22D-04
 IDIUse=3 WtCom= 9.98D-01 WtEn= 1.69D-03
 Coeff-Com: -0.189D+00 0.119D+01
 Coeff-En:   0.000D+00 0.100D+01
 Coeff:     -0.188D+00 0.119D+01
 Gap=     0.418 Goal=   None    Shift=    0.000
 RMSDP=6.36D-05 MaxDP=9.17D-04 DE=-2.08D-04 OVMax= 1.06D-03

 Cycle   3  Pass 1  IDiag  1:
 RMSU=  4.17D-05    CP:  1.00D+00  1.19D+00
 E= -232.393102675149     Delta-E=       -0.000012897906 Rises=F Damp=F
 DIIS: error= 2.85D-05 at cycle   3 NSaved=   3.
 NSaved= 3 IEnMin= 3 EnMin= -232.393102675149     IErMin= 3 ErrMin= 2.85D-05
 ErrMax= 2.85D-05  0.00D+00 EMaxC= 1.00D-01 BMatC= 1.20D-07 BMatP= 4.82D-06
 IDIUse=1 WtCom= 1.00D+00 WtEn= 0.00D+00
 Coeff-Com: -0.102D-02-0.794D-01 0.108D+01
 Coeff:     -0.102D-02-0.794D-01 0.108D+01
 Gap=     0.418 Goal=   None    Shift=    0.000
 RMSDP=1.37D-05 MaxDP=1.74D-04 DE=-1.29D-05 OVMax= 2.14D-04

 Cycle   4  Pass 1  IDiag  1:
 RMSU=  8.78D-06    CP:  1.00D+00  1.21D+00  1.24D+00
 E= -232.393102993942     Delta-E=       -0.000000318793 Rises=F Damp=F
 DIIS: error= 9.18D-06 at cycle   4 NSaved=   4.
 NSaved= 4 IEnMin= 4 EnMin= -232.393102993942     IErMin= 4 ErrMin= 9.18D-06
 ErrMax= 9.18D-06  0.00D+00 EMaxC= 1.00D-01 BMatC= 3.52D-08 BMatP= 1.20D-07
 IDIUse=1 WtCom= 1.00D+00 WtEn= 0.00D+00
 Coeff-Com:  0.866D-02-0.871D-01 0.395D+00 0.684D+00
 Coeff:      0.866D-02-0.871D-01 0.395D+00 0.684D+00
 Gap=     0.418 Goal=   None    Shift=    0.000
 RMSDP=3.23D-06 MaxDP=4.64D-05 DE=-3.19D-07 OVMax= 5.56D-05

 Cycle   5  Pass 1  IDiag  1:
 RMSU=  2.59D-06    CP:  1.00D+00  1.21D+00  1.27D+00  1.13D+00
 E= -232.393103035513     Delta-E=       -0.000000041571 Rises=F Damp=F
 DIIS: error= 2.35D-06 at cycle   5 NSaved=   5.
 NSaved= 5 IEnMin= 5 EnMin= -232.393103035513     IErMin= 5 ErrMin= 2.35D-06
 ErrMax= 2.35D-06  0.00D+00 EMaxC= 1.00D-01 BMatC= 1.51D-09 BMatP= 3.52D-08
 IDIUse=1 WtCom= 1.00D+00 WtEn= 0.00D+00
 Coeff-Com:  0.126D-02-0.436D-02-0.570D-01 0.951D-01 0.965D+00
 Coeff:      0.126D-02-0.436D-02-0.570D-01 0.951D-01 0.965D+00
 Gap=     0.418 Goal=   None    Shift=    0.000
 RMSDP=1.96D-06 MaxDP=2.81D-05 DE=-4.16D-08 OVMax= 2.49D-05

 Cycle   6  Pass 1  IDiag  1:
 RMSU=  5.34D-07    CP:  1.00D+00  1.21D+00  1.28D+00  1.32D+00  1.26D+00
 E= -232.393103038502     Delta-E=       -0.000000002989 Rises=F Damp=F
 DIIS: error= 1.14D-06 at cycle   6 NSaved=   6.
 NSaved= 6 IEnMin= 6 EnMin= -232.393103038502     IErMin= 6 ErrMin= 1.14D-06
 ErrMax= 1.14D-06  0.00D+00 EMaxC= 1.00D-01 BMatC= 2.56D-10 BMatP= 1.51D-09
 IDIUse=1 WtCom= 1.00D+00 WtEn= 0.00D+00
 Coeff-Com:  0.198D-04 0.299D-02-0.430D-01 0.144D-02 0.372D+00 0.667D+00
 Coeff:      0.198D-04 0.299D-02-0.430D-01 0.144D-02 0.372D+00 0.667D+00
 Gap=     0.418 Goal=   None    Shift=    0.000
 RMSDP=4.23D-07 MaxDP=8.53D-06 DE=-2.99D-09 OVMax= 7.05D-06

 Cycle   7  Pass 1  IDiag  1:
 RMSU=  1.95D-07    CP:  1.00D+00  1.21D+00  1.28D+00  1.36D+00  1.34D+00
                    CP:  1.12D+00
 E= -232.393103038758     Delta-E=       -0.000000000257 Rises=F Damp=F
 DIIS: error= 4.61D-07 at cycle   7 NSaved=   7.
 NSaved= 7 IEnMin= 7 EnMin= -232.393103038758     IErMin= 7 ErrMin= 4.61D-07
 ErrMax= 4.61D-07  0.00D+00 EMaxC= 1.00D-01 BMatC= 4.19D-11 BMatP= 2.56D-10
 IDIUse=1 WtCom= 1.00D+00 WtEn= 0.00D+00
 Coeff-Com: -0.259D-03 0.221D-02-0.612D-02-0.191D-01-0.468D-01 0.271D+00
 Coeff-Com:  0.799D+00
 Coeff:     -0.259D-03 0.221D-02-0.612D-02-0.191D-01-0.468D-01 0.271D+00
 Coeff:      0.799D+00
 Gap=     0.418 Goal=   None    Shift=    0.000
 RMSDP=2.32D-07 MaxDP=5.38D-06 DE=-2.57D-10 OVMax= 3.52D-06

 Cycle   8  Pass 1  IDiag  1:
 RMSU=  7.53D-08    CP:  1.00D+00  1.21D+00  1.28D+00  1.38D+00  1.38D+00
                    CP:  1.29D+00  1.24D+00
 E= -232.393103038815     Delta-E=       -0.000000000057 Rises=F Damp=F
 DIIS: error= 9.07D-08 at cycle   8 NSaved=   8.
 NSaved= 8 IEnMin= 8 EnMin= -232.393103038815     IErMin= 8 ErrMin= 9.07D-08
 ErrMax= 9.07D-08  0.00D+00 EMaxC= 1.00D-01 BMatC= 8.31D-13 BMatP= 4.19D-11
 IDIUse=1 WtCom= 1.00D+00 WtEn= 0.00D+00
 Coeff-Com:  0.245D-05-0.256D-03 0.345D-02 0.461D-03-0.270D-01-0.596D-01
 Coeff-Com: -0.407D-01 0.112D+01
 Coeff:      0.245D-05-0.256D-03 0.345D-02 0.461D-03-0.270D-01-0.596D-01
 Coeff:     -0.407D-01 0.112D+01
 Gap=     0.418 Goal=   None    Shift=    0.000
 RMSDP=7.19D-08 MaxDP=1.76D-06 DE=-5.68D-11 OVMax= 1.39D-06

 Cycle   9  Pass 1  IDiag  1:
 RMSU=  1.79D-08    CP:  1.00D+00  1.21D+00  1.28D+00  1.38D+00  1.39D+00
                    CP:  1.35D+00  1.43D+00  1.41D+00
 E= -232.393103038822     Delta-E=       -0.000000000007 Rises=F Damp=F
 DIIS: error= 1.43D-08 at cycle   9 NSaved=   9.
 NSaved= 9 IEnMin= 9 EnMin= -232.393103038822     IErMin= 9 ErrMin= 1.43D-08
 ErrMax= 1.43D-08  0.00D+00 EMaxC= 1.00D-01 BMatC= 4.53D-14 BMatP= 8.31D-13
 IDIUse=1 WtCom= 1.00D+00 WtEn= 0.00D+00
 Coeff-Com:  0.128D-04-0.137D-03 0.631D-03 0.101D-02-0.173D-03-0.183D-01
 Coeff-Com: -0.427D-01 0.101D+00 0.959D+00
 Coeff:      0.128D-04-0.137D-03 0.631D-03 0.101D-02-0.173D-03-0.183D-01
 Coeff:     -0.427D-01 0.101D+00 0.959D+00
 Gap=     0.418 Goal=   None    Shift=    0.000
 RMSDP=1.38D-08 MaxDP=2.00D-07 DE=-6.88D-12 OVMax= 2.61D-07

 Cycle  10  Pass 1  IDiag  1:
 RMSU=  3.38D-09    CP:  1.00D+00  1.21D+00  1.28D+00  1.38D+00  1.39D+00
                    CP:  1.35D+00  1.47D+00  1.53D+00  1.23D+00
 E= -232.393103038825     Delta-E=       -0.000000000003 Rises=F Damp=F
 DIIS: error= 4.81D-09 at cycle  10 NSaved=  10.
 NSaved=10 IEnMin=10 EnMin= -232.393103038825     IErMin=10 ErrMin= 4.81D-09
 ErrMax= 4.81D-09  0.00D+00 EMaxC= 1.00D-01 BMatC= 8.26D-15 BMatP= 4.53D-14
 IDIUse=1 WtCom= 1.00D+00 WtEn= 0.00D+00
 Coeff-Com:  0.332D-05-0.202D-04-0.667D-04 0.246D-03 0.188D-02-0.772D-03
 Coeff-Com: -0.893D-02-0.536D-01 0.279D+00 0.782D+00
 Coeff:      0.332D-05-0.202D-04-0.667D-04 0.246D-03 0.188D-02-0.772D-03
 Coeff:     -0.893D-02-0.536D-01 0.279D+00 0.782D+00
 Gap=     0.418 Goal=   None    Shift=    0.000
 RMSDP=4.11D-09 MaxDP=7.03D-08 DE=-2.67D-12 OVMax= 5.76D-08

 Error on total polarization charges =  0.02887
 SCF Done:  E(RwB97XD) =  -232.393103039     A.U. after   10 cycles
            NFock= 10  Conv=0.41D-08     -V/T= 2.0094
 KE= 2.302273084134D+02 PE=-9.217857988113D+02 EE= 2.686033420420D+02
 SMD-CDS (non-electrostatic) energy       (kcal/mol) =      -1.61
 (included in total energy above)
 Leave Link  502 at Mon Aug 25 14:25:02 2025, MaxMem=  4294967296 cpu:              73.1 elap:               5.3
 (Enter /opt/apps/Gaussian/G16C/g16/l701.exe)
 ... and contract with generalized density number  0.
 Compute integral first derivatives.
 R6Disp: Adding Grimme-D2 dispersion energy 1st derivatives to the gradient.
 D1PCM: PCM CHGder 1st derivatives, ID1Alg=3 FixD1E=F DoIter=F DoCFld=F I1PDM=0.
 GePol: Maximum number of non-zero 1st derivatives   =     311
 Leave Link  701 at Mon Aug 25 14:25:03 2025, MaxMem=  4294967296 cpu:               3.8 elap:               0.3
 (Enter /opt/apps/Gaussian/G16C/g16/l702.exe)
 L702 exits ... SP integral derivatives will be done elsewhere.
 Leave Link  702 at Mon Aug 25 14:25:03 2025, MaxMem=  4294967296 cpu:               0.0 elap:               0.0
 (Enter /opt/apps/Gaussian/G16C/g16/l703.exe)
 Integral derivatives from FoFJK, PRISM(SPDF).
 Compute integral first derivatives, UseDBF=F ICtDFT=           0.
 Calling FoFJK, ICntrl=      2127 FMM=F ISym2X=0 I1Cent= 0 IOpClX= 0 NMat=1 NMatS=1 NMatT=0.
 FoFJK:  IHMeth= 1 ICntrl=    2127 DoSepK=T KAlg= 0 I1Cent=           0 FoldK=F
 IRaf=         1 NMat=       1 IRICut=       1 DoRegI=T DoRafI=F ISym2E= 0 IDoP0=0 IntGTp=1.
 FoFCou: FMM=F IPFlag=           0 FMFlag=      100000 FMFlg1=         800
         NFxFlg=           0 DoJE=F BraDBF=F KetDBF=F FulRan=T
         wScrn=  0.000000 ICntrl=      2527 IOpCl=  0 I1Cent=           0 NGrid=           0
         NMat0=    1 NMatS0=      1 NMatT0=    0 NMatD0=    1 NMtDS0=    0 NMtDT0=    0
 Symmetry not used in FoFCou.
 Leave Link  703 at Mon Aug 25 14:25:03 2025, MaxMem=  4294967296 cpu:               9.9 elap:               0.7
 (Enter /opt/apps/Gaussian/G16C/g16/l716.exe)
 Dipole        = 7.37044942D-02 8.53518748D-01 1.88468322D-01
 -------------------------------------------------------------------
 Center     Atomic                   Forces (Hartrees/Bohr)
 Number     Number              X              Y              Z
 -------------------------------------------------------------------
      1        6           0.000491659   -0.000719080   -0.000097536
      2        8          -0.000345066   -0.000169738    0.000204214
      3        6           0.000244777   -0.000175778    0.000240856
      4        6           0.000010112    0.000202497   -0.000001504
      5        6          -0.000566714    0.000410895   -0.000718405
      6        1           0.000092587    0.000078611    0.000149098
      7        1          -0.000156281    0.000134165   -0.000076231
      8        1          -0.000332530    0.000009206   -0.000192230
      9        1           0.000046906    0.000284885    0.000082011
     10        1          -0.000109199   -0.000020144   -0.000058613
     11        1           0.000003930   -0.000018499    0.000152683
     12        1           0.000321026   -0.000064241   -0.000013956
     13        1           0.000298794    0.000047221    0.000329613
 -------------------------------------------------------------------
 Cartesian Forces:  Max     0.000719080 RMS     0.000269083
 Leave Link  716 at Mon Aug 25 14:25:03 2025, MaxMem=  4294967296 cpu:               0.0 elap:               0.0
 (Enter /opt/apps/Gaussian/G16C/g16/l103.exe)

 GradGradGradGradGradGradGradGradGradGradGradGradGradGradGradGradGradGrad
 Berny optimization.
 Using GEDIIS/GDIIS optimizer.
 FormGI is forming the generalized inverse of G from B-inverse, IUseBI=4.
 Internal  Forces:  Max     0.000481117 RMS     0.000141259
 Search for a local minimum.
 Step number  10 out of a maximum of   81
 All quantities printed in internal units (Hartrees-Bohrs-Radians)
 RMS Force = .14126D-03 SwitMx=.10000D-02 MixMth= 2
 Mixed Optimization -- En-DIIS/RFO-DIIS
 Swapping is turned off.
 Update second derivatives using D2CorX and points    4    5    6    7    8
                                                      9   10
 DE= -7.01D-06 DEPred=-4.06D-06 R= 1.73D+00
 TightC=F SS=  1.41D+00  RLast= 1.14D-01 DXNew= 2.2930D+00 3.4322D-01
 Trust test= 1.73D+00 RLast= 1.14D-01 DXMaxT set to 1.36D+00
 ITU=  1  1  1  1  1  1  1  1  1  0
     Eigenvalues ---    0.00010   0.00613   0.02735   0.03547   0.05013
     Eigenvalues ---    0.05239   0.05776   0.05898   0.06259   0.06612
     Eigenvalues ---    0.06962   0.07207   0.08128   0.09595   0.10917
     Eigenvalues ---    0.11231   0.12078   0.13674   0.21735   0.25995
     Eigenvalues ---    0.27075   0.28273   0.32050   0.34294   0.37150
     Eigenvalues ---    0.37193   0.37215   0.37231   0.37234   0.37320
     Eigenvalues ---    0.37447   0.39939   0.71770
 En-DIIS/RFO-DIIS/Sim-DIIS IScMMF=       -3 using points:    10    9    8    7    6    5    4
 RFO step:  Lambda=-2.54571209D-05.
 NNeg= 0 NGDIIS= 7 SimSw=  2.50D-01 Rises=F DC= -7.01D-06 SmlDif=  1.00D-05
 NRisDI= 0 DoIntr=F SqrtH=F CThrHd= 10.0 CDAdj=  3.0
 RMS Error=  0.4919820894D-01 NUsed= 7 OKEnD=F EnDIS=F
 InvSVX:  RCond= 4.16D-11 Info=           0 Equed=N FErr=  2.82D-06 BErr=  5.97D-17
 DIIS inversion failure, remove point   7.
 InvSVX:  RCond= 5.19D-11 Info=           0 Equed=N FErr=  2.29D-06 BErr=  5.55D-17
 DIIS inversion failure, remove point   6.
 InvSVX:  RCond= 1.01D-09 Info=           0 Equed=N FErr=  1.33D-07 BErr=  9.92D-17
 DIIS inversion failure, remove point   5.
 InvSVX:  RCond= 2.02D-09 Info=           0 Equed=N FErr=  7.81D-08 BErr=  7.50D-17
 DIIS inversion failure, remove point   4.
 InvSVX:  RCond= 9.26D-06 Info=           0 Equed=N FErr=  8.38D-12 BErr=  3.23D-17
 Old DIIS coefficients:      3.43220     -0.63462     -1.79757      0.00000      0.00000
 Old DIIS coefficients:      0.00000      0.00000
 RFO-DIIS uses    3 points instead of    7
 DidBck=F Rises=F RFO-DIIS coefs:    3.00000   -0.52185   -1.47815    0.00000    0.00000
                  RFO-DIIS coefs:    0.00000    0.00000
 Iteration  1 RMS(Cart)=  0.04587620 RMS(Int)=  0.00106670
 Iteration  2 RMS(Cart)=  0.00118995 RMS(Int)=  0.00037965
 Iteration  3 RMS(Cart)=  0.00000018 RMS(Int)=  0.00037965
 ITry= 1 IFail=0 DXMaxC= 1.54D-01 DCOld= 1.00D+10 DXMaxT= 1.36D+00 DXLimC= 3.00D+00 Rises=F
 Variable       Old X    -DE/DX   Delta X   Delta X   Delta X     New X
                                 (Linear)    (Quad)   (Total)
    R1        2.68611  -0.00027   0.00181  -0.00031   0.00178   2.68789
    R2        2.88870   0.00048   0.00027   0.00153   0.00192   2.89062
    R3        2.06536  -0.00011  -0.00001  -0.00022  -0.00023   2.06513
    R4        2.08361  -0.00014   0.00017  -0.00031  -0.00014   2.08347
    R5        2.68975   0.00020  -0.00385  -0.00017  -0.00394   2.68581
    R6        2.91608   0.00005  -0.00401  -0.00065  -0.00490   2.91118
    R7        2.08122  -0.00037   0.00303  -0.00043   0.00261   2.08383
    R8        2.06569  -0.00015   0.00011  -0.00032  -0.00021   2.06548
    R9        2.92175  -0.00030   0.00413   0.00006   0.00397   2.92573
   R10        2.06775  -0.00011  -0.00005  -0.00024  -0.00029   2.06746
   R11        2.06706  -0.00015   0.00057  -0.00024   0.00034   2.06740
   R12        2.06740  -0.00010   0.00011  -0.00023  -0.00012   2.06728
   R13        2.06993  -0.00044   0.00182  -0.00079   0.00103   2.07096
    A1        1.82934   0.00011   0.00237   0.00101   0.00280   1.83214
    A2        1.88268  -0.00001  -0.00153   0.00079  -0.00052   1.88216
    A3        1.91639   0.00009  -0.00340  -0.00013  -0.00337   1.91302
    A4        1.99374   0.00000  -0.00184   0.00008  -0.00147   1.99226
    A5        1.93878  -0.00015   0.00271  -0.00104   0.00163   1.94041
    A6        1.90031  -0.00002   0.00138  -0.00060   0.00073   1.90103
    A7        1.84792  -0.00027  -0.00450  -0.00212  -0.00746   1.84045
    A8        1.85728   0.00021  -0.00481  -0.00037  -0.00649   1.85079
    A9        1.91062  -0.00013   0.00136  -0.00040   0.00135   1.91197
   A10        1.87592   0.00011  -0.00055   0.00165   0.00158   1.87751
   A11        1.93436  -0.00001  -0.00050  -0.00042  -0.00071   1.93365
   A12        1.98884  -0.00025   0.00464  -0.00058   0.00441   1.99325
   A13        1.89472   0.00007  -0.00023   0.00017  -0.00020   1.89453
   A14        1.80908  -0.00007  -0.00088  -0.00046  -0.00298   1.80609
   A15        1.93370   0.00003   0.00335   0.00075   0.00458   1.93828
   A16        1.94519   0.00006  -0.00486  -0.00057  -0.00500   1.94020
   A17        1.95366  -0.00004   0.00699   0.00082   0.00829   1.96195
   A18        1.94192   0.00005  -0.00475  -0.00058  -0.00491   1.93701
   A19        1.88108  -0.00002   0.00015   0.00003  -0.00007   1.88101
   A20        1.79663  -0.00005   0.00506   0.00066   0.00448   1.80111
   A21        1.95928   0.00004  -0.00202  -0.00112  -0.00278   1.95650
   A22        1.91714   0.00004   0.00026   0.00134   0.00196   1.91910
   A23        1.97372  -0.00020   0.00403  -0.00162   0.00282   1.97654
   A24        1.93060   0.00013  -0.00275   0.00062  -0.00183   1.92877
   A25        1.88582   0.00004  -0.00428   0.00022  -0.00428   1.88154
    D1        0.73285   0.00001   0.00252   0.00075   0.00290   0.73575
    D2        2.86383   0.00006   0.00087   0.00181   0.00244   2.86627
    D3       -1.35084   0.00008  -0.00028   0.00147   0.00112  -1.34972
    D4       -0.55475  -0.00015   0.04012   0.00787   0.04808  -0.50667
    D5       -2.68267   0.00010   0.03317   0.00999   0.04335  -2.63932
    D6        1.50192  -0.00001   0.03974   0.00953   0.04924   1.55116
    D7       -2.61156  -0.00022   0.04144   0.00620   0.04769  -2.56387
    D8        1.54370   0.00004   0.03449   0.00833   0.04296   1.58666
    D9       -0.55489  -0.00007   0.04106   0.00787   0.04885  -0.50604
   D10        1.51386  -0.00006   0.03884   0.00777   0.04655   1.56040
   D11       -0.61407   0.00019   0.03189   0.00989   0.04182  -0.57225
   D12       -2.71266   0.00008   0.03846   0.00943   0.04771  -2.66495
   D13       -0.60484  -0.00005  -0.04501  -0.00985  -0.05470  -0.65954
   D14        1.48650  -0.00001  -0.04765  -0.01078  -0.05854   1.42795
   D15       -2.74192   0.00007  -0.04750  -0.00986  -0.05714  -2.79907
   D16        0.23430   0.00001   0.06769   0.01454   0.08217   0.31647
   D17        2.33269  -0.00006   0.07710   0.01562   0.09256   2.42525
   D18       -1.85597  -0.00004   0.07631   0.01579   0.09221  -1.76376
   D19       -1.84156   0.00004   0.06921   0.01547   0.08479  -1.75677
   D20        0.25683  -0.00003   0.07863   0.01655   0.09518   0.35201
   D21        2.35135  -0.00000   0.07784   0.01672   0.09483   2.44618
   D22        2.29842   0.00014   0.06648   0.01600   0.08234   2.38075
   D23       -1.88638   0.00007   0.07590   0.01708   0.09272  -1.79366
   D24        0.20815   0.00010   0.07511   0.01725   0.09237   0.30052
   D25        0.18826   0.00001  -0.06277  -0.01331  -0.07607   0.11219
   D26        2.30640  -0.00008  -0.05986  -0.01509  -0.07505   2.23135
   D27       -1.85891  -0.00007  -0.06457  -0.01550  -0.07994  -1.93885
   D28       -1.89652   0.00003  -0.06975  -0.01434  -0.08396  -1.98047
   D29        0.22162  -0.00006  -0.06685  -0.01612  -0.08294   0.13868
   D30        2.33950  -0.00005  -0.07155  -0.01653  -0.08783   2.25166
   D31        2.28076   0.00006  -0.07146  -0.01454  -0.08614   2.19462
   D32       -1.88429  -0.00003  -0.06856  -0.01633  -0.08512  -1.96941
   D33        0.23359  -0.00002  -0.07326  -0.01674  -0.09002   0.14357
         Item               Value     Threshold  Converged?
 Maximum Force            0.000481     0.000015     NO 
 RMS     Force            0.000141     0.000010     NO 
 Maximum Displacement     0.153993     0.000060     NO 
 RMS     Displacement     0.045877     0.000040     NO 
 Predicted change in Energy=-1.201584D-05
 Lowest energy point so far.  Saving SCF results.
 GradGradGradGradGradGradGradGradGradGradGradGradGradGradGradGradGradGrad

 Leave Link  103 at Mon Aug 25 14:25:03 2025, MaxMem=  4294967296 cpu:               0.1 elap:               0.0
 (Enter /opt/apps/Gaussian/G16C/g16/l202.exe)
                          Input orientation:                          
 ---------------------------------------------------------------------
 Center     Atomic      Atomic             Coordinates (Angstroms)
 Number     Number       Type             X           Y           Z
 ---------------------------------------------------------------------
      1          6           0       -1.737444    0.304452    0.723455
      2          8           0       -0.937439   -0.441366   -0.185879
      3          6           0        0.154837    0.407097   -0.513064
      4          6           0       -0.425036    1.831376   -0.604773
      5          6           0       -1.773480    1.721248    0.147942
      6          1           0       -2.715729   -0.178950    0.782945
      7          1           0       -1.271223    0.292105    1.722480
      8          1           0        0.919576    0.346104    0.279041
      9          1           0        0.590291    0.039621   -1.445800
     10          1           0        0.249826    2.560747   -0.147033
     11          1           0       -0.580807    2.128142   -1.646187
     12          1           0       -1.896072    2.479063    0.927319
     13          1           0       -2.612249    1.820065   -0.550418
 ---------------------------------------------------------------------
                    Distance matrix (angstroms):
                    1          2          3          4          5
     1  C    0.000000
     2  O    1.422372   0.000000
     3  C    2.262796   1.421269   0.000000
     4  C    2.412074   2.367147   1.540530   0.000000
     5  C    1.529648   2.342499   2.425352   1.548228   0.000000
     6  H    1.092821   2.042009   3.203630   3.348798   2.214004
     7  H    1.102527   2.071527   2.654153   2.915732   2.184922
     8  H    2.694252   2.069967   1.102713   2.189781   3.026675
     9  H    3.192829   2.037819   1.093002   2.224545   3.309879
    10  H    3.130154   3.228590   2.186599   1.094051   2.210325
    11  H    3.206066   2.976921   2.187953   1.094020   2.192472
    12  H    2.189898   3.269112   3.251766   2.220530   1.093957
    13  H    2.164514   2.837596   3.107192   2.187918   1.095904
                    6          7          8          9         10
     6  H    0.000000
     7  H    1.786398   0.000000
     8  H    3.707431   2.624125   0.000000
     9  H    3.993100   3.683338   1.782537   0.000000
    10  H    4.143105   3.309895   2.352605   2.856360   0.000000
    11  H    3.972562   3.898157   3.022137   2.402821   1.767644
    12  H    2.785267   2.409461   3.591330   4.214804   2.401205
    13  H    2.405125   3.049439   3.915910   3.771996   2.983757
                   11         12         13
    11  H    0.000000
    12  H    2.911358   0.000000
    13  H    2.328600   1.769434   0.000000
 Symmetry turned off by external request.
 Stoichiometry    C4H8O
 Framework group  C1[X(C4H8O)]
 Deg. of freedom    33
 Full point group                 C1      NOp   1
 Rotational constants (GHZ):           7.1467661           6.9543316           4.0034894
 Leave Link  202 at Mon Aug 25 14:25:03 2025, MaxMem=  4294967296 cpu:               0.0 elap:               0.0
 (Enter /opt/apps/Gaussian/G16C/g16/l301.exe)
 Standard basis: 6-31+G(d) (6D, 7F)
 Ernie: Thresh=  0.10000D-02 Tol=  0.10000D-05 Strict=F.
   111 basis functions,   192 primitive gaussians,   111 cartesian basis functions
    20 alpha electrons       20 beta electrons
       nuclear repulsion energy       190.6236773203 Hartrees.
 IExCor= 4639 DFT=T Ex+Corr=wB97XD ExCW=0 ScaHFX=  1.000000
 ScaDFX=  1.000000  1.000000  1.000000  1.000000 ScalE2=  1.000000  1.000000
 IRadAn=      5 IRanWt=     -1 IRanGd=            0 ICorTp=0 IEmpDi=121
 HFx  wShort=  0.000000 wLong=  0.200000 cFull=  0.222036 cShort=  0.000000 cLong=  0.777964
 DFx  wShort=  0.000000 wLong=  0.200000 cFull=  0.000000 cShort=  0.000000 cLong=  1.000000
 NAtoms=   13 NActive=   13 NUniq=   13 SFac= 1.00D+00 NAtFMM=   60 NAOKFM=F Big=F
 Integral buffers will be    131072 words long.
 Raffenetti 2 integral format.
 Two-electron integral symmetry is turned off.
 R6Disp:  Grimme-D2 Dispersion energy=       -0.0056524238 Hartrees.
 Nuclear repulsion after empirical dispersion term =      190.6180248965 Hartrees.
 ------------------------------------------------------------------------------
 Polarizable Continuum Model (PCM)
 =================================
 Model                : PCM.
 Atomic radii         : SMD-Coulomb.
 Polarization charges : Total charges.
 Charge compensation  : None.
 Solution method      : On-the-fly selection.
 Cavity type          : VdW (van der Waals Surface) (Alpha=1.000).
 Cavity algorithm     : GePol (No added spheres)
                        Default sphere list used, NSphG=   13.
                        Lebedev-Laikov grids with approx.  5.0 points / Ang**2.
                        Smoothing algorithm: York/Karplus (Gamma=1.0000).
                        Polarization charges: spherical gaussians, with
                                              point-specific exponents (IZeta= 3).
                        Self-potential: point-specific (ISelfS= 7).
                        Self-field    : sphere-specific E.n sum rule (ISelfD= 2).
 1st derivatives      : Analytical E(r).r(x)/FMM algorithm (CHGder, D1EAlg=3).
                        Cavity 1st derivative terms included.
 Solvent              : TetraHydroFuran, Eps=   7.425700 Eps(inf)=   1.974025
 ------------------------------------------------------------------------------
 Spheres list:
 ISph  on   Nord     Re0    Alpha      Xe            Ye            Ze
    1   C      1    1.8500  1.000     -1.737444      0.304452      0.723455
    2   O      2    2.2940  1.000     -0.937439     -0.441366     -0.185879
    3   C      3    1.8500  1.000      0.154837      0.407097     -0.513064
    4   C      4    1.8500  1.000     -0.425036      1.831376     -0.604773
    5   C      5    1.8500  1.000     -1.773480      1.721248      0.147942
    6   H      6    1.2000  1.000     -2.715729     -0.178950      0.782945
    7   H      7    1.2000  1.000     -1.271223      0.292105      1.722480
    8   H      8    1.2000  1.000      0.919576      0.346104      0.279041
    9   H      9    1.2000  1.000      0.590291      0.039621     -1.445800
   10   H     10    1.2000  1.000      0.249826      2.560747     -0.147033
   11   H     11    1.2000  1.000     -0.580807      2.128142     -1.646187
   12   H     12    1.2000  1.000     -1.896072      2.479063      0.927319
   13   H     13    1.2000  1.000     -2.612249      1.820065     -0.550418
 ------------------------------------------------------------------------------
 GePol: Number of generator spheres                  =      13
 GePol: Total number of spheres                      =      13
 GePol: Number of exposed spheres                    =      13 (100.00%)
 GePol: Number of points                             =     983
 GePol: Average weight of points                     =       0.12
 GePol: Minimum weight of points                     =   0.14D-06
 GePol: Maximum weight of points                     =    0.17992
 GePol: Number of points with low weight             =      50
 GePol: Fraction of low-weight points (<1% of avg)   =       5.09%
 GePol: Cavity surface area                          =    115.583 Ang**2
 GePol: Cavity volume                                =     98.779 Ang**3
 ------------------------------------------------------------------------------
 Atomic radii for non-electrostatic terms: SMD-CDS.
 ------------------------------------------------------------------------------
 PCM non-electrostatic energy =        -0.0025692312 Hartrees.
 Nuclear repulsion after PCM non-electrostatic terms =      190.6154556653 Hartrees.
 Leave Link  301 at Mon Aug 25 14:25:04 2025, MaxMem=  4294967296 cpu:               0.1 elap:               0.0
 (Enter /opt/apps/Gaussian/G16C/g16/l302.exe)
 NPDir=0 NMtPBC=     1 NCelOv=     1 NCel=       1 NClECP=     1 NCelD=      1
         NCelK=      1 NCelE2=     1 NClLst=     1 CellRange=     0.0.
 One-electron integrals computed using PRISM.
 NBasis=   111 RedAO= T EigKep=  2.85D-05  NBF=   111
 NBsUse=   111 1.00D-06 EigRej= -1.00D+00 NBFU=   111
 Precomputing XC quadrature grid using
 IXCGrd= 4 IRadAn=           5 IRanWt=          -1 IRanGd=           0 AccXCQ= 0.00D+00.
 Generated NRdTot=       0 NPtTot=           0 NUsed=           0 NTot=          32
 NSgBfM=   111   111   111   111   111 MxSgAt=    13 MxSgA2=    13.
 Leave Link  302 at Mon Aug 25 14:25:04 2025, MaxMem=  4294967296 cpu:               1.0 elap:               0.1
 (Enter /opt/apps/Gaussian/G16C/g16/l303.exe)
 DipDrv:  MaxL=1.
 Leave Link  303 at Mon Aug 25 14:25:04 2025, MaxMem=  4294967296 cpu:               0.1 elap:               0.0
 (Enter /opt/apps/Gaussian/G16C/g16/l401.exe)
 Initial guess from the checkpoint file:  "THF-dzpop.chk"
 B after Tr=    -0.001109   -0.000479   -0.016898
         Rot=    0.999996   -0.002647    0.000175    0.000502 Ang=  -0.31 deg.
 Guess basis will be translated and rotated to current coordinates.
 JPrj=2 DoOrth=T DoCkMO=T.
 Generating alternative initial guess.
 ExpMin= 4.38D-02 ExpMax= 5.48D+03 ExpMxC= 8.25D+02 IAcc=3 IRadAn=         5 AccDes= 0.00D+00
 Harris functional with IExCor= 4639 and IRadAn=       5 diagonalized for initial guess.
 HarFok:  IExCor= 4639 AccDes= 0.00D+00 IRadAn=         5 IDoV= 1 UseB2=F ITyADJ=14
 ICtDFT=  3500011 ScaDFX=  1.000000  1.000000  1.000000  1.000000
 FoFCou: FMM=F IPFlag=           0 FMFlag=      100000 FMFlg1=           0
         NFxFlg=           0 DoJE=T BraDBF=F KetDBF=T FulRan=T
         wScrn=  0.000000 ICntrl=       500 IOpCl=  0 I1Cent=   200000004 NGrid=           0
         NMat0=    1 NMatS0=      1 NMatT0=    0 NMatD0=    1 NMtDS0=    0 NMtDT0=    0
 Symmetry not used in FoFCou.
 Harris En= -222.058208449900    
 Leave Link  401 at Mon Aug 25 14:25:04 2025, MaxMem=  4294967296 cpu:               3.3 elap:               0.3
 (Enter /opt/apps/Gaussian/G16C/g16/l502.exe)
 Two-electron integral symmetry not used.
 Closed shell SCF:
 Using DIIS extrapolation, IDIIS=  1040.
 NGot=  4294967296 LenX=  4294939455 LenY=  4294926693
 Requested convergence on RMS density matrix=1.00D-08 within 128 cycles.
 Requested convergence on MAX density matrix=1.00D-06.
 Requested convergence on             energy=1.00D-06.
 No special actions if energy rises.
 Fock matrices will be formed incrementally for  20 cycles.

 Cycle   1  Pass 1  IDiag  1:
 FoFJK:  IHMeth= 1 ICntrl=       0 DoSepK=T KAlg= 0 I1Cent=           0 FoldK=F
 IRaf=         1 NMat=       1 IRICut=       1 DoRegI=T DoRafI=F ISym2E= 0 IDoP0=0 IntGTp=1.
 FoFCou: FMM=F IPFlag=           0 FMFlag=      100000 FMFlg1=           0
         NFxFlg=           0 DoJE=T BraDBF=F KetDBF=F FulRan=T
         wScrn=  0.000000 ICntrl=       500 IOpCl=  0 I1Cent=           0 NGrid=           0
         NMat0=    1 NMatS0=      1 NMatT0=    0 NMatD0=    1 NMtDS0=    0 NMtDT0=    0
 Symmetry not used in FoFCou.
 Inv3:  Mode=1 IEnd=     2898867.
 Iteration    1 A*A^-1 deviation from unit magnitude is 3.33D-15 for    979.
 Iteration    1 A*A^-1 deviation from orthogonality  is 2.31D-15 for    981    881.
 Iteration    1 A^-1*A deviation from unit magnitude is 3.33D-15 for    979.
 Iteration    1 A^-1*A deviation from orthogonality  is 2.10D-14 for    409    361.
 E= -232.390359951665    
 DIIS: error= 3.91D-03 at cycle   1 NSaved=   1.
 NSaved= 1 IEnMin= 1 EnMin= -232.390359951665     IErMin= 1 ErrMin= 3.91D-03
 ErrMax= 3.91D-03  0.00D+00 EMaxC= 1.00D-01 BMatC= 1.53D-03 BMatP= 1.53D-03
 IDIUse=3 WtCom= 9.61D-01 WtEn= 3.91D-02
 Coeff-Com:  0.100D+01
 Coeff-En:   0.100D+01
 Coeff:      0.100D+01
 Gap=     0.833 Goal=   None    Shift=    0.000
 GapD=    0.833 DampG=2.000 DampE=1.000 DampFc=2.0000 IDamp=-1.
 RMSDP=8.97D-04 MaxDP=1.64D-02              OVMax= 1.11D-02

 Cycle   2  Pass 1  IDiag  1:
 RMSU=  8.95D-04    CP:  1.00D+00
 E= -232.392946172200     Delta-E=       -0.002586220535 Rises=F Damp=F
 DIIS: error= 6.08D-04 at cycle   2 NSaved=   2.
 NSaved= 2 IEnMin= 2 EnMin= -232.392946172200     IErMin= 2 ErrMin= 6.08D-04
 ErrMax= 6.08D-04  0.00D+00 EMaxC= 1.00D-01 BMatC= 5.98D-05 BMatP= 1.53D-03
 IDIUse=3 WtCom= 9.94D-01 WtEn= 6.08D-03
 Coeff-Com: -0.186D+00 0.119D+01
 Coeff-En:   0.000D+00 0.100D+01
 Coeff:     -0.185D+00 0.118D+01
 Gap=     0.419 Goal=   None    Shift=    0.000
 RMSDP=2.22D-04 MaxDP=2.96D-03 DE=-2.59D-03 OVMax= 3.90D-03

 Cycle   3  Pass 1  IDiag  1:
 RMSU=  1.48D-04    CP:  1.00D+00  1.18D+00
 E= -232.393105555029     Delta-E=       -0.000159382829 Rises=F Damp=F
 DIIS: error= 9.83D-05 at cycle   3 NSaved=   3.
 NSaved= 3 IEnMin= 3 EnMin= -232.393105555029     IErMin= 3 ErrMin= 9.83D-05
 ErrMax= 9.83D-05  0.00D+00 EMaxC= 1.00D-01 BMatC= 1.59D-06 BMatP= 5.98D-05
 IDIUse=1 WtCom= 1.00D+00 WtEn= 0.00D+00
 Coeff-Com: -0.317D-02-0.679D-01 0.107D+01
 Coeff:     -0.317D-02-0.679D-01 0.107D+01
 Gap=     0.419 Goal=   None    Shift=    0.000
 RMSDP=4.67D-05 MaxDP=5.29D-04 DE=-1.59D-04 OVMax= 8.33D-04

 Cycle   4  Pass 1  IDiag  1:
 RMSU=  3.08D-05    CP:  1.00D+00  1.19D+00  1.23D+00
 E= -232.393109584458     Delta-E=       -0.000004029429 Rises=F Damp=F
 DIIS: error= 3.46D-05 at cycle   4 NSaved=   4.
 NSaved= 4 IEnMin= 4 EnMin= -232.393109584458     IErMin= 4 ErrMin= 3.46D-05
 ErrMax= 3.46D-05  0.00D+00 EMaxC= 1.00D-01 BMatC= 4.96D-07 BMatP= 1.59D-06
 IDIUse=1 WtCom= 1.00D+00 WtEn= 0.00D+00
 Coeff-Com:  0.845D-02-0.883D-01 0.400D+00 0.679D+00
 Coeff:      0.845D-02-0.883D-01 0.400D+00 0.679D+00
 Gap=     0.419 Goal=   None    Shift=    0.000
 RMSDP=1.14D-05 MaxDP=1.52D-04 DE=-4.03D-06 OVMax= 2.21D-04

 Cycle   5  Pass 1  IDiag  1:
 RMSU=  9.59D-06    CP:  1.00D+00  1.20D+00  1.26D+00  1.06D+00
 E= -232.393110158614     Delta-E=       -0.000000574157 Rises=F Damp=F
 DIIS: error= 8.46D-06 at cycle   5 NSaved=   5.
 NSaved= 5 IEnMin= 5 EnMin= -232.393110158614     IErMin= 5 ErrMin= 8.46D-06
 ErrMax= 8.46D-06  0.00D+00 EMaxC= 1.00D-01 BMatC= 1.69D-08 BMatP= 4.96D-07
 IDIUse=1 WtCom= 1.00D+00 WtEn= 0.00D+00
 Coeff-Com:  0.120D-02-0.398D-02-0.562D-01 0.763D-01 0.983D+00
 Coeff:      0.120D-02-0.398D-02-0.562D-01 0.763D-01 0.983D+00
 Gap=     0.419 Goal=   None    Shift=    0.000
 RMSDP=6.21D-06 MaxDP=9.00D-05 DE=-5.74D-07 OVMax= 9.48D-05

 Cycle   6  Pass 1  IDiag  1:
 RMSU=  1.91D-06    CP:  1.00D+00  1.20D+00  1.27D+00  1.23D+00  1.27D+00
 E= -232.393110193877     Delta-E=       -0.000000035262 Rises=F Damp=F
 DIIS: error= 3.78D-06 at cycle   6 NSaved=   6.
 NSaved= 6 IEnMin= 6 EnMin= -232.393110193877     IErMin= 6 ErrMin= 3.78D-06
 ErrMax= 3.78D-06  0.00D+00 EMaxC= 1.00D-01 BMatC= 2.93D-09 BMatP= 1.69D-08
 IDIUse=1 WtCom= 1.00D+00 WtEn= 0.00D+00
 Coeff-Com:  0.260D-04 0.298D-02-0.416D-01-0.553D-02 0.371D+00 0.673D+00
 Coeff:      0.260D-04 0.298D-02-0.416D-01-0.553D-02 0.371D+00 0.673D+00
 Gap=     0.419 Goal=   None    Shift=    0.000
 RMSDP=1.30D-06 MaxDP=2.28D-05 DE=-3.53D-08 OVMax= 2.05D-05

 Cycle   7  Pass 1  IDiag  1:
 RMSU=  5.78D-07    CP:  1.00D+00  1.20D+00  1.27D+00  1.26D+00  1.33D+00
                    CP:  1.16D+00
 E= -232.393110196764     Delta-E=       -0.000000002887 Rises=F Damp=F
 DIIS: error= 1.52D-06 at cycle   7 NSaved=   7.
 NSaved= 7 IEnMin= 7 EnMin= -232.393110196764     IErMin= 7 ErrMin= 1.52D-06
 ErrMax= 1.52D-06  0.00D+00 EMaxC= 1.00D-01 BMatC= 4.89D-10 BMatP= 2.93D-09
 IDIUse=1 WtCom= 1.00D+00 WtEn= 0.00D+00
 Coeff-Com: -0.239D-03 0.216D-02-0.660D-02-0.175D-01-0.386D-01 0.280D+00
 Coeff-Com:  0.781D+00
 Coeff:     -0.239D-03 0.216D-02-0.660D-02-0.175D-01-0.386D-01 0.280D+00
 Coeff:      0.781D+00
 Gap=     0.419 Goal=   None    Shift=    0.000
 RMSDP=7.33D-07 MaxDP=1.64D-05 DE=-2.89D-09 OVMax= 1.13D-05

 Cycle   8  Pass 1  IDiag  1:
 RMSU=  2.65D-07    CP:  1.00D+00  1.20D+00  1.27D+00  1.27D+00  1.37D+00
                    CP:  1.34D+00  1.14D+00
 E= -232.393110197390     Delta-E=       -0.000000000627 Rises=F Damp=F
 DIIS: error= 2.90D-07 at cycle   8 NSaved=   8.
 NSaved= 8 IEnMin= 8 EnMin= -232.393110197390     IErMin= 8 ErrMin= 2.90D-07
 ErrMax= 2.90D-07  0.00D+00 EMaxC= 1.00D-01 BMatC= 1.06D-11 BMatP= 4.89D-10
 IDIUse=1 WtCom= 1.00D+00 WtEn= 0.00D+00
 Coeff-Com: -0.533D-06-0.238D-03 0.331D-02 0.685D-03-0.272D-01-0.629D-01
 Coeff-Com: -0.269D-01 0.111D+01
 Coeff:     -0.533D-06-0.238D-03 0.331D-02 0.685D-03-0.272D-01-0.629D-01
 Coeff:     -0.269D-01 0.111D+01
 Gap=     0.419 Goal=   None    Shift=    0.000
 RMSDP=2.39D-07 MaxDP=5.71D-06 DE=-6.27D-10 OVMax= 4.13D-06

 Cycle   9  Pass 1  IDiag  1:
 RMSU=  6.16D-08    CP:  1.00D+00  1.20D+00  1.27D+00  1.27D+00  1.38D+00
                    CP:  1.41D+00  1.31D+00  1.38D+00
 E= -232.393110197435     Delta-E=       -0.000000000044 Rises=F Damp=F
 DIIS: error= 4.84D-08 at cycle   9 NSaved=   9.
 NSaved= 9 IEnMin= 9 EnMin= -232.393110197435     IErMin= 9 ErrMin= 4.84D-08
 ErrMax= 4.84D-08  0.00D+00 EMaxC= 1.00D-01 BMatC= 6.15D-13 BMatP= 1.06D-11
 IDIUse=1 WtCom= 1.00D+00 WtEn= 0.00D+00
 Coeff-Com:  0.120D-04-0.142D-03 0.730D-03 0.998D-03-0.115D-02-0.214D-01
 Coeff-Com: -0.417D-01 0.129D+00 0.934D+00
 Coeff:      0.120D-04-0.142D-03 0.730D-03 0.998D-03-0.115D-02-0.214D-01
 Coeff:     -0.417D-01 0.129D+00 0.934D+00
 Gap=     0.419 Goal=   None    Shift=    0.000
 RMSDP=4.29D-08 MaxDP=7.21D-07 DE=-4.44D-11 OVMax= 8.25D-07

 Cycle  10  Pass 1  IDiag  1:
 RMSU=  1.19D-08    CP:  1.00D+00  1.20D+00  1.27D+00  1.27D+00  1.38D+00
                    CP:  1.42D+00  1.34D+00  1.48D+00  1.21D+00
 E= -232.393110197433     Delta-E=        0.000000000001 Rises=F Damp=F
 DIIS: error= 1.93D-08 at cycle  10 NSaved=  10.
 NSaved=10 IEnMin= 9 EnMin= -232.393110197435     IErMin=10 ErrMin= 1.93D-08
 ErrMax= 1.93D-08  0.00D+00 EMaxC= 1.00D-01 BMatC= 1.19D-13 BMatP= 6.15D-13
 IDIUse=1 WtCom= 1.00D+00 WtEn= 0.00D+00
 Coeff-Com:  0.352D-05-0.235D-04-0.440D-04 0.246D-03 0.185D-02-0.138D-02
 Coeff-Com: -0.104D-01-0.521D-01 0.291D+00 0.771D+00
 Coeff:      0.352D-05-0.235D-04-0.440D-04 0.246D-03 0.185D-02-0.138D-02
 Coeff:     -0.104D-01-0.521D-01 0.291D+00 0.771D+00
 Gap=     0.419 Goal=   None    Shift=    0.000
 RMSDP=1.33D-08 MaxDP=2.09D-07 DE= 1.39D-12 OVMax= 1.97D-07

 Cycle  11  Pass 1  IDiag  1:
 RMSU=  4.95D-09    CP:  1.00D+00  1.20D+00  1.27D+00  1.27D+00  1.38D+00
                    CP:  1.42D+00  1.35D+00  1.51D+00  1.31D+00  1.01D+00
 E= -232.393110197434     Delta-E=       -0.000000000000 Rises=F Damp=F
 DIIS: error= 5.26D-09 at cycle  11 NSaved=  11.
 NSaved=11 IEnMin= 9 EnMin= -232.393110197435     IErMin=11 ErrMin= 5.26D-09
 ErrMax= 5.26D-09  0.00D+00 EMaxC= 1.00D-01 BMatC= 5.93D-15 BMatP= 1.19D-13
 IDIUse=1 WtCom= 1.00D+00 WtEn= 0.00D+00
 Coeff-Com: -0.964D-06 0.137D-04-0.886D-04-0.903D-04 0.356D-03 0.237D-02
 Coeff-Com:  0.372D-02-0.221D-01-0.716D-01 0.944D-01 0.993D+00
 Coeff:     -0.964D-06 0.137D-04-0.886D-04-0.903D-04 0.356D-03 0.237D-02
 Coeff:      0.372D-02-0.221D-01-0.716D-01 0.944D-01 0.993D+00
 Gap=     0.419 Goal=   None    Shift=    0.000
 RMSDP=4.73D-09 MaxDP=6.20D-08 DE=-4.83D-13 OVMax= 8.89D-08

 Error on total polarization charges =  0.02886
 SCF Done:  E(RwB97XD) =  -232.393110197     A.U. after   11 cycles
            NFock= 11  Conv=0.47D-08     -V/T= 2.0094
 KE= 2.302280769871D+02 PE=-9.218907850928D+02 EE= 2.686541422429D+02
 SMD-CDS (non-electrostatic) energy       (kcal/mol) =      -1.61
 (included in total energy above)
 Leave Link  502 at Mon Aug 25 14:25:10 2025, MaxMem=  4294967296 cpu:              78.9 elap:               5.7
 (Enter /opt/apps/Gaussian/G16C/g16/l701.exe)
 ... and contract with generalized density number  0.
 Compute integral first derivatives.
 R6Disp: Adding Grimme-D2 dispersion energy 1st derivatives to the gradient.
 D1PCM: PCM CHGder 1st derivatives, ID1Alg=3 FixD1E=F DoIter=F DoCFld=F I1PDM=0.
 GePol: Maximum number of non-zero 1st derivatives   =     310
 Leave Link  701 at Mon Aug 25 14:25:10 2025, MaxMem=  4294967296 cpu:               3.6 elap:               0.3
 (Enter /opt/apps/Gaussian/G16C/g16/l702.exe)
 L702 exits ... SP integral derivatives will be done elsewhere.
 Leave Link  702 at Mon Aug 25 14:25:10 2025, MaxMem=  4294967296 cpu:               0.0 elap:               0.0
 (Enter /opt/apps/Gaussian/G16C/g16/l703.exe)
 Integral derivatives from FoFJK, PRISM(SPDF).
 Compute integral first derivatives, UseDBF=F ICtDFT=           0.
 Calling FoFJK, ICntrl=      2127 FMM=F ISym2X=0 I1Cent= 0 IOpClX= 0 NMat=1 NMatS=1 NMatT=0.
 FoFJK:  IHMeth= 1 ICntrl=    2127 DoSepK=T KAlg= 0 I1Cent=           0 FoldK=F
 IRaf=         1 NMat=       1 IRICut=       1 DoRegI=T DoRafI=F ISym2E= 0 IDoP0=0 IntGTp=1.
 FoFCou: FMM=F IPFlag=           0 FMFlag=      100000 FMFlg1=         800
         NFxFlg=           0 DoJE=F BraDBF=F KetDBF=F FulRan=T
         wScrn=  0.000000 ICntrl=      2527 IOpCl=  0 I1Cent=           0 NGrid=           0
         NMat0=    1 NMatS0=      1 NMatT0=    0 NMatD0=    1 NMtDS0=    0 NMtDT0=    0
 Symmetry not used in FoFCou.
 Leave Link  703 at Mon Aug 25 14:25:11 2025, MaxMem=  4294967296 cpu:               9.9 elap:               0.7
 (Enter /opt/apps/Gaussian/G16C/g16/l716.exe)
 Dipole        = 7.80463019D-02 8.42100589D-01 2.11055598D-01
 -------------------------------------------------------------------
 Center     Atomic                   Forces (Hartrees/Bohr)
 Number     Number              X              Y              Z
 -------------------------------------------------------------------
      1        6           0.000589560   -0.001543467   -0.000322359
      2        8          -0.000655256   -0.000477856    0.000961473
      3        6           0.000922298   -0.000096782    0.000234715
      4        6          -0.000077323    0.000310879    0.000050366
      5        6          -0.001137415    0.001146325   -0.001480219
      6        1           0.000091174    0.000041203    0.000278256
      7        1          -0.000304143    0.000233650   -0.000142345
      8        1          -0.000696832    0.000018288   -0.000502528
      9        1           0.000012211    0.000515689   -0.000032522
     10        1          -0.000162502   -0.000005023    0.000125273
     11        1           0.000043797   -0.000087902    0.000157192
     12        1           0.000695502   -0.000048460    0.000083547
     13        1           0.000678931   -0.000006544    0.000589152
 -------------------------------------------------------------------
 Cartesian Forces:  Max     0.001543467 RMS     0.000574523
 Leave Link  716 at Mon Aug 25 14:25:11 2025, MaxMem=  4294967296 cpu:               0.0 elap:               0.0
 (Enter /opt/apps/Gaussian/G16C/g16/l103.exe)

 GradGradGradGradGradGradGradGradGradGradGradGradGradGradGradGradGradGrad
 Berny optimization.
 Using GEDIIS/GDIIS optimizer.
 FormGI is forming the generalized inverse of G from B-inverse, IUseBI=4.
 Internal  Forces:  Max     0.001189525 RMS     0.000290056
 Search for a local minimum.
 Step number  11 out of a maximum of   81
 All quantities printed in internal units (Hartrees-Bohrs-Radians)
 RMS Force = .29006D-03 SwitMx=.10000D-02 MixMth= 2
 Mixed Optimization -- En-DIIS/RFO-DIIS
 Swapping is turned off.
 Update second derivatives using D2CorX and points    8    9   10   11
 DE= -7.16D-06 DEPred=-1.20D-05 R= 5.96D-01
 TightC=F SS=  1.41D+00  RLast= 4.06D-01 DXNew= 2.2930D+00 1.2172D+00
 Trust test= 5.96D-01 RLast= 4.06D-01 DXMaxT set to 1.36D+00
 ITU=  1  1  1  1  1  1  1  1  1  1  0
     Eigenvalues ---    0.00017   0.00733   0.02737   0.03570   0.05009
     Eigenvalues ---    0.05233   0.05764   0.05907   0.06321   0.06585
     Eigenvalues ---    0.06958   0.07237   0.08097   0.09654   0.10909
     Eigenvalues ---    0.11242   0.12114   0.13604   0.21639   0.25924
     Eigenvalues ---    0.27091   0.28258   0.32106   0.34204   0.37156
     Eigenvalues ---    0.37201   0.37215   0.37231   0.37234   0.37326
     Eigenvalues ---    0.37454   0.39772   0.71478
 En-DIIS/RFO-DIIS/Sim-DIIS IScMMF=       -3 using points:    11   10    9    8    7    6    5    4
 RFO step:  Lambda=-1.46565982D-05.
 NNeg= 0 NGDIIS= 8 SimSw=  2.50D-01 Rises=F DC= -7.16D-06 SmlDif=  1.00D-05
 NRisDI= 0 DoIntr=F SqrtH=F CThrHd= 10.0 CDAdj=  3.0
 RMS Error=  0.8772491226D-02 NUsed= 8 OKEnD=F EnDIS=F
 InvSVX:  RCond= 3.66D-11 Info=           0 Equed=N FErr=  1.43D-06 BErr=  1.61D-16
 DIIS inversion failure, remove point   8.
 InvSVX:  RCond= 4.27D-11 Info=           0 Equed=N FErr=  1.20D-06 BErr=  9.19D-17
 DIIS inversion failure, remove point   7.
 InvSVX:  RCond= 8.42D-10 Info=           0 Equed=N FErr=  6.05D-08 BErr=  8.11D-17
 DIIS inversion failure, remove point   6.
 InvSVX:  RCond= 1.41D-09 Info=           0 Equed=N FErr=  4.04D-08 BErr=  1.09D-16
 DIIS inversion failure, remove point   5.
 InvSVX:  RCond= 1.60D-07 Info=           0 Equed=N FErr=  2.18D-10 BErr=  1.29D-16
 DIIS inversion failure, remove point   4.
 InvSVX:  RCond= 7.46D-07 Info=           0 Equed=N FErr=  4.97D-11 BErr=  1.06D-16
 Old DIIS coefficients:      1.49636     -5.89731      5.40095      0.00000      0.00000
 Old DIIS coefficients:      0.00000      0.00000      0.00000
 RFO-DIIS uses    3 points instead of    8
 DidBck=T Rises=F RFO-DIIS coefs:    0.65085   -2.00000    2.34915    0.00000    0.00000
                  RFO-DIIS coefs:    0.00000    0.00000    0.00000
 Iteration  1 RMS(Cart)=  0.02793569 RMS(Int)=  0.00056185
 Iteration  2 RMS(Cart)=  0.00044502 RMS(Int)=  0.00041808
 Iteration  3 RMS(Cart)=  0.00000003 RMS(Int)=  0.00041808
 ITry= 1 IFail=0 DXMaxC= 9.53D-02 DCOld= 1.00D+10 DXMaxT= 1.36D+00 DXLimC= 3.00D+00 Rises=F
 Variable       Old X    -DE/DX   Delta X   Delta X   Delta X     New X
                                 (Linear)    (Quad)   (Total)
    R1        2.68789  -0.00050  -0.00206   0.00085  -0.00152   2.68637
    R2        2.89062   0.00119  -0.00116   0.00093  -0.00037   2.89024
    R3        2.06513  -0.00008   0.00042  -0.00046  -0.00004   2.06509
    R4        2.08347  -0.00026   0.00011  -0.00033  -0.00022   2.08325
    R5        2.68581   0.00077   0.00445  -0.00168   0.00268   2.68849
    R6        2.91118   0.00008   0.00499  -0.00257   0.00268   2.91386
    R7        2.08383  -0.00084  -0.00287   0.00062  -0.00225   2.08157
    R8        2.06548  -0.00014   0.00039  -0.00041  -0.00001   2.06546
    R9        2.92573  -0.00056  -0.00417   0.00079  -0.00313   2.92260
   R10        2.06746  -0.00005   0.00044  -0.00041   0.00003   2.06749
   R11        2.06740  -0.00018  -0.00022  -0.00023  -0.00045   2.06695
   R12        2.06728  -0.00005   0.00033  -0.00036  -0.00003   2.06725
   R13        2.07096  -0.00090  -0.00123  -0.00012  -0.00135   2.06961
    A1        1.83214   0.00013  -0.00278   0.00212  -0.00003   1.83211
    A2        1.88216   0.00002   0.00026   0.00056   0.00058   1.88274
    A3        1.91302   0.00014   0.00333  -0.00071   0.00245   1.91547
    A4        1.99226   0.00014   0.00191  -0.00109   0.00050   1.99277
    A5        1.94041  -0.00033  -0.00160  -0.00074  -0.00230   1.93811
    A6        1.90103  -0.00007  -0.00093  -0.00006  -0.00093   1.90011
    A7        1.84045  -0.00035   0.00802  -0.00333   0.00561   1.84607
    A8        1.85079   0.00029   0.00583  -0.00233   0.00495   1.85574
    A9        1.91197  -0.00025  -0.00102  -0.00024  -0.00173   1.91024
   A10        1.87751   0.00030  -0.00134   0.00144  -0.00041   1.87710
   A11        1.93365  -0.00005   0.00119  -0.00062   0.00034   1.93399
   A12        1.99325  -0.00046  -0.00478   0.00127  -0.00390   1.98935
   A13        1.89453   0.00018   0.00018   0.00044   0.00077   1.89529
   A14        1.80609   0.00000   0.00231  -0.00102   0.00310   1.80919
   A15        1.93828   0.00002  -0.00428   0.00207  -0.00276   1.93552
   A16        1.94020   0.00002   0.00524  -0.00264   0.00214   1.94233
   A17        1.96195  -0.00013  -0.00850   0.00277  -0.00623   1.95572
   A18        1.93701   0.00004   0.00530  -0.00183   0.00299   1.94000
   A19        1.88101   0.00004  -0.00003   0.00054   0.00079   1.88180
   A20        1.80111  -0.00003  -0.00510   0.00100  -0.00274   1.79838
   A21        1.95650   0.00006   0.00210  -0.00114   0.00056   1.95706
   A22        1.91910   0.00006  -0.00075   0.00095  -0.00021   1.91889
   A23        1.97654  -0.00039  -0.00361   0.00024  -0.00382   1.97272
   A24        1.92877   0.00016   0.00247   0.00003   0.00217   1.93094
   A25        1.88154   0.00015   0.00455  -0.00096   0.00382   1.88536
    D1        0.73575  -0.00018  -0.00563  -0.00126  -0.00648   0.72927
    D2        2.86627   0.00006  -0.00478  -0.00108  -0.00560   2.86067
    D3       -1.34972   0.00006  -0.00387  -0.00122  -0.00501  -1.35473
    D4       -0.50667  -0.00017  -0.04690   0.02061  -0.02641  -0.53308
    D5       -2.63932   0.00029  -0.04048   0.02030  -0.02041  -2.65973
    D6        1.55116   0.00002  -0.04709   0.02161  -0.02546   1.52571
    D7       -2.56387  -0.00035  -0.04645   0.01913  -0.02738  -2.59125
    D8        1.58666   0.00011  -0.04003   0.01882  -0.02137   1.56529
    D9       -0.50604  -0.00015  -0.04664   0.02013  -0.02642  -0.53246
   D10        1.56040  -0.00010  -0.04539   0.02063  -0.02470   1.53571
   D11       -0.57225   0.00035  -0.03896   0.02031  -0.01869  -0.59094
   D12       -2.66495   0.00009  -0.04558   0.02163  -0.02374  -2.68869
   D13       -0.65954   0.00006   0.05769  -0.01946   0.03806  -0.62148
   D14        1.42795   0.00003   0.06192  -0.02166   0.04038   1.46833
   D15       -2.79907   0.00027   0.06082  -0.02045   0.04012  -2.75895
   D16        0.31647  -0.00010  -0.08447   0.03179  -0.05268   0.26379
   D17        2.42525  -0.00024  -0.09533   0.03553  -0.05965   2.36560
   D18       -1.76376  -0.00017  -0.09476   0.03584  -0.05907  -1.82284
   D19       -1.75677   0.00006  -0.08738   0.03380  -0.05373  -1.81050
   D20        0.35201  -0.00008  -0.09824   0.03753  -0.06070   0.29131
   D21        2.44618  -0.00001  -0.09767   0.03784  -0.06013   2.38606
   D22        2.38075   0.00020  -0.08500   0.03275  -0.05212   2.32863
   D23       -1.79366   0.00006  -0.09586   0.03648  -0.05909  -1.85274
   D24        0.30052   0.00014  -0.09529   0.03679  -0.05851   0.24201
   D25        0.11219   0.00002   0.07668  -0.03064   0.04602   0.15822
   D26        2.23135  -0.00014   0.07405  -0.03125   0.04291   2.27426
   D27       -1.93885  -0.00010   0.07920  -0.03230   0.04676  -1.89210
   D28       -1.98047   0.00006   0.08471  -0.03392   0.05063  -1.92985
   D29        0.13868  -0.00010   0.08208  -0.03452   0.04751   0.18620
   D30        2.25166  -0.00006   0.08723  -0.03558   0.05136   2.30303
   D31        2.19462   0.00007   0.08691  -0.03523   0.05182   2.24644
   D32       -1.96941  -0.00009   0.08428  -0.03584   0.04871  -1.92070
   D33        0.14357  -0.00006   0.08943  -0.03690   0.05255   0.19612
         Item               Value     Threshold  Converged?
 Maximum Force            0.001190     0.000015     NO 
 RMS     Force            0.000290     0.000010     NO 
 Maximum Displacement     0.095320     0.000060     NO 
 RMS     Displacement     0.027931     0.000040     NO 
 Predicted change in Energy=-3.083481D-06
 Lowest energy point so far.  Saving SCF results.
 GradGradGradGradGradGradGradGradGradGradGradGradGradGradGradGradGradGrad

 Leave Link  103 at Mon Aug 25 14:25:11 2025, MaxMem=  4294967296 cpu:               0.1 elap:               0.0
 (Enter /opt/apps/Gaussian/G16C/g16/l202.exe)
                          Input orientation:                          
 ---------------------------------------------------------------------
 Center     Atomic      Atomic             Coordinates (Angstroms)
 Number     Number       Type             X           Y           Z
 ---------------------------------------------------------------------
      1          6           0       -1.734343    0.310118    0.733467
      2          8           0       -0.933565   -0.445522   -0.165765
      3          6           0        0.151432    0.402378   -0.523384
      4          6           0       -0.420218    1.832875   -0.590455
      5          6           0       -1.781496    1.716533    0.134305
      6          1           0       -2.709189   -0.178368    0.806045
      7          1           0       -1.265551    0.320361    1.731183
      8          1           0        0.940055    0.331614    0.242393
      9          1           0        0.553969    0.039881   -1.472698
     10          1           0        0.248671    2.543979   -0.096591
     11          1           0       -0.551028    2.160085   -1.625918
     12          1           0       -1.926405    2.485520    0.898744
     13          1           0       -2.607281    1.790249   -0.581299
 ---------------------------------------------------------------------
                    Distance matrix (angstroms):
                    1          2          3          4          5
     1  C    0.000000
     2  O    1.421568   0.000000
     3  C    2.268112   1.422688   0.000000
     4  C    2.408004   2.373811   1.541949   0.000000
     5  C    1.529452   2.341690   2.428121   1.546573   0.000000
     6  H    1.092800   2.041721   3.207460   3.351820   2.214159
     7  H    1.102410   2.072487   2.664140   2.896945   2.183006
     8  H    2.719195   2.069054   1.101521   2.190380   3.055573
     9  H    3.190073   2.038737   1.092995   2.223111   3.293633
    10  H    3.100238   3.215522   2.185879   1.094067   2.204441
    11  H    3.223245   3.011240   2.190563   1.093783   2.192983
    12  H    2.190109   3.272601   3.267925   2.216361   1.093941
    13  H    2.163658   2.823591   3.088695   2.187498   1.095192
                    6          7          8          9         10
     6  H    0.000000
     7  H    1.785694   0.000000
     8  H    3.727569   2.661075   0.000000
     9  H    3.986039   3.695156   1.782052   0.000000
    10  H    4.120056   3.252400   2.342538   2.873567   0.000000
    11  H    4.005055   3.894259   3.009522   2.395780   1.767974
    12  H    2.778066   2.411970   3.645093   4.213923   2.392711
    13  H    2.410511   3.050965   3.922969   3.721812   2.993245
                   11         12         13
    11  H    0.000000
    12  H    2.893352   0.000000
    13  H    2.335847   1.771306   0.000000
 Symmetry turned off by external request.
 Stoichiometry    C4H8O
 Framework group  C1[X(C4H8O)]
 Deg. of freedom    33
 Full point group                 C1      NOp   1
 Rotational constants (GHZ):           7.1458727           6.9491040           3.9971005
 Leave Link  202 at Mon Aug 25 14:25:11 2025, MaxMem=  4294967296 cpu:               0.0 elap:               0.0
 (Enter /opt/apps/Gaussian/G16C/g16/l301.exe)
 Standard basis: 6-31+G(d) (6D, 7F)
 Ernie: Thresh=  0.10000D-02 Tol=  0.10000D-05 Strict=F.
   111 basis functions,   192 primitive gaussians,   111 cartesian basis functions
    20 alpha electrons       20 beta electrons
       nuclear repulsion energy       190.5763435127 Hartrees.
 IExCor= 4639 DFT=T Ex+Corr=wB97XD ExCW=0 ScaHFX=  1.000000
 ScaDFX=  1.000000  1.000000  1.000000  1.000000 ScalE2=  1.000000  1.000000
 IRadAn=      5 IRanWt=     -1 IRanGd=            0 ICorTp=0 IEmpDi=121
 HFx  wShort=  0.000000 wLong=  0.200000 cFull=  0.222036 cShort=  0.000000 cLong=  0.777964
 DFx  wShort=  0.000000 wLong=  0.200000 cFull=  0.000000 cShort=  0.000000 cLong=  1.000000
 NAtoms=   13 NActive=   13 NUniq=   13 SFac= 1.00D+00 NAtFMM=   60 NAOKFM=F Big=F
 Integral buffers will be    131072 words long.
 Raffenetti 2 integral format.
 Two-electron integral symmetry is turned off.
 R6Disp:  Grimme-D2 Dispersion energy=       -0.0056522768 Hartrees.
 Nuclear repulsion after empirical dispersion term =      190.5706912359 Hartrees.
 ------------------------------------------------------------------------------
 Polarizable Continuum Model (PCM)
 =================================
 Model                : PCM.
 Atomic radii         : SMD-Coulomb.
 Polarization charges : Total charges.
 Charge compensation  : None.
 Solution method      : On-the-fly selection.
 Cavity type          : VdW (van der Waals Surface) (Alpha=1.000).
 Cavity algorithm     : GePol (No added spheres)
                        Default sphere list used, NSphG=   13.
                        Lebedev-Laikov grids with approx.  5.0 points / Ang**2.
                        Smoothing algorithm: York/Karplus (Gamma=1.0000).
                        Polarization charges: spherical gaussians, with
                                              point-specific exponents (IZeta= 3).
                        Self-potential: point-specific (ISelfS= 7).
                        Self-field    : sphere-specific E.n sum rule (ISelfD= 2).
 1st derivatives      : Analytical E(r).r(x)/FMM algorithm (CHGder, D1EAlg=3).
                        Cavity 1st derivative terms included.
 Solvent              : TetraHydroFuran, Eps=   7.425700 Eps(inf)=   1.974025
 ------------------------------------------------------------------------------
 Spheres list:
 ISph  on   Nord     Re0    Alpha      Xe            Ye            Ze
    1   C      1    1.8500  1.000     -1.734343      0.310118      0.733467
    2   O      2    2.2940  1.000     -0.933565     -0.445522     -0.165765
    3   C      3    1.8500  1.000      0.151432      0.402378     -0.523384
    4   C      4    1.8500  1.000     -0.420218      1.832875     -0.590455
    5   C      5    1.8500  1.000     -1.781496      1.716533      0.134305
    6   H      6    1.2000  1.000     -2.709189     -0.178368      0.806045
    7   H      7    1.2000  1.000     -1.265551      0.320361      1.731183
    8   H      8    1.2000  1.000      0.940055      0.331614      0.242393
    9   H      9    1.2000  1.000      0.553969      0.039881     -1.472698
   10   H     10    1.2000  1.000      0.248671      2.543979     -0.096591
   11   H     11    1.2000  1.000     -0.551028      2.160085     -1.625918
   12   H     12    1.2000  1.000     -1.926405      2.485520      0.898744
   13   H     13    1.2000  1.000     -2.607281      1.790249     -0.581299
 ------------------------------------------------------------------------------
 GePol: Number of generator spheres                  =      13
 GePol: Total number of spheres                      =      13
 GePol: Number of exposed spheres                    =      13 (100.00%)
 GePol: Number of points                             =     986
 GePol: Average weight of points                     =       0.12
 GePol: Minimum weight of points                     =   0.14D-07
 GePol: Maximum weight of points                     =    0.17992
 GePol: Number of points with low weight             =      51
 GePol: Fraction of low-weight points (<1% of avg)   =       5.17%
 GePol: Cavity surface area                          =    115.503 Ang**2
 GePol: Cavity volume                                =     98.748 Ang**3
 ------------------------------------------------------------------------------
 Atomic radii for non-electrostatic terms: SMD-CDS.
 ------------------------------------------------------------------------------
 PCM non-electrostatic energy =        -0.0025682900 Hartrees.
 Nuclear repulsion after PCM non-electrostatic terms =      190.5681229459 Hartrees.
 Leave Link  301 at Mon Aug 25 14:25:11 2025, MaxMem=  4294967296 cpu:               0.1 elap:               0.0
 (Enter /opt/apps/Gaussian/G16C/g16/l302.exe)
 NPDir=0 NMtPBC=     1 NCelOv=     1 NCel=       1 NClECP=     1 NCelD=      1
         NCelK=      1 NCelE2=     1 NClLst=     1 CellRange=     0.0.
 One-electron integrals computed using PRISM.
 NBasis=   111 RedAO= T EigKep=  3.07D-05  NBF=   111
 NBsUse=   111 1.00D-06 EigRej= -1.00D+00 NBFU=   111
 Precomputing XC quadrature grid using
 IXCGrd= 4 IRadAn=           5 IRanWt=          -1 IRanGd=           0 AccXCQ= 0.00D+00.
 Generated NRdTot=       0 NPtTot=           0 NUsed=           0 NTot=          32
 NSgBfM=   111   111   111   111   111 MxSgAt=    13 MxSgA2=    13.
 Leave Link  302 at Mon Aug 25 14:25:11 2025, MaxMem=  4294967296 cpu:               0.9 elap:               0.1
 (Enter /opt/apps/Gaussian/G16C/g16/l303.exe)
 DipDrv:  MaxL=1.
 Leave Link  303 at Mon Aug 25 14:25:11 2025, MaxMem=  4294967296 cpu:               0.0 elap:               0.0
 (Enter /opt/apps/Gaussian/G16C/g16/l401.exe)
 Initial guess from the checkpoint file:  "THF-dzpop.chk"
 B after Tr=     0.002113    0.000625    0.012428
         Rot=    0.999998    0.001948   -0.000032   -0.000554 Ang=   0.23 deg.
 Guess basis will be translated and rotated to current coordinates.
 JPrj=2 DoOrth=T DoCkMO=T.
 Generating alternative initial guess.
 ExpMin= 4.38D-02 ExpMax= 5.48D+03 ExpMxC= 8.25D+02 IAcc=3 IRadAn=         5 AccDes= 0.00D+00
 Harris functional with IExCor= 4639 and IRadAn=       5 diagonalized for initial guess.
 HarFok:  IExCor= 4639 AccDes= 0.00D+00 IRadAn=         5 IDoV= 1 UseB2=F ITyADJ=14
 ICtDFT=  3500011 ScaDFX=  1.000000  1.000000  1.000000  1.000000
 FoFCou: FMM=F IPFlag=           0 FMFlag=      100000 FMFlg1=           0
         NFxFlg=           0 DoJE=T BraDBF=F KetDBF=T FulRan=T
         wScrn=  0.000000 ICntrl=       500 IOpCl=  0 I1Cent=   200000004 NGrid=           0
         NMat0=    1 NMatS0=      1 NMatT0=    0 NMatD0=    1 NMtDS0=    0 NMtDT0=    0
 Symmetry not used in FoFCou.
 Harris En= -222.058196104613    
 Leave Link  401 at Mon Aug 25 14:25:11 2025, MaxMem=  4294967296 cpu:               3.3 elap:               0.3
 (Enter /opt/apps/Gaussian/G16C/g16/l502.exe)
 Two-electron integral symmetry not used.
 Closed shell SCF:
 Using DIIS extrapolation, IDIIS=  1040.
 NGot=  4294967296 LenX=  4294939455 LenY=  4294926693
 Requested convergence on RMS density matrix=1.00D-08 within 128 cycles.
 Requested convergence on MAX density matrix=1.00D-06.
 Requested convergence on             energy=1.00D-06.
 No special actions if energy rises.
 Fock matrices will be formed incrementally for  20 cycles.

 Cycle   1  Pass 1  IDiag  1:
 FoFJK:  IHMeth= 1 ICntrl=       0 DoSepK=T KAlg= 0 I1Cent=           0 FoldK=F
 IRaf=         1 NMat=       1 IRICut=       1 DoRegI=T DoRafI=F ISym2E= 0 IDoP0=0 IntGTp=1.
 FoFCou: FMM=F IPFlag=           0 FMFlag=      100000 FMFlg1=           0
         NFxFlg=           0 DoJE=T BraDBF=F KetDBF=F FulRan=T
         wScrn=  0.000000 ICntrl=       500 IOpCl=  0 I1Cent=           0 NGrid=           0
         NMat0=    1 NMatS0=      1 NMatT0=    0 NMatD0=    1 NMtDS0=    0 NMtDT0=    0
 Symmetry not used in FoFCou.
 Inv3:  Mode=1 IEnd=     2916588.
 Iteration    1 A*A^-1 deviation from unit magnitude is 5.55D-15 for    979.
 Iteration    1 A*A^-1 deviation from orthogonality  is 2.11D-15 for    597     17.
 Iteration    1 A^-1*A deviation from unit magnitude is 5.77D-15 for    979.
 Iteration    1 A^-1*A deviation from orthogonality  is 1.78D-15 for    981    980.
 E= -232.392046134493    
 DIIS: error= 2.60D-03 at cycle   1 NSaved=   1.
 NSaved= 1 IEnMin= 1 EnMin= -232.392046134493     IErMin= 1 ErrMin= 2.60D-03
 ErrMax= 2.60D-03  0.00D+00 EMaxC= 1.00D-01 BMatC= 6.07D-04 BMatP= 6.07D-04
 IDIUse=3 WtCom= 9.74D-01 WtEn= 2.60D-02
 Coeff-Com:  0.100D+01
 Coeff-En:   0.100D+01
 Coeff:      0.100D+01
 Gap=     0.831 Goal=   None    Shift=    0.000
 GapD=    0.831 DampG=2.000 DampE=1.000 DampFc=2.0000 IDamp=-1.
 RMSDP=5.53D-04 MaxDP=9.95D-03              OVMax= 6.72D-03

 Cycle   2  Pass 1  IDiag  1:
 RMSU=  5.51D-04    CP:  9.98D-01
 E= -232.393050541996     Delta-E=       -0.001004407503 Rises=F Damp=F
 DIIS: error= 3.72D-04 at cycle   2 NSaved=   2.
 NSaved= 2 IEnMin= 2 EnMin= -232.393050541996     IErMin= 2 ErrMin= 3.72D-04
 ErrMax= 3.72D-04  0.00D+00 EMaxC= 1.00D-01 BMatC= 2.32D-05 BMatP= 6.07D-04
 IDIUse=3 WtCom= 9.96D-01 WtEn= 3.72D-03
 Coeff-Com: -0.181D+00 0.118D+01
 Coeff-En:   0.000D+00 0.100D+01
 Coeff:     -0.180D+00 0.118D+01
 Gap=     0.418 Goal=   None    Shift=    0.000
 RMSDP=1.39D-04 MaxDP=1.95D-03 DE=-1.00D-03 OVMax= 2.29D-03

 Cycle   3  Pass 1  IDiag  1:
 RMSU=  9.32D-05    CP:  9.98D-01  1.19D+00
 E= -232.393112075498     Delta-E=       -0.000061533502 Rises=F Damp=F
 DIIS: error= 6.16D-05 at cycle   3 NSaved=   3.
 NSaved= 3 IEnMin= 3 EnMin= -232.393112075498     IErMin= 3 ErrMin= 6.16D-05
 ErrMax= 6.16D-05  0.00D+00 EMaxC= 1.00D-01 BMatC= 7.17D-07 BMatP= 2.32D-05
 IDIUse=1 WtCom= 1.00D+00 WtEn= 0.00D+00
 Coeff-Com: -0.577D-02-0.536D-01 0.106D+01
 Coeff:     -0.577D-02-0.536D-01 0.106D+01
 Gap=     0.418 Goal=   None    Shift=    0.000
 RMSDP=3.00D-05 MaxDP=3.48D-04 DE=-6.15D-05 OVMax= 4.98D-04

 Cycle   4  Pass 1  IDiag  1:
 RMSU=  1.85D-05    CP:  9.98D-01  1.20D+00  1.24D+00
 E= -232.393113583412     Delta-E=       -0.000001507914 Rises=F Damp=F
 DIIS: error= 3.98D-05 at cycle   4 NSaved=   4.
 NSaved= 4 IEnMin= 4 EnMin= -232.393113583412     IErMin= 4 ErrMin= 3.98D-05
 ErrMax= 3.98D-05  0.00D+00 EMaxC= 1.00D-01 BMatC= 4.10D-07 BMatP= 7.17D-07
 IDIUse=1 WtCom= 1.00D+00 WtEn= 0.00D+00
 Coeff-Com:  0.814D-02-0.972D-01 0.501D+00 0.588D+00
 Coeff:      0.814D-02-0.972D-01 0.501D+00 0.588D+00
 Gap=     0.418 Goal=   None    Shift=    0.000
 RMSDP=7.59D-06 MaxDP=1.33D-04 DE=-1.51D-06 OVMax= 1.59D-04

 Cycle   5  Pass 1  IDiag  1:
 RMSU=  6.48D-06    CP:  9.98D-01  1.20D+00  1.28D+00  1.07D+00
 E= -232.393113940636     Delta-E=       -0.000000357223 Rises=F Damp=F
 DIIS: error= 9.43D-06 at cycle   5 NSaved=   5.
 NSaved= 5 IEnMin= 5 EnMin= -232.393113940636     IErMin= 5 ErrMin= 9.43D-06
 ErrMax= 9.43D-06  0.00D+00 EMaxC= 1.00D-01 BMatC= 1.77D-08 BMatP= 4.10D-07
 IDIUse=1 WtCom= 1.00D+00 WtEn= 0.00D+00
 Coeff-Com:  0.276D-02-0.209D-01 0.214D-01 0.158D+00 0.838D+00
 Coeff:      0.276D-02-0.209D-01 0.214D-01 0.158D+00 0.838D+00
 Gap=     0.418 Goal=   None    Shift=    0.000
 RMSDP=4.09D-06 MaxDP=5.95D-05 DE=-3.57D-07 OVMax= 6.18D-05

 Cycle   6  Pass 1  IDiag  1:
 RMSU=  1.71D-06    CP:  9.98D-01  1.20D+00  1.29D+00  1.24D+00  1.26D+00
 E= -232.393113962123     Delta-E=       -0.000000021488 Rises=F Damp=F
 DIIS: error= 2.97D-06 at cycle   6 NSaved=   6.
 NSaved= 6 IEnMin= 6 EnMin= -232.393113962123     IErMin= 6 ErrMin= 2.97D-06
 ErrMax= 2.97D-06  0.00D+00 EMaxC= 1.00D-01 BMatC= 3.02D-09 BMatP= 1.77D-08
 IDIUse=1 WtCom= 1.00D+00 WtEn= 0.00D+00
 Coeff-Com:  0.128D-03 0.315D-02-0.512D-01-0.473D-02 0.334D+00 0.718D+00
 Coeff:      0.128D-03 0.315D-02-0.512D-01-0.473D-02 0.334D+00 0.718D+00
 Gap=     0.418 Goal=   None    Shift=    0.000
 RMSDP=1.58D-06 MaxDP=2.50D-05 DE=-2.15D-08 OVMax= 2.12D-05

 Cycle   7  Pass 1  IDiag  1:
 RMSU=  6.00D-07    CP:  9.98D-01  1.20D+00  1.29D+00  1.31D+00  1.38D+00
                    CP:  1.05D+00
 E= -232.393113965829     Delta-E=       -0.000000003706 Rises=F Damp=F
 DIIS: error= 5.85D-07 at cycle   7 NSaved=   7.
 NSaved= 7 IEnMin= 7 EnMin= -232.393113965829     IErMin= 7 ErrMin= 5.85D-07
 ErrMax= 5.85D-07  0.00D+00 EMaxC= 1.00D-01 BMatC= 8.39D-11 BMatP= 3.02D-09
 IDIUse=1 WtCom= 1.00D+00 WtEn= 0.00D+00
 Coeff-Com: -0.231D-03 0.221D-02-0.725D-02-0.136D-01-0.392D-01 0.724D-01
 Coeff-Com:  0.986D+00
 Coeff:     -0.231D-03 0.221D-02-0.725D-02-0.136D-01-0.392D-01 0.724D-01
 Coeff:      0.986D+00
 Gap=     0.418 Goal=   None    Shift=    0.000
 RMSDP=6.02D-07 MaxDP=1.39D-05 DE=-3.71D-09 OVMax= 8.82D-06

 Cycle   8  Pass 1  IDiag  1:
 RMSU=  1.89D-07    CP:  9.98D-01  1.20D+00  1.29D+00  1.32D+00  1.43D+00
                    CP:  1.17D+00  1.29D+00
 E= -232.393113966063     Delta-E=       -0.000000000234 Rises=F Damp=F
 DIIS: error= 2.12D-07 at cycle   8 NSaved=   8.
 NSaved= 8 IEnMin= 8 EnMin= -232.393113966063     IErMin= 8 ErrMin= 2.12D-07
 ErrMax= 2.12D-07  0.00D+00 EMaxC= 1.00D-01 BMatC= 4.02D-12 BMatP= 8.39D-11
 IDIUse=1 WtCom= 1.00D+00 WtEn= 0.00D+00
 Coeff-Com:  0.197D-05-0.281D-03 0.354D-02 0.118D-02-0.186D-01-0.489D-01
 Coeff-Com: -0.687D-01 0.113D+01
 Coeff:      0.197D-05-0.281D-03 0.354D-02 0.118D-02-0.186D-01-0.489D-01
 Coeff:     -0.687D-01 0.113D+01
 Gap=     0.418 Goal=   None    Shift=    0.000
 RMSDP=1.64D-07 MaxDP=3.98D-06 DE=-2.34D-10 OVMax= 3.05D-06

 Cycle   9  Pass 1  IDiag  1:
 RMSU=  3.99D-08    CP:  9.98D-01  1.20D+00  1.29D+00  1.33D+00  1.44D+00
                    CP:  1.20D+00  1.44D+00  1.42D+00
 E= -232.393113966084     Delta-E=       -0.000000000021 Rises=F Damp=F
 DIIS: error= 3.57D-08 at cycle   9 NSaved=   9.
 NSaved= 9 IEnMin= 9 EnMin= -232.393113966084     IErMin= 9 ErrMin= 3.57D-08
 ErrMax= 3.57D-08  0.00D+00 EMaxC= 1.00D-01 BMatC= 2.67D-13 BMatP= 4.02D-12
 IDIUse=1 WtCom= 1.00D+00 WtEn= 0.00D+00
 Coeff-Com:  0.118D-04-0.150D-03 0.796D-03 0.874D-03-0.160D-03-0.946D-02
 Coeff-Com: -0.583D-01 0.131D+00 0.935D+00
 Coeff:      0.118D-04-0.150D-03 0.796D-03 0.874D-03-0.160D-03-0.946D-02
 Coeff:     -0.583D-01 0.131D+00 0.935D+00
 Gap=     0.418 Goal=   None    Shift=    0.000
 RMSDP=3.11D-08 MaxDP=4.65D-07 DE=-2.06D-11 OVMax= 5.68D-07

 Cycle  10  Pass 1  IDiag  1:
 RMSU=  8.93D-09    CP:  9.98D-01  1.20D+00  1.29D+00  1.33D+00  1.44D+00
                    CP:  1.20D+00  1.46D+00  1.54D+00  1.22D+00
 E= -232.393113966084     Delta-E=       -0.000000000000 Rises=F Damp=F
 DIIS: error= 1.25D-08 at cycle  10 NSaved=  10.
 NSaved=10 IEnMin=10 EnMin= -232.393113966084     IErMin=10 ErrMin= 1.25D-08
 ErrMax= 1.25D-08  0.00D+00 EMaxC= 1.00D-01 BMatC= 4.85D-14 BMatP= 2.67D-13
 IDIUse=1 WtCom= 1.00D+00 WtEn= 0.00D+00
 Coeff-Com:  0.317D-05-0.207D-04-0.558D-04 0.153D-03 0.145D-02 0.132D-02
 Coeff-Com: -0.104D-01-0.562D-01 0.284D+00 0.780D+00
 Coeff:      0.317D-05-0.207D-04-0.558D-04 0.153D-03 0.145D-02 0.132D-02
 Coeff:     -0.104D-01-0.562D-01 0.284D+00 0.780D+00
 Gap=     0.418 Goal=   None    Shift=    0.000
 RMSDP=8.98D-09 MaxDP=1.26D-07 DE=-3.13D-13 OVMax= 1.45D-07

 Error on total polarization charges =  0.02885
 SCF Done:  E(RwB97XD) =  -232.393113966     A.U. after   10 cycles
            NFock= 10  Conv=0.90D-08     -V/T= 2.0094
 KE= 2.302295285204D+02 PE=-9.217989626334D+02 EE= 2.686081972010D+02
 SMD-CDS (non-electrostatic) energy       (kcal/mol) =      -1.61
 (included in total energy above)
 Leave Link  502 at Mon Aug 25 14:25:16 2025, MaxMem=  4294967296 cpu:              71.7 elap:               5.1
 (Enter /opt/apps/Gaussian/G16C/g16/l701.exe)
 ... and contract with generalized density number  0.
 Compute integral first derivatives.
 R6Disp: Adding Grimme-D2 dispersion energy 1st derivatives to the gradient.
 D1PCM: PCM CHGder 1st derivatives, ID1Alg=3 FixD1E=F DoIter=F DoCFld=F I1PDM=0.
 GePol: Maximum number of non-zero 1st derivatives   =     311
 Leave Link  701 at Mon Aug 25 14:25:17 2025, MaxMem=  4294967296 cpu:               3.8 elap:               0.3
 (Enter /opt/apps/Gaussian/G16C/g16/l702.exe)
 L702 exits ... SP integral derivatives will be done elsewhere.
 Leave Link  702 at Mon Aug 25 14:25:17 2025, MaxMem=  4294967296 cpu:               0.1 elap:               0.0
 (Enter /opt/apps/Gaussian/G16C/g16/l703.exe)
 Integral derivatives from FoFJK, PRISM(SPDF).
 Compute integral first derivatives, UseDBF=F ICtDFT=           0.
 Calling FoFJK, ICntrl=      2127 FMM=F ISym2X=0 I1Cent= 0 IOpClX= 0 NMat=1 NMatS=1 NMatT=0.
 FoFJK:  IHMeth= 1 ICntrl=    2127 DoSepK=T KAlg= 0 I1Cent=           0 FoldK=F
 IRaf=         1 NMat=       1 IRICut=       1 DoRegI=T DoRafI=F ISym2E= 0 IDoP0=0 IntGTp=1.
 FoFCou: FMM=F IPFlag=           0 FMFlag=      100000 FMFlg1=         800
         NFxFlg=           0 DoJE=F BraDBF=F KetDBF=F FulRan=T
         wScrn=  0.000000 ICntrl=      2527 IOpCl=  0 I1Cent=           0 NGrid=           0
         NMat0=    1 NMatS0=      1 NMatT0=    0 NMatD0=    1 NMtDS0=    0 NMtDT0=    0
 Symmetry not used in FoFCou.
 Leave Link  703 at Mon Aug 25 14:25:17 2025, MaxMem=  4294967296 cpu:              10.0 elap:               0.7
 (Enter /opt/apps/Gaussian/G16C/g16/l716.exe)
 Dipole        = 7.37925860D-02 8.51495783D-01 1.93981940D-01
 -------------------------------------------------------------------
 Center     Atomic                   Forces (Hartrees/Bohr)
 Number     Number              X              Y              Z
 -------------------------------------------------------------------
      1        6           0.000489266   -0.000775330   -0.000014197
      2        8          -0.000600103   -0.000106985    0.000145048
      3        6           0.000427846   -0.000171294    0.000433591
      4        6          -0.000035763    0.000243600   -0.000123137
      5        6          -0.000526618    0.000370888   -0.000741076
      6        1           0.000038343   -0.000004832    0.000173359
      7        1          -0.000111177    0.000096367   -0.000019227
      8        1          -0.000269337    0.000008884   -0.000232645
      9        1           0.000062524    0.000241688    0.000055555
     10        1          -0.000039321    0.000001897   -0.000082422
     11        1           0.000022397    0.000084046    0.000106158
     12        1           0.000249593   -0.000046841    0.000007172
     13        1           0.000292350    0.000057912    0.000291821
 -------------------------------------------------------------------
 Cartesian Forces:  Max     0.000775330 RMS     0.000285774
 Leave Link  716 at Mon Aug 25 14:25:17 2025, MaxMem=  4294967296 cpu:               0.0 elap:               0.0
 (Enter /opt/apps/Gaussian/G16C/g16/l103.exe)

 GradGradGradGradGradGradGradGradGradGradGradGradGradGradGradGradGradGrad
 Berny optimization.
 Using GEDIIS/GDIIS optimizer.
 FormGI is forming the generalized inverse of G from B-inverse, IUseBI=4.
 Internal  Forces:  Max     0.000589863 RMS     0.000141127
 Search for a local minimum.
 Step number  12 out of a maximum of   81
 All quantities printed in internal units (Hartrees-Bohrs-Radians)
 RMS Force = .14113D-03 SwitMx=.10000D-02 MixMth= 2
 Mixed Optimization -- En-DIIS/RFO-DIIS
 Swapping is turned off.
 Update second derivatives using D2CorX and points    4    5    6    7    8
                                                      9   10   11   12
 DE= -3.77D-06 DEPred=-3.08D-06 R= 1.22D+00
 TightC=F SS=  1.41D+00  RLast= 2.48D-01 DXNew= 2.2930D+00 7.4261D-01
 Trust test= 1.22D+00 RLast= 2.48D-01 DXMaxT set to 1.36D+00
 ITU=  1  1  1  1  1  1  1  1  1  1  1  0
     Eigenvalues ---    0.00007   0.00707   0.02691   0.03841   0.04941
     Eigenvalues ---    0.05143   0.05383   0.05885   0.06007   0.06526
     Eigenvalues ---    0.06967   0.07229   0.07826   0.09745   0.10930
     Eigenvalues ---    0.11266   0.11473   0.12793   0.22166   0.26495
     Eigenvalues ---    0.26948   0.29210   0.32126   0.34550   0.36692
     Eigenvalues ---    0.37159   0.37211   0.37236   0.37245   0.37327
     Eigenvalues ---    0.37425   0.38594   0.58966
 Eigenvalue     1 is   7.14D-05 Eigenvector:
                          D33       D30       D32       D29       D21
   1                   -0.23337  -0.22681  -0.22655  -0.21998   0.21529
                          D20       D31       D24       D23       D27
   1                    0.21421  -0.21339   0.20964   0.20856  -0.20839
 En-DIIS/RFO-DIIS/Sim-DIIS IScMMF=       -3 using points:    12   11   10    9    8    7    6    5    4
 RFO step:  Lambda=-3.56669162D-05.
 NNeg= 0 NGDIIS= 9 SimSw=  2.50D-01 Rises=F DC= -3.77D-06 SmlDif=  1.00D-05
 NRisDI= 0 DoIntr=F SqrtH=F CThrHd= 10.0 CDAdj=  3.0
 RMS Error=  0.5621208992D-01 NUsed= 9 OKEnD=F EnDIS=F
 InvSVX:  RCond= 1.15D-11 Info=           0 Equed=N FErr=  4.18D-06 BErr=  9.11D-17
 DIIS inversion failure, remove point   9.
 InvSVX:  RCond= 2.53D-11 Info=           0 Equed=N FErr=  3.82D-06 BErr=  8.94D-17
 DIIS inversion failure, remove point   8.
 InvSVX:  RCond= 5.36D-10 Info=           0 Equed=N FErr=  1.97D-07 BErr=  5.48D-17
 DIIS inversion failure, remove point   7.
 InvSVX:  RCond= 7.56D-10 Info=           0 Equed=N FErr=  1.66D-07 BErr=  4.92D-17
 DIIS inversion failure, remove point   6.
 InvSVX:  RCond= 2.79D-07 Info=           0 Equed=N FErr=  3.43D-10 BErr=  6.95D-17
 DIIS inversion failure, remove point   5.
 InvSVX:  RCond= 3.57D-07 Info=           0 Equed=N FErr=  2.70D-10 BErr=  8.48D-17
 DIIS inversion failure, remove point   4.
 InvSVX:  RCond= 9.17D-05 Info=           0 Equed=N FErr=  1.08D-12 BErr=  7.85D-17
 Old DIIS coefficients:      4.86116      0.68911     -4.55027      0.00000      0.00000
 Old DIIS coefficients:      0.00000      0.00000      0.00000      0.00000
 RFO-DIIS uses    3 points instead of    9
 DidBck=F Rises=F RFO-DIIS coefs:    2.62752    0.37248   -2.00000    0.00000    0.00000
                  RFO-DIIS coefs:    0.00000    0.00000    0.00000    0.00000
 Iteration  1 RMS(Cart)=  0.07530940 RMS(Int)=  0.00277674
 Iteration  2 RMS(Cart)=  0.00320082 RMS(Int)=  0.00074977
 Iteration  3 RMS(Cart)=  0.00000122 RMS(Int)=  0.00074977
 Iteration  4 RMS(Cart)=  0.00000000 RMS(Int)=  0.00074977
 ITry= 1 IFail=0 DXMaxC= 2.49D-01 DCOld= 1.00D+10 DXMaxT= 1.36D+00 DXLimC= 3.00D+00 Rises=F
 Variable       Old X    -DE/DX   Delta X   Delta X   Delta X     New X
                                 (Linear)    (Quad)   (Total)
    R1        2.68637  -0.00034   0.00109  -0.00107   0.00053   2.68691
    R2        2.89024   0.00059   0.00323   0.00471   0.00808   2.89832
    R3        2.06509  -0.00002  -0.00052  -0.00016  -0.00068   2.06441
    R4        2.08325  -0.00007  -0.00064  -0.00039  -0.00102   2.08223
    R5        2.68849   0.00037  -0.00352  -0.00058  -0.00381   2.68468
    R6        2.91386   0.00016  -0.00544  -0.00284  -0.00864   2.90522
    R7        2.08157  -0.00035   0.00155  -0.00019   0.00136   2.08293
    R8        2.06546  -0.00011  -0.00044  -0.00037  -0.00082   2.06464
    R9        2.92260  -0.00016   0.00286   0.00152   0.00387   2.92647
   R10        2.06749  -0.00006  -0.00053  -0.00030  -0.00082   2.06666
   R11        2.06695  -0.00008  -0.00006  -0.00004  -0.00010   2.06685
   R12        2.06725  -0.00006  -0.00029  -0.00018  -0.00047   2.06678
   R13        2.06961  -0.00041  -0.00013  -0.00132  -0.00145   2.06816
    A1        1.83211   0.00001   0.00556   0.00368   0.00790   1.84001
    A2        1.88274  -0.00001  -0.00010   0.00056   0.00095   1.88369
    A3        1.91547   0.00010  -0.00276  -0.00098  -0.00333   1.91213
    A4        1.99277   0.00005  -0.00213  -0.00023  -0.00176   1.99101
    A5        1.93811  -0.00009  -0.00047  -0.00179  -0.00229   1.93582
    A6        1.90011  -0.00006  -0.00006  -0.00106  -0.00126   1.89885
    A7        1.84607  -0.00017  -0.00579  -0.00322  -0.01040   1.83567
    A8        1.85574   0.00016  -0.00492  -0.00284  -0.01013   1.84561
    A9        1.91024  -0.00008  -0.00010   0.00011   0.00079   1.91104
   A10        1.87710   0.00011   0.00250   0.00218   0.00548   1.88257
   A11        1.93399   0.00004  -0.00087   0.00015  -0.00042   1.93357
   A12        1.98935  -0.00025   0.00247  -0.00065   0.00254   1.99189
   A13        1.89529   0.00004   0.00086   0.00105   0.00168   1.89697
   A14        1.80919  -0.00014  -0.00092  -0.00061  -0.00476   1.80443
   A15        1.93552   0.00002   0.00467   0.00247   0.00818   1.94370
   A16        1.94233   0.00012  -0.00652  -0.00359  -0.00932   1.93301
   A17        1.95572   0.00002   0.00644   0.00293   0.01025   1.96597
   A18        1.94000   0.00005  -0.00495  -0.00207  -0.00615   1.93385
   A19        1.88180  -0.00007   0.00114   0.00078   0.00142   1.88321
   A20        1.79838   0.00005   0.00451   0.00263   0.00445   1.80283
   A21        1.95706  -0.00001  -0.00464  -0.00469  -0.00856   1.94851
   A22        1.91889   0.00003   0.00359   0.00406   0.00847   1.92737
   A23        1.97272  -0.00019  -0.00058  -0.00317  -0.00289   1.96982
   A24        1.93094   0.00008  -0.00013   0.00121   0.00173   1.93266
   A25        1.88536   0.00004  -0.00235   0.00021  -0.00258   1.88278
    D1        0.72927   0.00003  -0.00474  -0.00422  -0.00970   0.71958
    D2        2.86067   0.00010  -0.00423  -0.00218  -0.00690   2.85376
    D3       -1.35473   0.00008  -0.00591  -0.00368  -0.00973  -1.36445
    D4       -0.53308  -0.00015   0.05318   0.03346   0.08677  -0.44631
    D5       -2.65973   0.00005   0.05350   0.03808   0.09197  -2.56776
    D6        1.52571  -0.00002   0.05706   0.03812   0.09511   1.62082
    D7       -2.59125  -0.00018   0.05083   0.03051   0.08142  -2.50983
    D8        1.56529   0.00003   0.05115   0.03513   0.08662   1.65191
    D9       -0.53246  -0.00005   0.05471   0.03517   0.08976  -0.44270
   D10        1.53571  -0.00007   0.05290   0.03352   0.08623   1.62194
   D11       -0.59094   0.00013   0.05322   0.03814   0.09143  -0.49951
   D12       -2.68869   0.00006   0.05678   0.03818   0.09457  -2.59412
   D13       -0.62148  -0.00013  -0.04745  -0.02841  -0.07542  -0.69690
   D14        1.46833  -0.00004  -0.05137  -0.02980  -0.08127   1.38706
   D15       -2.75895   0.00002  -0.04899  -0.02724  -0.07571  -2.83466
   D16        0.26379   0.00003   0.07861   0.04782   0.12643   0.39022
   D17        2.36560  -0.00002   0.08804   0.05218   0.13995   2.50555
   D18       -1.82284  -0.00002   0.08827   0.05243   0.14097  -1.68187
   D19       -1.81050   0.00001   0.08213   0.04929   0.13169  -1.67881
   D20        0.29131  -0.00004   0.09157   0.05365   0.14521   0.43652
   D21        2.38606  -0.00003   0.09180   0.05390   0.14623   2.53228
   D22        2.32863   0.00012   0.07984   0.04826   0.12791   2.45655
   D23       -1.85274   0.00007   0.08928   0.05262   0.14144  -1.71131
   D24        0.24201   0.00007   0.08951   0.05288   0.14245   0.38446
   D25        0.15822  -0.00001  -0.07723  -0.04799  -0.12504   0.03318
   D26        2.27426  -0.00009  -0.08025  -0.05365  -0.13407   2.14019
   D27       -1.89210  -0.00011  -0.08378  -0.05470  -0.13816  -2.03026
   D28       -1.92985   0.00004  -0.08551  -0.05206  -0.13719  -2.06704
   D29        0.18620  -0.00004  -0.08854  -0.05772  -0.14622   0.03998
   D30        2.30303  -0.00005  -0.09207  -0.05877  -0.15032   2.15271
   D31        2.24644   0.00008  -0.08795  -0.05364  -0.14176   2.10468
   D32       -1.92070   0.00000  -0.09098  -0.05929  -0.15079  -2.07149
   D33        0.19612  -0.00002  -0.09451  -0.06035  -0.15488   0.04124
         Item               Value     Threshold  Converged?
 Maximum Force            0.000590     0.000015     NO 
 RMS     Force            0.000141     0.000010     NO 
 Maximum Displacement     0.249474     0.000060     NO 
 RMS     Displacement     0.075272     0.000040     NO 
 Predicted change in Energy=-2.222281D-05
 Lowest energy point so far.  Saving SCF results.
 GradGradGradGradGradGradGradGradGradGradGradGradGradGradGradGradGradGrad

 Leave Link  103 at Mon Aug 25 14:25:17 2025, MaxMem=  4294967296 cpu:               0.1 elap:               0.0
 (Enter /opt/apps/Gaussian/G16C/g16/l202.exe)
                          Input orientation:                          
 ---------------------------------------------------------------------
 Center     Atomic      Atomic             Coordinates (Angstroms)
 Number     Number       Type             X           Y           Z
 ---------------------------------------------------------------------
      1          6           0       -1.744997    0.292218    0.704153
      2          8           0       -0.930282   -0.441527   -0.201117
      3          6           0        0.163464    0.415878   -0.495874
      4          6           0       -0.435536    1.825490   -0.629004
      5          6           0       -1.760620    1.728571    0.166601
      6          1           0       -2.727997   -0.183480    0.733197
      7          1           0       -1.302357    0.254399    1.712494
      8          1           0        0.893641    0.377454    0.328926
      9          1           0        0.643059    0.046698   -1.405483
     10          1           0        0.241318    2.585478   -0.228607
     11          1           0       -0.629116    2.066836   -1.678065
     12          1           0       -1.824918    2.461433    0.975883
     13          1           0       -2.620608    1.880256   -0.493076
 ---------------------------------------------------------------------
                    Distance matrix (angstroms):
                    1          2          3          4          5
     1  C    0.000000
     2  O    1.421849   0.000000
     3  C    2.257782   1.420671   0.000000
     4  C    2.417214   2.359497   1.537378   0.000000
     5  C    1.533727   2.352447   2.421598   1.548622   0.000000
     6  H    1.092438   2.042378   3.198498   3.338702   2.216482
     7  H    1.101868   2.069942   2.655484   2.949970   2.184714
     8  H    2.666547   2.068423   1.102239   2.186584   2.982779
     9  H    3.195880   2.040652   1.092562   2.220447   3.328335
    10  H    3.174040   3.245945   2.187385   1.093631   2.213195
    11  H    3.173235   2.926424   2.179775   1.093731   2.190323
    12  H    2.187629   3.257741   3.209989   2.215958   1.093690
    13  H    2.172997   2.886714   3.145706   2.189981   1.094422
                    6          7          8          9         10
     6  H    0.000000
     7  H    1.784156   0.000000
     8  H    3.687051   2.598425   0.000000
     9  H    3.998868   3.680973   1.783358   0.000000
    10  H    4.172412   3.403635   2.368911   2.826983   0.000000
    11  H    3.909400   3.903085   3.033284   2.402849   1.768494
    12  H    2.805354   2.384672   3.485984   4.194372   2.394894
    13  H    2.402974   3.040680   3.909482   3.853043   2.959375
                   11         12         13
    11  H    0.000000
    12  H    2.937532   0.000000
    13  H    2.324876   1.768822   0.000000
 Symmetry turned off by external request.
 Stoichiometry    C4H8O
 Framework group  C1[X(C4H8O)]
 Deg. of freedom    33
 Full point group                 C1      NOp   1
 Rotational constants (GHZ):           7.1567094           6.9479405           4.0045748
 Leave Link  202 at Mon Aug 25 14:25:17 2025, MaxMem=  4294967296 cpu:               0.0 elap:               0.0
 (Enter /opt/apps/Gaussian/G16C/g16/l301.exe)
 Standard basis: 6-31+G(d) (6D, 7F)
 Ernie: Thresh=  0.10000D-02 Tol=  0.10000D-05 Strict=F.
   111 basis functions,   192 primitive gaussians,   111 cartesian basis functions
    20 alpha electrons       20 beta electrons
       nuclear repulsion energy       190.6562641574 Hartrees.
 IExCor= 4639 DFT=T Ex+Corr=wB97XD ExCW=0 ScaHFX=  1.000000
 ScaDFX=  1.000000  1.000000  1.000000  1.000000 ScalE2=  1.000000  1.000000
 IRadAn=      5 IRanWt=     -1 IRanGd=            0 ICorTp=0 IEmpDi=121
 HFx  wShort=  0.000000 wLong=  0.200000 cFull=  0.222036 cShort=  0.000000 cLong=  0.777964
 DFx  wShort=  0.000000 wLong=  0.200000 cFull=  0.000000 cShort=  0.000000 cLong=  1.000000
 NAtoms=   13 NActive=   13 NUniq=   13 SFac= 1.00D+00 NAtFMM=   60 NAOKFM=F Big=F
 Integral buffers will be    131072 words long.
 Raffenetti 2 integral format.
 Two-electron integral symmetry is turned off.
 R6Disp:  Grimme-D2 Dispersion energy=       -0.0056547260 Hartrees.
 Nuclear repulsion after empirical dispersion term =      190.6506094314 Hartrees.
 ------------------------------------------------------------------------------
 Polarizable Continuum Model (PCM)
 =================================
 Model                : PCM.
 Atomic radii         : SMD-Coulomb.
 Polarization charges : Total charges.
 Charge compensation  : None.
 Solution method      : On-the-fly selection.
 Cavity type          : VdW (van der Waals Surface) (Alpha=1.000).
 Cavity algorithm     : GePol (No added spheres)
                        Default sphere list used, NSphG=   13.
                        Lebedev-Laikov grids with approx.  5.0 points / Ang**2.
                        Smoothing algorithm: York/Karplus (Gamma=1.0000).
                        Polarization charges: spherical gaussians, with
                                              point-specific exponents (IZeta= 3).
                        Self-potential: point-specific (ISelfS= 7).
                        Self-field    : sphere-specific E.n sum rule (ISelfD= 2).
 1st derivatives      : Analytical E(r).r(x)/FMM algorithm (CHGder, D1EAlg=3).
                        Cavity 1st derivative terms included.
 Solvent              : TetraHydroFuran, Eps=   7.425700 Eps(inf)=   1.974025
 ------------------------------------------------------------------------------
 Spheres list:
 ISph  on   Nord     Re0    Alpha      Xe            Ye            Ze
    1   C      1    1.8500  1.000     -1.744997      0.292218      0.704153
    2   O      2    2.2940  1.000     -0.930282     -0.441527     -0.201117
    3   C      3    1.8500  1.000      0.163464      0.415878     -0.495874
    4   C      4    1.8500  1.000     -0.435536      1.825490     -0.629004
    5   C      5    1.8500  1.000     -1.760620      1.728571      0.166601
    6   H      6    1.2000  1.000     -2.727997     -0.183480      0.733197
    7   H      7    1.2000  1.000     -1.302357      0.254399      1.712494
    8   H      8    1.2000  1.000      0.893641      0.377454      0.328926
    9   H      9    1.2000  1.000      0.643059      0.046698     -1.405483
   10   H     10    1.2000  1.000      0.241318      2.585478     -0.228607
   11   H     11    1.2000  1.000     -0.629116      2.066836     -1.678065
   12   H     12    1.2000  1.000     -1.824918      2.461433      0.975883
   13   H     13    1.2000  1.000     -2.620608      1.880256     -0.493076
 ------------------------------------------------------------------------------
 GePol: Number of generator spheres                  =      13
 GePol: Total number of spheres                      =      13
 GePol: Number of exposed spheres                    =      13 (100.00%)
 GePol: Number of points                             =     981
 GePol: Average weight of points                     =       0.12
 GePol: Minimum weight of points                     =   0.15D-10
 GePol: Maximum weight of points                     =    0.17992
 GePol: Number of points with low weight             =      46
 GePol: Fraction of low-weight points (<1% of avg)   =       4.69%
 GePol: Cavity surface area                          =    115.827 Ang**2
 GePol: Cavity volume                                =     98.790 Ang**3
 ------------------------------------------------------------------------------
 Atomic radii for non-electrostatic terms: SMD-CDS.
 ------------------------------------------------------------------------------
 PCM non-electrostatic energy =        -0.0025680288 Hartrees.
 Nuclear repulsion after PCM non-electrostatic terms =      190.6480414027 Hartrees.
 Leave Link  301 at Mon Aug 25 14:25:18 2025, MaxMem=  4294967296 cpu:               0.1 elap:               0.0
 (Enter /opt/apps/Gaussian/G16C/g16/l302.exe)
 NPDir=0 NMtPBC=     1 NCelOv=     1 NCel=       1 NClECP=     1 NCelD=      1
         NCelK=      1 NCelE2=     1 NClLst=     1 CellRange=     0.0.
 One-electron integrals computed using PRISM.
 NBasis=   111 RedAO= T EigKep=  2.65D-05  NBF=   111
 NBsUse=   111 1.00D-06 EigRej= -1.00D+00 NBFU=   111
 Precomputing XC quadrature grid using
 IXCGrd= 4 IRadAn=           5 IRanWt=          -1 IRanGd=           0 AccXCQ= 0.00D+00.
 Generated NRdTot=       0 NPtTot=           0 NUsed=           0 NTot=          32
 NSgBfM=   111   111   111   111   111 MxSgAt=    13 MxSgA2=    13.
 Leave Link  302 at Mon Aug 25 14:25:18 2025, MaxMem=  4294967296 cpu:               0.9 elap:               0.1
 (Enter /opt/apps/Gaussian/G16C/g16/l303.exe)
 DipDrv:  MaxL=1.
 Leave Link  303 at Mon Aug 25 14:25:18 2025, MaxMem=  4294967296 cpu:               0.1 elap:               0.0
 (Enter /opt/apps/Gaussian/G16C/g16/l401.exe)
 Initial guess from the checkpoint file:  "THF-dzpop.chk"
 B after Tr=     0.002554    0.000506   -0.021106
         Rot=    0.999995   -0.003245    0.000607    0.000003 Ang=  -0.38 deg.
 Guess basis will be translated and rotated to current coordinates.
 JPrj=2 DoOrth=T DoCkMO=T.
 Generating alternative initial guess.
 ExpMin= 4.38D-02 ExpMax= 5.48D+03 ExpMxC= 8.25D+02 IAcc=3 IRadAn=         5 AccDes= 0.00D+00
 Harris functional with IExCor= 4639 and IRadAn=       5 diagonalized for initial guess.
 HarFok:  IExCor= 4639 AccDes= 0.00D+00 IRadAn=         5 IDoV= 1 UseB2=F ITyADJ=14
 ICtDFT=  3500011 ScaDFX=  1.000000  1.000000  1.000000  1.000000
 FoFCou: FMM=F IPFlag=           0 FMFlag=      100000 FMFlg1=           0
         NFxFlg=           0 DoJE=T BraDBF=F KetDBF=T FulRan=T
         wScrn=  0.000000 ICntrl=       500 IOpCl=  0 I1Cent=   200000004 NGrid=           0
         NMat0=    1 NMatS0=      1 NMatT0=    0 NMatD0=    1 NMtDS0=    0 NMtDT0=    0
 Symmetry not used in FoFCou.
 Harris En= -222.057999741385    
 Leave Link  401 at Mon Aug 25 14:25:18 2025, MaxMem=  4294967296 cpu:               3.3 elap:               0.3
 (Enter /opt/apps/Gaussian/G16C/g16/l502.exe)
 Two-electron integral symmetry not used.
 Closed shell SCF:
 Using DIIS extrapolation, IDIIS=  1040.
 NGot=  4294967296 LenX=  4294939455 LenY=  4294926693
 Requested convergence on RMS density matrix=1.00D-08 within 128 cycles.
 Requested convergence on MAX density matrix=1.00D-06.
 Requested convergence on             energy=1.00D-06.
 No special actions if energy rises.
 Fock matrices will be formed incrementally for  20 cycles.

 Cycle   1  Pass 1  IDiag  1:
 FoFJK:  IHMeth= 1 ICntrl=       0 DoSepK=T KAlg= 0 I1Cent=           0 FoldK=F
 IRaf=         1 NMat=       1 IRICut=       1 DoRegI=T DoRafI=F ISym2E= 0 IDoP0=0 IntGTp=1.
 FoFCou: FMM=F IPFlag=           0 FMFlag=      100000 FMFlg1=           0
         NFxFlg=           0 DoJE=T BraDBF=F KetDBF=F FulRan=T
         wScrn=  0.000000 ICntrl=       500 IOpCl=  0 I1Cent=           0 NGrid=           0
         NMat0=    1 NMatS0=      1 NMatT0=    0 NMatD0=    1 NMtDS0=    0 NMtDT0=    0
 Symmetry not used in FoFCou.
 Inv3:  Mode=1 IEnd=     2887083.
 Iteration    1 A*A^-1 deviation from unit magnitude is 3.11D-15 for    249.
 Iteration    1 A*A^-1 deviation from orthogonality  is 1.48D-15 for    967    898.
 Iteration    1 A^-1*A deviation from unit magnitude is 2.66D-15 for    249.
 Iteration    1 A^-1*A deviation from orthogonality  is 1.82D-15 for    410    366.
 E= -232.385958225755    
 DIIS: error= 6.18D-03 at cycle   1 NSaved=   1.
 NSaved= 1 IEnMin= 1 EnMin= -232.385958225755     IErMin= 1 ErrMin= 6.18D-03
 ErrMax= 6.18D-03  0.00D+00 EMaxC= 1.00D-01 BMatC= 4.04D-03 BMatP= 4.04D-03
 IDIUse=3 WtCom= 9.38D-01 WtEn= 6.18D-02
 Coeff-Com:  0.100D+01
 Coeff-En:   0.100D+01
 Coeff:      0.100D+01
 Gap=     0.833 Goal=   None    Shift=    0.000
 GapD=    0.833 DampG=2.000 DampE=1.000 DampFc=2.0000 IDamp=-1.
 RMSDP=1.48D-03 MaxDP=2.38D-02              OVMax= 1.96D-02

 Cycle   2  Pass 1  IDiag  1:
 RMSU=  1.48D-03    CP:  1.00D+00
 E= -232.392710393170     Delta-E=       -0.006752167415 Rises=F Damp=F
 DIIS: error= 8.60D-04 at cycle   2 NSaved=   2.
 NSaved= 2 IEnMin= 2 EnMin= -232.392710393170     IErMin= 2 ErrMin= 8.60D-04
 ErrMax= 8.60D-04  0.00D+00 EMaxC= 1.00D-01 BMatC= 1.56D-04 BMatP= 4.04D-03
 IDIUse=3 WtCom= 9.91D-01 WtEn= 8.60D-03
 Coeff-Com: -0.182D+00 0.118D+01
 Coeff-En:   0.000D+00 0.100D+01
 Coeff:     -0.181D+00 0.118D+01
 Gap=     0.419 Goal=   None    Shift=    0.000
 RMSDP=3.56D-04 MaxDP=4.67D-03 DE=-6.75D-03 OVMax= 6.95D-03

 Cycle   3  Pass 1  IDiag  1:
 RMSU=  2.39D-04    CP:  1.00D+00  1.18D+00
 E= -232.393124363130     Delta-E=       -0.000413969960 Rises=F Damp=F
 DIIS: error= 1.45D-04 at cycle   3 NSaved=   3.
 NSaved= 3 IEnMin= 3 EnMin= -232.393124363130     IErMin= 3 ErrMin= 1.45D-04
 ErrMax= 1.45D-04  0.00D+00 EMaxC= 1.00D-01 BMatC= 4.16D-06 BMatP= 1.56D-04
 IDIUse=3 WtCom= 9.99D-01 WtEn= 1.45D-03
 Coeff-Com: -0.281D-02-0.727D-01 0.108D+01
 Coeff-En:   0.000D+00 0.000D+00 0.100D+01
 Coeff:     -0.280D-02-0.726D-01 0.108D+01
 Gap=     0.419 Goal=   None    Shift=    0.000
 RMSDP=7.31D-05 MaxDP=7.60D-04 DE=-4.14D-04 OVMax= 1.58D-03

 Cycle   4  Pass 1  IDiag  1:
 RMSU=  4.63D-05    CP:  1.00D+00  1.19D+00  1.22D+00
 E= -232.393135068015     Delta-E=       -0.000010704886 Rises=F Damp=F
 DIIS: error= 5.36D-05 at cycle   4 NSaved=   4.
 NSaved= 4 IEnMin= 4 EnMin= -232.393135068015     IErMin= 4 ErrMin= 5.36D-05
 ErrMax= 5.36D-05  0.00D+00 EMaxC= 1.00D-01 BMatC= 1.32D-06 BMatP= 4.16D-06
 IDIUse=1 WtCom= 1.00D+00 WtEn= 0.00D+00
 Coeff-Com:  0.792D-02-0.874D-01 0.407D+00 0.673D+00
 Coeff:      0.792D-02-0.874D-01 0.407D+00 0.673D+00
 Gap=     0.419 Goal=   None    Shift=    0.000
 RMSDP=1.79D-05 MaxDP=1.93D-04 DE=-1.07D-05 OVMax= 3.62D-04

 Cycle   5  Pass 1  IDiag  1:
 RMSU=  1.55D-05    CP:  1.00D+00  1.19D+00  1.26D+00  1.04D+00
 E= -232.393136535415     Delta-E=       -0.000001467400 Rises=F Damp=F
 DIIS: error= 1.39D-05 at cycle   5 NSaved=   5.
 NSaved= 5 IEnMin= 5 EnMin= -232.393136535415     IErMin= 5 ErrMin= 1.39D-05
 ErrMax= 1.39D-05  0.00D+00 EMaxC= 1.00D-01 BMatC= 5.95D-08 BMatP= 1.32D-06
 IDIUse=1 WtCom= 1.00D+00 WtEn= 0.00D+00
 Coeff-Com:  0.163D-02-0.872D-02-0.344D-01 0.118D+00 0.924D+00
 Coeff:      0.163D-02-0.872D-02-0.344D-01 0.118D+00 0.924D+00
 Gap=     0.419 Goal=   None    Shift=    0.000
 RMSDP=8.57D-06 MaxDP=1.37D-04 DE=-1.47D-06 OVMax= 1.70D-04

 Cycle   6  Pass 1  IDiag  1:
 RMSU=  3.18D-06    CP:  1.00D+00  1.19D+00  1.26D+00  1.18D+00  1.25D+00
 E= -232.393136629673     Delta-E=       -0.000000094257 Rises=F Damp=F
 DIIS: error= 7.85D-06 at cycle   6 NSaved=   6.
 NSaved= 6 IEnMin= 6 EnMin= -232.393136629673     IErMin= 6 ErrMin= 7.85D-06
 ErrMax= 7.85D-06  0.00D+00 EMaxC= 1.00D-01 BMatC= 1.63D-08 BMatP= 5.95D-08
 IDIUse=1 WtCom= 1.00D+00 WtEn= 0.00D+00
 Coeff-Com:  0.146D-03 0.268D-02-0.473D-01 0.326D-02 0.429D+00 0.612D+00
 Coeff:      0.146D-03 0.268D-02-0.473D-01 0.326D-02 0.429D+00 0.612D+00
 Gap=     0.419 Goal=   None    Shift=    0.000
 RMSDP=2.24D-06 MaxDP=3.86D-05 DE=-9.43D-08 OVMax= 4.09D-05

 Cycle   7  Pass 1  IDiag  1:
 RMSU=  1.16D-06    CP:  1.00D+00  1.19D+00  1.26D+00  1.22D+00  1.32D+00
                    CP:  1.08D+00
 E= -232.393136644330     Delta-E=       -0.000000014657 Rises=F Damp=F
 DIIS: error= 2.05D-06 at cycle   7 NSaved=   7.
 NSaved= 7 IEnMin= 7 EnMin= -232.393136644330     IErMin= 7 ErrMin= 2.05D-06
 ErrMax= 2.05D-06  0.00D+00 EMaxC= 1.00D-01 BMatC= 8.53D-10 BMatP= 1.63D-08
 IDIUse=1 WtCom= 1.00D+00 WtEn= 0.00D+00
 Coeff-Com: -0.222D-03 0.216D-02-0.740D-02-0.173D-01-0.286D-01 0.158D+00
 Coeff-Com:  0.894D+00
 Coeff:     -0.222D-03 0.216D-02-0.740D-02-0.173D-01-0.286D-01 0.158D+00
 Coeff:      0.894D+00
 Gap=     0.419 Goal=   None    Shift=    0.000
 RMSDP=1.25D-06 MaxDP=2.53D-05 DE=-1.47D-08 OVMax= 2.21D-05

 Cycle   8  Pass 1  IDiag  1:
 RMSU=  3.97D-07    CP:  1.00D+00  1.19D+00  1.26D+00  1.23D+00  1.37D+00
                    CP:  1.26D+00  1.19D+00
 E= -232.393136645804     Delta-E=       -0.000000001474 Rises=F Damp=F
 DIIS: error= 3.93D-07 at cycle   8 NSaved=   8.
 NSaved= 8 IEnMin= 8 EnMin= -232.393136645804     IErMin= 8 ErrMin= 3.93D-07
 ErrMax= 3.93D-07  0.00D+00 EMaxC= 1.00D-01 BMatC= 2.43D-11 BMatP= 8.53D-10
 IDIUse=1 WtCom= 1.00D+00 WtEn= 0.00D+00
 Coeff-Com: -0.529D-05-0.201D-03 0.313D-02 0.298D-03-0.249D-01-0.465D-01
 Coeff-Com: -0.449D-01 0.111D+01
 Coeff:     -0.529D-05-0.201D-03 0.313D-02 0.298D-03-0.249D-01-0.465D-01
 Coeff:     -0.449D-01 0.111D+01
 Gap=     0.419 Goal=   None    Shift=    0.000
 RMSDP=3.63D-07 MaxDP=8.06D-06 DE=-1.47D-09 OVMax= 5.97D-06

 Cycle   9  Pass 1  IDiag  1:
 RMSU=  9.46D-08    CP:  1.00D+00  1.19D+00  1.26D+00  1.23D+00  1.37D+00
                    CP:  1.32D+00  1.33D+00  1.35D+00
 E= -232.393136645899     Delta-E=       -0.000000000095 Rises=F Damp=F
 DIIS: error= 7.63D-08 at cycle   9 NSaved=   9.
 NSaved= 9 IEnMin= 9 EnMin= -232.393136645899     IErMin= 9 ErrMin= 7.63D-08
 ErrMax= 7.63D-08  0.00D+00 EMaxC= 1.00D-01 BMatC= 1.59D-12 BMatP= 2.43D-11
 IDIUse=1 WtCom= 1.00D+00 WtEn= 0.00D+00
 Coeff-Com:  0.109D-04-0.140D-03 0.756D-03 0.983D-03-0.123D-02-0.138D-01
 Coeff-Com: -0.519D-01 0.130D+00 0.936D+00
 Coeff:      0.109D-04-0.140D-03 0.756D-03 0.983D-03-0.123D-02-0.138D-01
 Coeff:     -0.519D-01 0.130D+00 0.936D+00
 Gap=     0.419 Goal=   None    Shift=    0.000
 RMSDP=6.36D-08 MaxDP=1.25D-06 DE=-9.48D-11 OVMax= 1.08D-06

 Cycle  10  Pass 1  IDiag  1:
 RMSU=  1.95D-08    CP:  1.00D+00  1.19D+00  1.26D+00  1.23D+00  1.37D+00
                    CP:  1.33D+00  1.35D+00  1.45D+00  1.21D+00
 E= -232.393136645899     Delta-E=        0.000000000000 Rises=F Damp=F
 DIIS: error= 2.90D-08 at cycle  10 NSaved=  10.
 NSaved=10 IEnMin= 9 EnMin= -232.393136645899     IErMin=10 ErrMin= 2.90D-08
 ErrMax= 2.90D-08  0.00D+00 EMaxC= 1.00D-01 BMatC= 2.91D-13 BMatP= 1.59D-12
 IDIUse=1 WtCom= 1.00D+00 WtEn= 0.00D+00
 Coeff-Com:  0.353D-05-0.266D-04-0.108D-04 0.277D-03 0.155D-02-0.654D-03
 Coeff-Com: -0.124D-01-0.466D-01 0.291D+00 0.767D+00
 Coeff:      0.353D-05-0.266D-04-0.108D-04 0.277D-03 0.155D-02-0.654D-03
 Coeff:     -0.124D-01-0.466D-01 0.291D+00 0.767D+00
 Gap=     0.419 Goal=   None    Shift=    0.000
 RMSDP=1.79D-08 MaxDP=2.37D-07 DE= 3.69D-13 OVMax= 2.50D-07

 Cycle  11  Pass 1  IDiag  1:
 RMSU=  7.26D-09    CP:  1.00D+00  1.19D+00  1.26D+00  1.23D+00  1.37D+00
                    CP:  1.33D+00  1.35D+00  1.47D+00  1.31D+00  9.84D-01
 E= -232.393136645897     Delta-E=        0.000000000002 Rises=F Damp=F
 DIIS: error= 7.34D-09 at cycle  11 NSaved=  11.
 NSaved=11 IEnMin= 9 EnMin= -232.393136645899     IErMin=11 ErrMin= 7.34D-09
 ErrMax= 7.34D-09  0.00D+00 EMaxC= 1.00D-01 BMatC= 1.44D-14 BMatP= 2.91D-13
 IDIUse=1 WtCom= 1.00D+00 WtEn= 0.00D+00
 Coeff-Com: -0.872D-06 0.135D-04-0.891D-04-0.851D-04 0.329D-03 0.156D-02
 Coeff-Com:  0.477D-02-0.211D-01-0.752D-01 0.897D-01 0.100D+01
 Coeff:     -0.872D-06 0.135D-04-0.891D-04-0.851D-04 0.329D-03 0.156D-02
 Coeff:      0.477D-02-0.211D-01-0.752D-01 0.897D-01 0.100D+01
 Gap=     0.419 Goal=   None    Shift=    0.000
 RMSDP=6.64D-09 MaxDP=8.01D-08 DE= 1.88D-12 OVMax= 1.19D-07

 Error on total polarization charges =  0.02883
 SCF Done:  E(RwB97XD) =  -232.393136646     A.U. after   11 cycles
            NFock= 11  Conv=0.66D-08     -V/T= 2.0094
 KE= 2.302346409847D+02 PE=-9.219583499336D+02 EE= 2.686825309003D+02
 SMD-CDS (non-electrostatic) energy       (kcal/mol) =      -1.61
 (included in total energy above)
 Leave Link  502 at Mon Aug 25 14:25:24 2025, MaxMem=  4294967296 cpu:              78.8 elap:               5.6
 (Enter /opt/apps/Gaussian/G16C/g16/l701.exe)
 ... and contract with generalized density number  0.
 Compute integral first derivatives.
 R6Disp: Adding Grimme-D2 dispersion energy 1st derivatives to the gradient.
 D1PCM: PCM CHGder 1st derivatives, ID1Alg=3 FixD1E=F DoIter=F DoCFld=F I1PDM=0.
 GePol: Maximum number of non-zero 1st derivatives   =     308
 Leave Link  701 at Mon Aug 25 14:25:24 2025, MaxMem=  4294967296 cpu:               4.3 elap:               0.3
 (Enter /opt/apps/Gaussian/G16C/g16/l702.exe)
 L702 exits ... SP integral derivatives will be done elsewhere.
 Leave Link  702 at Mon Aug 25 14:25:24 2025, MaxMem=  4294967296 cpu:               0.0 elap:               0.0
 (Enter /opt/apps/Gaussian/G16C/g16/l703.exe)
 Integral derivatives from FoFJK, PRISM(SPDF).
 Compute integral first derivatives, UseDBF=F ICtDFT=           0.
 Calling FoFJK, ICntrl=      2127 FMM=F ISym2X=0 I1Cent= 0 IOpClX= 0 NMat=1 NMatS=1 NMatT=0.
 FoFJK:  IHMeth= 1 ICntrl=    2127 DoSepK=T KAlg= 0 I1Cent=           0 FoldK=F
 IRaf=         1 NMat=       1 IRICut=       1 DoRegI=T DoRafI=F ISym2E= 0 IDoP0=0 IntGTp=1.
 FoFCou: FMM=F IPFlag=           0 FMFlag=      100000 FMFlg1=         800
         NFxFlg=           0 DoJE=F BraDBF=F KetDBF=F FulRan=T
         wScrn=  0.000000 ICntrl=      2527 IOpCl=  0 I1Cent=           0 NGrid=           0
         NMat0=    1 NMatS0=      1 NMatT0=    0 NMatD0=    1 NMtDS0=    0 NMtDT0=    0
 Symmetry not used in FoFCou.
 Leave Link  703 at Mon Aug 25 14:25:25 2025, MaxMem=  4294967296 cpu:               9.9 elap:               0.7
 (Enter /opt/apps/Gaussian/G16C/g16/l716.exe)
 Dipole        = 7.83720419D-02 8.38965241D-01 2.20609555D-01
 -------------------------------------------------------------------
 Center     Atomic                   Forces (Hartrees/Bohr)
 Number     Number              X              Y              Z
 -------------------------------------------------------------------
      1        6          -0.000036367   -0.000646551   -0.000056570
      2        8          -0.000494999   -0.000190753    0.000565278
      3        6           0.000779362    0.000128932    0.000141057
      4        6          -0.000376897    0.000016320   -0.000021661
      5        6          -0.000104092    0.000499241   -0.000571478
      6        1          -0.000111904   -0.000174682    0.000064737
      7        1          -0.000068281   -0.000003294    0.000057413
      8        1          -0.000140320    0.000012008   -0.000293080
      9        1           0.000027892    0.000050588   -0.000123288
     10        1           0.000055700    0.000116640    0.000146140
     11        1           0.000074965    0.000092815   -0.000135316
     12        1           0.000232159    0.000087769    0.000121412
     13        1           0.000162780    0.000010967    0.000105357
 -------------------------------------------------------------------
 Cartesian Forces:  Max     0.000779362 RMS     0.000266073
 Leave Link  716 at Mon Aug 25 14:25:25 2025, MaxMem=  4294967296 cpu:               0.0 elap:               0.0
 (Enter /opt/apps/Gaussian/G16C/g16/l103.exe)

 GradGradGradGradGradGradGradGradGradGradGradGradGradGradGradGradGradGrad
 Berny optimization.
 Using GEDIIS/GDIIS optimizer.
 FormGI is forming the generalized inverse of G from B-inverse, IUseBI=4.
 Internal  Forces:  Max     0.000707469 RMS     0.000150523
 Search for a local minimum.
 Step number  13 out of a maximum of   81
 All quantities printed in internal units (Hartrees-Bohrs-Radians)
 RMS Force = .15052D-03 SwitMx=.10000D-02 MixMth= 2
 Mixed Optimization -- En-DIIS/RFO-DIIS
 Swapping is turned off.
 Update second derivatives using D2CorX and points   11   12   13
 DE= -2.27D-05 DEPred=-2.22D-05 R= 1.02D+00
 TightC=F SS=  1.41D+00  RLast= 6.67D-01 DXNew= 2.2930D+00 2.0023D+00
 Trust test= 1.02D+00 RLast= 6.67D-01 DXMaxT set to 2.00D+00
 ITU=  1  1  1  1  1  1  1  1  1  1  1  1  0
     Eigenvalues ---    0.00012   0.00602   0.02642   0.03838   0.05017
     Eigenvalues ---    0.05122   0.05520   0.05873   0.05986   0.06497
     Eigenvalues ---    0.06949   0.07217   0.07823   0.09627   0.10906
     Eigenvalues ---    0.11346   0.11494   0.12887   0.22075   0.26403
     Eigenvalues ---    0.26912   0.29078   0.32221   0.34408   0.37059
     Eigenvalues ---    0.37183   0.37224   0.37241   0.37275   0.37356
     Eigenvalues ---    0.37458   0.38657   0.54338
 En-DIIS/RFO-DIIS/Sim-DIIS IScMMF=       -3 using points:    13   12   11   10    9    8    7    6    5    4
 RFO step:  Lambda=-1.93527101D-05.
 NNeg= 0 NGDIIS=10 SimSw=  2.50D-01 Rises=F DC= -2.27D-05 SmlDif=  1.00D-05
 NRisDI= 0 DoIntr=F SqrtH=F CThrHd= 10.0 CDAdj=  3.0
 RMS Error=  0.9721049394D-02 NUsed=10 OKEnD=T EnDIS=F
 InvSVX:  RCond= 8.34D-12 Info=           0 Equed=N FErr=  3.89D-06 BErr=  1.19D-16
 DIIS inversion failure, remove point  10.
 InvSVX:  RCond= 2.16D-11 Info=           0 Equed=N FErr=  3.66D-06 BErr=  1.07D-16
 DIIS inversion failure, remove point   9.
 InvSVX:  RCond= 4.55D-10 Info=           0 Equed=N FErr=  1.87D-07 BErr=  7.91D-17
 DIIS inversion failure, remove point   8.
 InvSVX:  RCond= 5.88D-10 Info=           0 Equed=N FErr=  1.48D-07 BErr=  1.14D-16
 DIIS inversion failure, remove point   7.
 InvSVX:  RCond= 1.68D-08 Info=           0 Equed=N FErr=  5.65D-09 BErr=  8.65D-17
 DIIS inversion failure, remove point   6.
 InvSVX:  RCond= 9.49D-08 Info=           0 Equed=N FErr=  1.06D-09 BErr=  6.10D-17
 DIIS inversion failure, remove point   5.
 InvSVX:  RCond= 3.87D-07 Info=           0 Equed=N FErr=  2.01D-10 BErr=  3.59D-17
 DIIS inversion failure, remove point   4.
 InvSVX:  RCond= 7.48D-04 Info=           0 Equed=N FErr=  1.22D-13 BErr=  7.98D-17
 RFO-DIIS uses    3 points instead of   10
 DidBck=F Rises=F RFO-DIIS coefs:    0.81767    0.76994   -0.58761    0.00000    0.00000
                  RFO-DIIS coefs:    0.00000    0.00000    0.00000    0.00000    0.00000
 Iteration  1 RMS(Cart)=  0.02996657 RMS(Int)=  0.00050849
 Iteration  2 RMS(Cart)=  0.00050869 RMS(Int)=  0.00027326
 Iteration  3 RMS(Cart)=  0.00000003 RMS(Int)=  0.00027326
 ITry= 1 IFail=0 DXMaxC= 1.02D-01 DCOld= 1.00D+10 DXMaxT= 2.00D+00 DXLimC= 3.00D+00 Rises=F
 Variable       Old X    -DE/DX   Delta X   Delta X   Delta X     New X
                                 (Linear)    (Quad)   (Total)
    R1        2.68691  -0.00018  -0.00099  -0.00009  -0.00128   2.68562
    R2        2.89832   0.00071  -0.00169   0.00049  -0.00126   2.89706
    R3        2.06441   0.00018   0.00010   0.00037   0.00047   2.06488
    R4        2.08223   0.00002   0.00006   0.00027   0.00033   2.08256
    R5        2.68468   0.00070   0.00227   0.00050   0.00268   2.68736
    R6        2.90522   0.00021   0.00315   0.00055   0.00385   2.90907
    R7        2.08293  -0.00031  -0.00157   0.00011  -0.00146   2.08147
    R8        2.06464   0.00010   0.00014   0.00021   0.00035   2.06499
    R9        2.92647  -0.00014  -0.00254   0.00019  -0.00217   2.92430
   R10        2.06666   0.00017   0.00017   0.00028   0.00045   2.06711
   R11        2.06685   0.00014  -0.00024   0.00035   0.00011   2.06696
   R12        2.06678   0.00014   0.00007   0.00022   0.00029   2.06707
   R13        2.06816  -0.00019  -0.00053   0.00033  -0.00019   2.06797
    A1        1.84001  -0.00014  -0.00146  -0.00075  -0.00176   1.83825
    A2        1.88369   0.00002   0.00017  -0.00059  -0.00059   1.88309
    A3        1.91213   0.00004   0.00205  -0.00001   0.00191   1.91405
    A4        1.99101   0.00020   0.00062   0.00050   0.00090   1.99191
    A5        1.93582  -0.00004  -0.00093   0.00079  -0.00013   1.93569
    A6        1.89885  -0.00008  -0.00032  -0.00000  -0.00028   1.89857
    A7        1.83567   0.00010   0.00519   0.00051   0.00624   1.84191
    A8        1.84561  -0.00006   0.00476  -0.00052   0.00513   1.85074
    A9        1.91104  -0.00002  -0.00116   0.00104  -0.00040   1.91064
   A10        1.88257   0.00014  -0.00124  -0.00060  -0.00214   1.88043
   A11        1.93357   0.00002   0.00028   0.00041   0.00056   1.93413
   A12        1.99189  -0.00007  -0.00275   0.00034  -0.00267   1.98922
   A13        1.89697  -0.00000   0.00014  -0.00064  -0.00040   1.89657
   A14        1.80443   0.00003   0.00269  -0.00031   0.00356   1.80799
   A15        1.94370  -0.00004  -0.00311  -0.00028  -0.00377   1.93994
   A16        1.93301   0.00004   0.00296   0.00089   0.00354   1.93655
   A17        1.96597  -0.00002  -0.00553   0.00002  -0.00585   1.96012
   A18        1.93385  -0.00000   0.00288   0.00051   0.00308   1.93693
   A19        1.88321  -0.00000   0.00021  -0.00076  -0.00036   1.88285
   A20        1.80283   0.00015  -0.00242   0.00058  -0.00089   1.80194
   A21        1.94851  -0.00001   0.00189   0.00009   0.00169   1.95020
   A22        1.92737  -0.00003  -0.00167   0.00001  -0.00194   1.92543
   A23        1.96982  -0.00014  -0.00172   0.00018  -0.00185   1.96797
   A24        1.93266  -0.00005   0.00096  -0.00031   0.00042   1.93309
   A25        1.88278   0.00008   0.00271  -0.00052   0.00237   1.88515
    D1        0.71958  -0.00015  -0.00204   0.00035  -0.00143   0.71815
    D2        2.85376   0.00002  -0.00203   0.00020  -0.00166   2.85210
    D3       -1.36445  -0.00004  -0.00117  -0.00015  -0.00127  -1.36573
    D4       -0.44631   0.00004  -0.03134   0.00033  -0.03107  -0.47738
    D5       -2.56776   0.00012  -0.02876  -0.00029  -0.02919  -2.59695
    D6        1.62082   0.00005  -0.03230   0.00029  -0.03198   1.58884
    D7       -2.50983  -0.00001  -0.03093   0.00128  -0.02969  -2.53951
    D8        1.65191   0.00007  -0.02835   0.00066  -0.02781   1.62410
    D9       -0.44270   0.00000  -0.03189   0.00124  -0.03060  -0.47329
   D10        1.62194  -0.00001  -0.03023   0.00029  -0.02989   1.59205
   D11       -0.49951   0.00007  -0.02765  -0.00033  -0.02801  -0.52752
   D12       -2.59412  -0.00001  -0.03119   0.00026  -0.03080  -2.62492
   D13       -0.69690   0.00002   0.03612  -0.00100   0.03498  -0.66191
   D14        1.38706   0.00001   0.03854  -0.00026   0.03835   1.42541
   D15       -2.83466   0.00007   0.03738  -0.00079   0.03642  -2.79824
   D16        0.39022  -0.00008  -0.05401   0.00077  -0.05323   0.33699
   D17        2.50555  -0.00011  -0.06057   0.00046  -0.05999   2.44556
   D18       -1.68187  -0.00012  -0.06042  -0.00008  -0.06058  -1.74245
   D19       -1.67881  -0.00004  -0.05558  -0.00039  -0.05607  -1.73488
   D20        0.43652  -0.00007  -0.06214  -0.00070  -0.06283   0.37368
   D21        2.53228  -0.00007  -0.06199  -0.00124  -0.06342   2.46886
   D22        2.45655  -0.00000  -0.05395  -0.00012  -0.05398   2.40256
   D23       -1.71131  -0.00003  -0.06051  -0.00042  -0.06075  -1.77206
   D24        0.38446  -0.00003  -0.06036  -0.00097  -0.06134   0.32312
   D25        0.03318  -0.00005   0.04984  -0.00067   0.04914   0.08232
   D26        2.14019  -0.00005   0.04966  -0.00009   0.04965   2.18984
   D27       -2.03026  -0.00008   0.05267  -0.00085   0.05171  -1.97855
   D28       -2.06704  -0.00001   0.05476  -0.00015   0.05449  -2.01255
   D29        0.03998  -0.00001   0.05458   0.00043   0.05499   0.09497
   D30        2.15271  -0.00004   0.05759  -0.00034   0.05706   2.20977
   D31        2.10468   0.00001   0.05630   0.00044   0.05682   2.16150
   D32       -2.07149   0.00001   0.05611   0.00102   0.05732  -2.01417
   D33        0.04124  -0.00002   0.05912   0.00025   0.05938   0.10063
         Item               Value     Threshold  Converged?
 Maximum Force            0.000707     0.000015     NO 
 RMS     Force            0.000151     0.000010     NO 
 Maximum Displacement     0.101573     0.000060     NO 
 RMS     Displacement     0.029957     0.000040     NO 
 Predicted change in Energy=-7.767534D-06
 Lowest energy point so far.  Saving SCF results.
 GradGradGradGradGradGradGradGradGradGradGradGradGradGradGradGradGradGrad

 Leave Link  103 at Mon Aug 25 14:25:25 2025, MaxMem=  4294967296 cpu:               0.1 elap:               0.0
 (Enter /opt/apps/Gaussian/G16C/g16/l202.exe)
                          Input orientation:                          
 ---------------------------------------------------------------------
 Center     Atomic      Atomic             Coordinates (Angstroms)
 Number     Number       Type             X           Y           Z
 ---------------------------------------------------------------------
      1          6           0       -1.741815    0.298246    0.716069
      2          8           0       -0.929254   -0.444688   -0.182553
      3          6           0        0.159908    0.410247   -0.506820
      4          6           0       -0.429713    1.828211   -0.614157
      5          6           0       -1.769552    1.723914    0.153068
      6          1           0       -2.721423   -0.183854    0.759799
      7          1           0       -1.292908    0.281495    1.722401
      8          1           0        0.916387    0.360317    0.292227
      9          1           0        0.606285    0.043612   -1.434408
     10          1           0        0.243633    2.569947   -0.174857
     11          1           0       -0.597343    2.104097   -1.659222
     12          1           0       -1.862020    2.471109    0.946569
     13          1           0       -2.617136    1.847051   -0.528090
 ---------------------------------------------------------------------
                    Distance matrix (angstroms):
                    1          2          3          4          5
     1  C    0.000000
     2  O    1.421171   0.000000
     3  C    2.263748   1.422089   0.000000
     4  C    2.414935   2.366832   1.539414   0.000000
     5  C    1.533059   2.349803   2.425693   1.547475   0.000000
     6  H    1.092687   2.041552   3.203022   3.344862   2.216701
     7  H    1.102044   2.070853   2.663959   2.932054   2.184163
     8  H    2.692496   2.068777   1.101467   2.188203   3.015465
     9  H    3.194208   2.040455   1.092746   2.220563   3.314830
    10  H    3.145851   3.234771   2.186667   1.093869   2.208216
    11  H    3.195767   2.964291   2.184168   1.093789   2.191576
    12  H    2.188359   3.262950   3.232288   2.213750   1.093844
    13  H    2.170925   2.867126   3.126793   2.189197   1.094321
                    6          7          8          9         10
     6  H    0.000000
     7  H    1.784323   0.000000
     8  H    3.707885   2.632982   0.000000
     9  H    3.992484   3.691743   1.782620   0.000000
    10  H    4.153138   3.346275   2.356529   2.846112   0.000000
    11  H    3.949443   3.903980   3.023294   2.396845   1.768501
    12  H    2.796835   2.391697   3.550092   4.201705   2.387706
    13  H    2.407096   3.044545   3.920342   3.803190   2.971759
                   11         12         13
    11  H    0.000000
    12  H    2.919632   0.000000
    13  H    2.329184   1.770386   0.000000
 Symmetry turned off by external request.
 Stoichiometry    C4H8O
 Framework group  C1[X(C4H8O)]
 Deg. of freedom    33
 Full point group                 C1      NOp   1
 Rotational constants (GHZ):           7.1497556           6.9438005           3.9957397
 Leave Link  202 at Mon Aug 25 14:25:25 2025, MaxMem=  4294967296 cpu:               0.0 elap:               0.0
 (Enter /opt/apps/Gaussian/G16C/g16/l301.exe)
 Standard basis: 6-31+G(d) (6D, 7F)
 Ernie: Thresh=  0.10000D-02 Tol=  0.10000D-05 Strict=F.
   111 basis functions,   192 primitive gaussians,   111 cartesian basis functions
    20 alpha electrons       20 beta electrons
       nuclear repulsion energy       190.5705678467 Hartrees.
 IExCor= 4639 DFT=T Ex+Corr=wB97XD ExCW=0 ScaHFX=  1.000000
 ScaDFX=  1.000000  1.000000  1.000000  1.000000 ScalE2=  1.000000  1.000000
 IRadAn=      5 IRanWt=     -1 IRanGd=            0 ICorTp=0 IEmpDi=121
 HFx  wShort=  0.000000 wLong=  0.200000 cFull=  0.222036 cShort=  0.000000 cLong=  0.777964
 DFx  wShort=  0.000000 wLong=  0.200000 cFull=  0.000000 cShort=  0.000000 cLong=  1.000000
 NAtoms=   13 NActive=   13 NUniq=   13 SFac= 1.00D+00 NAtFMM=   60 NAOKFM=F Big=F
 Integral buffers will be    131072 words long.
 Raffenetti 2 integral format.
 Two-electron integral symmetry is turned off.
 R6Disp:  Grimme-D2 Dispersion energy=       -0.0056514360 Hartrees.
 Nuclear repulsion after empirical dispersion term =      190.5649164106 Hartrees.
 ------------------------------------------------------------------------------
 Polarizable Continuum Model (PCM)
 =================================
 Model                : PCM.
 Atomic radii         : SMD-Coulomb.
 Polarization charges : Total charges.
 Charge compensation  : None.
 Solution method      : On-the-fly selection.
 Cavity type          : VdW (van der Waals Surface) (Alpha=1.000).
 Cavity algorithm     : GePol (No added spheres)
                        Default sphere list used, NSphG=   13.
                        Lebedev-Laikov grids with approx.  5.0 points / Ang**2.
                        Smoothing algorithm: York/Karplus (Gamma=1.0000).
                        Polarization charges: spherical gaussians, with
                                              point-specific exponents (IZeta= 3).
                        Self-potential: point-specific (ISelfS= 7).
                        Self-field    : sphere-specific E.n sum rule (ISelfD= 2).
 1st derivatives      : Analytical E(r).r(x)/FMM algorithm (CHGder, D1EAlg=3).
                        Cavity 1st derivative terms included.
 Solvent              : TetraHydroFuran, Eps=   7.425700 Eps(inf)=   1.974025
 ------------------------------------------------------------------------------
 Spheres list:
 ISph  on   Nord     Re0    Alpha      Xe            Ye            Ze
    1   C      1    1.8500  1.000     -1.741815      0.298246      0.716069
    2   O      2    2.2940  1.000     -0.929254     -0.444688     -0.182553
    3   C      3    1.8500  1.000      0.159908      0.410247     -0.506820
    4   C      4    1.8500  1.000     -0.429713      1.828211     -0.614157
    5   C      5    1.8500  1.000     -1.769552      1.723914      0.153068
    6   H      6    1.2000  1.000     -2.721423     -0.183854      0.759799
    7   H      7    1.2000  1.000     -1.292908      0.281495      1.722401
    8   H      8    1.2000  1.000      0.916387      0.360317      0.292227
    9   H      9    1.2000  1.000      0.606285      0.043612     -1.434408
   10   H     10    1.2000  1.000      0.243633      2.569947     -0.174857
   11   H     11    1.2000  1.000     -0.597343      2.104097     -1.659222
   12   H     12    1.2000  1.000     -1.862020      2.471109      0.946569
   13   H     13    1.2000  1.000     -2.617136      1.847051     -0.528090
 ------------------------------------------------------------------------------
 GePol: Number of generator spheres                  =      13
 GePol: Total number of spheres                      =      13
 GePol: Number of exposed spheres                    =      13 (100.00%)
 GePol: Number of points                             =     985
 GePol: Average weight of points                     =       0.12
 GePol: Minimum weight of points                     =   0.63D-08
 GePol: Maximum weight of points                     =    0.17992
 GePol: Number of points with low weight             =      51
 GePol: Fraction of low-weight points (<1% of avg)   =       5.18%
 GePol: Cavity surface area                          =    115.739 Ang**2
 GePol: Cavity volume                                =     98.838 Ang**3
 ------------------------------------------------------------------------------
 Atomic radii for non-electrostatic terms: SMD-CDS.
 ------------------------------------------------------------------------------
 PCM non-electrostatic energy =        -0.0025668716 Hartrees.
 Nuclear repulsion after PCM non-electrostatic terms =      190.5623495390 Hartrees.
 Leave Link  301 at Mon Aug 25 14:25:25 2025, MaxMem=  4294967296 cpu:               0.1 elap:               0.0
 (Enter /opt/apps/Gaussian/G16C/g16/l302.exe)
 NPDir=0 NMtPBC=     1 NCelOv=     1 NCel=       1 NClECP=     1 NCelD=      1
         NCelK=      1 NCelE2=     1 NClLst=     1 CellRange=     0.0.
 One-electron integrals computed using PRISM.
 NBasis=   111 RedAO= T EigKep=  2.75D-05  NBF=   111
 NBsUse=   111 1.00D-06 EigRej= -1.00D+00 NBFU=   111
 Precomputing XC quadrature grid using
 IXCGrd= 4 IRadAn=           5 IRanWt=          -1 IRanGd=           0 AccXCQ= 0.00D+00.
 Generated NRdTot=       0 NPtTot=           0 NUsed=           0 NTot=          32
 NSgBfM=   111   111   111   111   111 MxSgAt=    13 MxSgA2=    13.
 Leave Link  302 at Mon Aug 25 14:25:25 2025, MaxMem=  4294967296 cpu:               0.9 elap:               0.1
 (Enter /opt/apps/Gaussian/G16C/g16/l303.exe)
 DipDrv:  MaxL=1.
 Leave Link  303 at Mon Aug 25 14:25:25 2025, MaxMem=  4294967296 cpu:               0.1 elap:               0.0
 (Enter /opt/apps/Gaussian/G16C/g16/l401.exe)
 Initial guess from the checkpoint file:  "THF-dzpop.chk"
 B after Tr=     0.000435    0.000172    0.011447
         Rot=    0.999998    0.001763   -0.000136   -0.000294 Ang=   0.21 deg.
 Guess basis will be translated and rotated to current coordinates.
 JPrj=2 DoOrth=T DoCkMO=T.
 Generating alternative initial guess.
 ExpMin= 4.38D-02 ExpMax= 5.48D+03 ExpMxC= 8.25D+02 IAcc=3 IRadAn=         5 AccDes= 0.00D+00
 Harris functional with IExCor= 4639 and IRadAn=       5 diagonalized for initial guess.
 HarFok:  IExCor= 4639 AccDes= 0.00D+00 IRadAn=         5 IDoV= 1 UseB2=F ITyADJ=14
 ICtDFT=  3500011 ScaDFX=  1.000000  1.000000  1.000000  1.000000
 FoFCou: FMM=F IPFlag=           0 FMFlag=      100000 FMFlg1=           0
         NFxFlg=           0 DoJE=T BraDBF=F KetDBF=T FulRan=T
         wScrn=  0.000000 ICntrl=       500 IOpCl=  0 I1Cent=   200000004 NGrid=           0
         NMat0=    1 NMatS0=      1 NMatT0=    0 NMatD0=    1 NMtDS0=    0 NMtDT0=    0
 Symmetry not used in FoFCou.
 Harris En= -222.058130249267    
 Leave Link  401 at Mon Aug 25 14:25:25 2025, MaxMem=  4294967296 cpu:               3.8 elap:               0.3
 (Enter /opt/apps/Gaussian/G16C/g16/l502.exe)
 Two-electron integral symmetry not used.
 Closed shell SCF:
 Using DIIS extrapolation, IDIIS=  1040.
 NGot=  4294967296 LenX=  4294939455 LenY=  4294926693
 Requested convergence on RMS density matrix=1.00D-08 within 128 cycles.
 Requested convergence on MAX density matrix=1.00D-06.
 Requested convergence on             energy=1.00D-06.
 No special actions if energy rises.
 Fock matrices will be formed incrementally for  20 cycles.

 Cycle   1  Pass 1  IDiag  1:
 FoFJK:  IHMeth= 1 ICntrl=       0 DoSepK=T KAlg= 0 I1Cent=           0 FoldK=F
 IRaf=         1 NMat=       1 IRICut=       1 DoRegI=T DoRafI=F ISym2E= 0 IDoP0=0 IntGTp=1.
 FoFCou: FMM=F IPFlag=           0 FMFlag=      100000 FMFlg1=           0
         NFxFlg=           0 DoJE=T BraDBF=F KetDBF=F FulRan=T
         wScrn=  0.000000 ICntrl=       500 IOpCl=  0 I1Cent=           0 NGrid=           0
         NMat0=    1 NMatS0=      1 NMatT0=    0 NMatD0=    1 NMtDS0=    0 NMtDT0=    0
 Symmetry not used in FoFCou.
 Inv3:  Mode=1 IEnd=     2910675.
 Iteration    1 A*A^-1 deviation from unit magnitude is 2.78D-15 for    354.
 Iteration    1 A*A^-1 deviation from orthogonality  is 2.60D-15 for    364    351.
 Iteration    1 A^-1*A deviation from unit magnitude is 2.78D-15 for    106.
 Iteration    1 A^-1*A deviation from orthogonality  is 1.33D-14 for    391    364.
 E= -232.391953744775    
 DIIS: error= 2.76D-03 at cycle   1 NSaved=   1.
 NSaved= 1 IEnMin= 1 EnMin= -232.391953744775     IErMin= 1 ErrMin= 2.76D-03
 ErrMax= 2.76D-03  0.00D+00 EMaxC= 1.00D-01 BMatC= 6.82D-04 BMatP= 6.82D-04
 IDIUse=3 WtCom= 9.72D-01 WtEn= 2.76D-02
 Coeff-Com:  0.100D+01
 Coeff-En:   0.100D+01
 Coeff:      0.100D+01
 Gap=     0.831 Goal=   None    Shift=    0.000
 GapD=    0.831 DampG=2.000 DampE=1.000 DampFc=2.0000 IDamp=-1.
 RMSDP=6.09D-04 MaxDP=8.57D-03              OVMax= 7.27D-03

 Cycle   2  Pass 1  IDiag  1:
 RMSU=  6.08D-04    CP:  9.99D-01
 E= -232.393067177770     Delta-E=       -0.001113432995 Rises=F Damp=F
 DIIS: error= 3.39D-04 at cycle   2 NSaved=   2.
 NSaved= 2 IEnMin= 2 EnMin= -232.393067177770     IErMin= 2 ErrMin= 3.39D-04
 ErrMax= 3.39D-04  0.00D+00 EMaxC= 1.00D-01 BMatC= 2.56D-05 BMatP= 6.82D-04
 IDIUse=3 WtCom= 9.97D-01 WtEn= 3.39D-03
 Coeff-Com: -0.176D+00 0.118D+01
 Coeff-En:   0.000D+00 0.100D+01
 Coeff:     -0.175D+00 0.118D+01
 Gap=     0.419 Goal=   None    Shift=    0.000
 RMSDP=1.45D-04 MaxDP=1.95D-03 DE=-1.11D-03 OVMax= 2.55D-03

 Cycle   3  Pass 1  IDiag  1:
 RMSU=  9.80D-05    CP:  9.99D-01  1.18D+00
 E= -232.393134997261     Delta-E=       -0.000067819492 Rises=F Damp=F
 DIIS: error= 5.70D-05 at cycle   3 NSaved=   3.
 NSaved= 3 IEnMin= 3 EnMin= -232.393134997261     IErMin= 3 ErrMin= 5.70D-05
 ErrMax= 5.70D-05  0.00D+00 EMaxC= 1.00D-01 BMatC= 8.38D-07 BMatP= 2.56D-05
 IDIUse=1 WtCom= 1.00D+00 WtEn= 0.00D+00
 Coeff-Com: -0.787D-02-0.425D-01 0.105D+01
 Coeff:     -0.787D-02-0.425D-01 0.105D+01
 Gap=     0.418 Goal=   None    Shift=    0.000
 RMSDP=2.97D-05 MaxDP=3.20D-04 DE=-6.78D-05 OVMax= 5.71D-04

 Cycle   4  Pass 1  IDiag  1:
 RMSU=  1.87D-05    CP:  9.99D-01  1.19D+00  1.22D+00
 E= -232.393136759691     Delta-E=       -0.000001762430 Rises=F Damp=F
 DIIS: error= 3.84D-05 at cycle   4 NSaved=   4.
 NSaved= 4 IEnMin= 4 EnMin= -232.393136759691     IErMin= 4 ErrMin= 3.84D-05
 ErrMax= 3.84D-05  0.00D+00 EMaxC= 1.00D-01 BMatC= 4.26D-07 BMatP= 8.38D-07
 IDIUse=1 WtCom= 1.00D+00 WtEn= 0.00D+00
 Coeff-Com:  0.752D-02-0.942D-01 0.475D+00 0.612D+00
 Coeff:      0.752D-02-0.942D-01 0.475D+00 0.612D+00
 Gap=     0.419 Goal=   None    Shift=    0.000
 RMSDP=8.57D-06 MaxDP=1.39D-04 DE=-1.76D-06 OVMax= 1.69D-04

 Cycle   5  Pass 1  IDiag  1:
 RMSU=  7.23D-06    CP:  9.99D-01  1.19D+00  1.27D+00  1.01D+00
 E= -232.393137143961     Delta-E=       -0.000000384270 Rises=F Damp=F
 DIIS: error= 9.34D-06 at cycle   5 NSaved=   5.
 NSaved= 5 IEnMin= 5 EnMin= -232.393137143961     IErMin= 5 ErrMin= 9.34D-06
 ErrMax= 9.34D-06  0.00D+00 EMaxC= 1.00D-01 BMatC= 2.12D-08 BMatP= 4.26D-07
 IDIUse=1 WtCom= 1.00D+00 WtEn= 0.00D+00
 Coeff-Com:  0.285D-02-0.234D-01 0.359D-01 0.178D+00 0.807D+00
 Coeff:      0.285D-02-0.234D-01 0.359D-01 0.178D+00 0.807D+00
 Gap=     0.419 Goal=   None    Shift=    0.000
 RMSDP=3.78D-06 MaxDP=5.11D-05 DE=-3.84D-07 OVMax= 6.60D-05

 Cycle   6  Pass 1  IDiag  1:
 RMSU=  1.96D-06    CP:  9.99D-01  1.19D+00  1.28D+00  1.13D+00  1.28D+00
 E= -232.393137167623     Delta-E=       -0.000000023662 Rises=F Damp=F
 DIIS: error= 3.77D-06 at cycle   6 NSaved=   6.
 NSaved= 6 IEnMin= 6 EnMin= -232.393137167623     IErMin= 6 ErrMin= 3.77D-06
 ErrMax= 3.77D-06  0.00D+00 EMaxC= 1.00D-01 BMatC= 4.03D-09 BMatP= 2.12D-08
 IDIUse=1 WtCom= 1.00D+00 WtEn= 0.00D+00
 Coeff-Com:  0.150D-03 0.317D-02-0.510D-01-0.869D-02 0.339D+00 0.717D+00
 Coeff:      0.150D-03 0.317D-02-0.510D-01-0.869D-02 0.339D+00 0.717D+00
 Gap=     0.419 Goal=   None    Shift=    0.000
 RMSDP=1.51D-06 MaxDP=2.94D-05 DE=-2.37D-08 OVMax= 2.48D-05

 Cycle   7  Pass 1  IDiag  1:
 RMSU=  5.95D-07    CP:  9.99D-01  1.19D+00  1.28D+00  1.18D+00  1.41D+00
                    CP:  1.03D+00
 E= -232.393137172279     Delta-E=       -0.000000004656 Rises=F Damp=F
 DIIS: error= 6.51D-07 at cycle   7 NSaved=   7.
 NSaved= 7 IEnMin= 7 EnMin= -232.393137172279     IErMin= 7 ErrMin= 6.51D-07
 ErrMax= 6.51D-07  0.00D+00 EMaxC= 1.00D-01 BMatC= 8.46D-11 BMatP= 4.03D-09
 IDIUse=1 WtCom= 1.00D+00 WtEn= 0.00D+00
 Coeff-Com: -0.209D-03 0.215D-02-0.744D-02-0.141D-01-0.314D-01 0.635D-01
 Coeff-Com:  0.988D+00
 Coeff:     -0.209D-03 0.215D-02-0.744D-02-0.141D-01-0.314D-01 0.635D-01
 Coeff:      0.988D+00
 Gap=     0.419 Goal=   None    Shift=    0.000
 RMSDP=5.79D-07 MaxDP=1.22D-05 DE=-4.66D-09 OVMax= 8.87D-06

 Cycle   8  Pass 1  IDiag  1:
 RMSU=  1.78D-07    CP:  9.99D-01  1.19D+00  1.28D+00  1.20D+00  1.46D+00
                    CP:  1.14D+00  1.30D+00
 E= -232.393137172520     Delta-E=       -0.000000000240 Rises=F Damp=F
 DIIS: error= 2.17D-07 at cycle   8 NSaved=   8.
 NSaved= 8 IEnMin= 8 EnMin= -232.393137172520     IErMin= 8 ErrMin= 2.17D-07
 ErrMax= 2.17D-07  0.00D+00 EMaxC= 1.00D-01 BMatC= 4.79D-12 BMatP= 8.46D-11
 IDIUse=1 WtCom= 1.00D+00 WtEn= 0.00D+00
 Coeff-Com: -0.107D-04-0.162D-03 0.300D-02 0.737D-03-0.199D-01-0.437D-01
 Coeff-Com: -0.181D-01 0.108D+01
 Coeff:     -0.107D-04-0.162D-03 0.300D-02 0.737D-03-0.199D-01-0.437D-01
 Coeff:     -0.181D-01 0.108D+01
 Gap=     0.419 Goal=   None    Shift=    0.000
 RMSDP=1.56D-07 MaxDP=3.58D-06 DE=-2.40D-10 OVMax= 2.58D-06

 Cycle   9  Pass 1  IDiag  1:
 RMSU=  4.31D-08    CP:  9.99D-01  1.19D+00  1.28D+00  1.20D+00  1.47D+00
                    CP:  1.16D+00  1.45D+00  1.37D+00
 E= -232.393137172530     Delta-E=       -0.000000000011 Rises=F Damp=F
 DIIS: error= 4.78D-08 at cycle   9 NSaved=   9.
 NSaved= 9 IEnMin= 9 EnMin= -232.393137172530     IErMin= 9 ErrMin= 4.78D-08
 ErrMax= 4.78D-08  0.00D+00 EMaxC= 1.00D-01 BMatC= 6.59D-13 BMatP= 4.79D-12
 IDIUse=1 WtCom= 1.00D+00 WtEn= 0.00D+00
 Coeff-Com:  0.116D-04-0.194D-03 0.128D-02 0.123D-02-0.279D-02-0.155D-01
 Coeff-Com: -0.743D-01 0.273D+00 0.817D+00
 Coeff:      0.116D-04-0.194D-03 0.128D-02 0.123D-02-0.279D-02-0.155D-01
 Coeff:     -0.743D-01 0.273D+00 0.817D+00
 Gap=     0.419 Goal=   None    Shift=    0.000
 RMSDP=3.20D-08 MaxDP=6.12D-07 DE=-1.09D-11 OVMax= 5.53D-07

 Cycle  10  Pass 1  IDiag  1:
 RMSU=  1.18D-08    CP:  9.99D-01  1.19D+00  1.28D+00  1.20D+00  1.47D+00
                    CP:  1.16D+00  1.47D+00  1.49D+00  1.14D+00
 E= -232.393137172533     Delta-E=       -0.000000000002 Rises=F Damp=F
 DIIS: error= 1.71D-08 at cycle  10 NSaved=  10.
 NSaved=10 IEnMin=10 EnMin= -232.393137172533     IErMin=10 ErrMin= 1.71D-08
 ErrMax= 1.71D-08  0.00D+00 EMaxC= 1.00D-01 BMatC= 6.57D-14 BMatP= 6.59D-13
 IDIUse=1 WtCom= 1.00D+00 WtEn= 0.00D+00
 Coeff-Com:  0.369D-05-0.296D-04-0.289D-05 0.219D-03 0.136D-02 0.831D-03
 Coeff-Com: -0.148D-01-0.473D-01 0.206D+00 0.853D+00
 Coeff:      0.369D-05-0.296D-04-0.289D-05 0.219D-03 0.136D-02 0.831D-03
 Coeff:     -0.148D-01-0.473D-01 0.206D+00 0.853D+00
 Gap=     0.419 Goal=   None    Shift=    0.000
 RMSDP=1.11D-08 MaxDP=1.49D-07 DE=-2.19D-12 OVMax= 1.89D-07

 Cycle  11  Pass 1  IDiag  1:
 RMSU=  3.15D-09    CP:  9.99D-01  1.19D+00  1.28D+00  1.20D+00  1.47D+00
                    CP:  1.16D+00  1.48D+00  1.52D+00  1.27D+00  1.07D+00
 E= -232.393137172539     Delta-E=       -0.000000000007 Rises=F Damp=F
 DIIS: error= 3.84D-09 at cycle  11 NSaved=  11.
 NSaved=11 IEnMin=11 EnMin= -232.393137172539     IErMin=11 ErrMin= 3.84D-09
 ErrMax= 3.84D-09  0.00D+00 EMaxC= 1.00D-01 BMatC= 2.01D-15 BMatP= 6.57D-14
 IDIUse=1 WtCom= 1.00D+00 WtEn= 0.00D+00
 Coeff-Com: -0.907D-06 0.149D-04-0.946D-04-0.912D-04 0.190D-03 0.116D-02
 Coeff-Com:  0.574D-02-0.206D-01-0.636D-01-0.231D-02 0.108D+01
 Coeff:     -0.907D-06 0.149D-04-0.946D-04-0.912D-04 0.190D-03 0.116D-02
 Coeff:      0.574D-02-0.206D-01-0.636D-01-0.231D-02 0.108D+01
 Gap=     0.419 Goal=   None    Shift=    0.000
 RMSDP=3.56D-09 MaxDP=4.33D-08 DE=-6.51D-12 OVMax= 6.27D-08

 Error on total polarization charges =  0.02884
 SCF Done:  E(RwB97XD) =  -232.393137173     A.U. after   11 cycles
            NFock= 11  Conv=0.36D-08     -V/T= 2.0094
 KE= 2.302315095829D+02 PE=-9.217874850331D+02 EE= 2.686004887387D+02
 SMD-CDS (non-electrostatic) energy       (kcal/mol) =      -1.61
 (included in total energy above)
 Leave Link  502 at Mon Aug 25 14:25:31 2025, MaxMem=  4294967296 cpu:              77.9 elap:               5.6
 (Enter /opt/apps/Gaussian/G16C/g16/l701.exe)
 ... and contract with generalized density number  0.
 Compute integral first derivatives.
 R6Disp: Adding Grimme-D2 dispersion energy 1st derivatives to the gradient.
 D1PCM: PCM CHGder 1st derivatives, ID1Alg=3 FixD1E=F DoIter=F DoCFld=F I1PDM=0.
 GePol: Maximum number of non-zero 1st derivatives   =     309
 Leave Link  701 at Mon Aug 25 14:25:31 2025, MaxMem=  4294967296 cpu:               4.0 elap:               0.3
 (Enter /opt/apps/Gaussian/G16C/g16/l702.exe)
 L702 exits ... SP integral derivatives will be done elsewhere.
 Leave Link  702 at Mon Aug 25 14:25:31 2025, MaxMem=  4294967296 cpu:               0.0 elap:               0.0
 (Enter /opt/apps/Gaussian/G16C/g16/l703.exe)
 Integral derivatives from FoFJK, PRISM(SPDF).
 Compute integral first derivatives, UseDBF=F ICtDFT=           0.
 Calling FoFJK, ICntrl=      2127 FMM=F ISym2X=0 I1Cent= 0 IOpClX= 0 NMat=1 NMatS=1 NMatT=0.
 FoFJK:  IHMeth= 1 ICntrl=    2127 DoSepK=T KAlg= 0 I1Cent=           0 FoldK=F
 IRaf=         1 NMat=       1 IRICut=       1 DoRegI=T DoRafI=F ISym2E= 0 IDoP0=0 IntGTp=1.
 FoFCou: FMM=F IPFlag=           0 FMFlag=      100000 FMFlg1=         800
         NFxFlg=           0 DoJE=F BraDBF=F KetDBF=F FulRan=T
         wScrn=  0.000000 ICntrl=      2527 IOpCl=  0 I1Cent=           0 NGrid=           0
         NMat0=    1 NMatS0=      1 NMatT0=    0 NMatD0=    1 NMtDS0=    0 NMtDT0=    0
 Symmetry not used in FoFCou.
 Leave Link  703 at Mon Aug 25 14:25:32 2025, MaxMem=  4294967296 cpu:               9.9 elap:               0.7
 (Enter /opt/apps/Gaussian/G16C/g16/l716.exe)
 Dipole        = 7.58663676D-02 8.46396812D-01 2.05752167D-01
 -------------------------------------------------------------------
 Center     Atomic                   Forces (Hartrees/Bohr)
 Number     Number              X              Y              Z
 -------------------------------------------------------------------
      1        6           0.000162429   -0.000188244    0.000060795
      2        8          -0.000276034    0.000023957   -0.000178902
      3        6           0.000210961   -0.000042501    0.000297158
      4        6          -0.000103369    0.000036907   -0.000139435
      5        6          -0.000039761    0.000050388   -0.000087517
      6        1          -0.000031842   -0.000029447    0.000067288
      7        1           0.000002127    0.000014744    0.000042238
      8        1          -0.000055076   -0.000010286   -0.000052507
      9        1           0.000050669   -0.000002318    0.000024599
     10        1           0.000074100    0.000015942   -0.000103467
     11        1           0.000015045    0.000108321    0.000016755
     12        1          -0.000062916    0.000013349    0.000003779
     13        1           0.000053665    0.000009190    0.000049214
 -------------------------------------------------------------------
 Cartesian Forces:  Max     0.000297158 RMS     0.000102268
 Leave Link  716 at Mon Aug 25 14:25:32 2025, MaxMem=  4294967296 cpu:               0.0 elap:               0.0
 (Enter /opt/apps/Gaussian/G16C/g16/l103.exe)

 GradGradGradGradGradGradGradGradGradGradGradGradGradGradGradGradGradGrad
 Berny optimization.
 Using GEDIIS/GDIIS optimizer.
 FormGI is forming the generalized inverse of G from B-inverse, IUseBI=4.
 Internal  Forces:  Max     0.000156193 RMS     0.000049324
 Search for a local minimum.
 Step number  14 out of a maximum of   81
 All quantities printed in internal units (Hartrees-Bohrs-Radians)
 RMS Force = .49324D-04 SwitMx=.10000D-02 MixMth= 2
 Mixed Optimization -- En-DIIS/RFO-DIIS
 Swapping is turned off.
 Update second derivatives using D2CorX and points   10   11   12   13   14
 DE= -5.27D-07 DEPred=-7.77D-06 R= 6.78D-02
 Trust test= 6.78D-02 RLast= 2.66D-01 DXMaxT set to 1.00D+00
 ITU= -1  1  1  1  1  1  1  1  1  1  1  1  1  0
     Eigenvalues ---    0.00013   0.00813   0.02706   0.03798   0.05006
     Eigenvalues ---    0.05114   0.05648   0.05954   0.06029   0.06502
     Eigenvalues ---    0.06967   0.07290   0.07815   0.09851   0.10927
     Eigenvalues ---    0.11346   0.11702   0.13009   0.22105   0.26798
     Eigenvalues ---    0.26893   0.29601   0.32206   0.34400   0.37066
     Eigenvalues ---    0.37185   0.37232   0.37245   0.37304   0.37374
     Eigenvalues ---    0.37627   0.38970   0.49407
 En-DIIS/RFO-DIIS/Sim-DIIS IScMMF=       -3 using points:    14   13   12   11   10    9    8    7    6    5
 RFO step:  Lambda=-1.06603377D-05.
 NNeg= 0 NGDIIS=10 SimSw=  2.50D-03 Rises=F DC= -5.27D-07 SmlDif=  1.00D-05
 NRisDI= 0 DoIntr=F SqrtH=F CThrHd= 10.0 CDAdj=  3.0
 RMS Error=  0.2838043624D-01 NUsed=10 OKEnD=F EnDIS=F
 InvSVX:  RCond= 1.76D-11 Info=           0 Equed=N FErr=  4.08D-06 BErr=  9.60D-17
 DIIS inversion failure, remove point  10.
 InvSVX:  RCond= 3.72D-10 Info=           0 Equed=N FErr=  2.03D-07 BErr=  9.86D-17
 DIIS inversion failure, remove point   9.
 InvSVX:  RCond= 4.47D-10 Info=           0 Equed=N FErr=  1.72D-07 BErr=  9.99D-17
 DIIS inversion failure, remove point   8.
 InvSVX:  RCond= 1.18D-08 Info=           0 Equed=N FErr=  7.08D-09 BErr=  8.99D-17
 DIIS inversion failure, remove point   7.
 InvSVX:  RCond= 5.63D-08 Info=           0 Equed=N FErr=  1.52D-09 BErr=  6.92D-17
 DIIS inversion failure, remove point   6.
 InvSVX:  RCond= 2.02D-07 Info=           0 Equed=N FErr=  2.84D-10 BErr=  8.62D-17
 DIIS inversion failure, remove point   5.
 InvSVX:  RCond= 6.28D-07 Info=           0 Equed=N FErr=  5.09D-11 BErr=  8.32D-17
 RFO-DIIS uses    4 points instead of   10
 DidBck=F Rises=F RFO-DIIS coefs:    1.08822    0.45407   -0.53837   -0.00392    0.00000
                  RFO-DIIS coefs:    0.00000    0.00000    0.00000    0.00000    0.00000
 Iteration  1 RMS(Cart)=  0.03819397 RMS(Int)=  0.00073451
 Iteration  2 RMS(Cart)=  0.00082338 RMS(Int)=  0.00026818
 Iteration  3 RMS(Cart)=  0.00000008 RMS(Int)=  0.00026818
 ITry= 1 IFail=0 DXMaxC= 1.28D-01 DCOld= 1.00D+10 DXMaxT= 1.00D+00 DXLimC= 3.00D+00 Rises=F
 Variable       Old X    -DE/DX   Delta X   Delta X   Delta X     New X
                                 (Linear)    (Quad)   (Total)
    R1        2.68562  -0.00008   0.00017   0.00018   0.00053   2.68615
    R2        2.89706   0.00016   0.00427   0.00036   0.00466   2.90172
    R3        2.06488   0.00004  -0.00033   0.00029  -0.00004   2.06484
    R4        2.08256   0.00004  -0.00053   0.00016  -0.00037   2.08219
    R5        2.68736   0.00011  -0.00182   0.00041  -0.00130   2.68606
    R6        2.90907   0.00014  -0.00433   0.00040  -0.00405   2.90502
    R7        2.08147  -0.00008   0.00060  -0.00007   0.00053   2.08200
    R8        2.06499   0.00000  -0.00041   0.00023  -0.00018   2.06481
    R9        2.92430   0.00008   0.00190   0.00018   0.00188   2.92619
   R10        2.06711   0.00002  -0.00041   0.00028  -0.00013   2.06699
   R11        2.06696   0.00001  -0.00005   0.00023   0.00019   2.06715
   R12        2.06707   0.00002  -0.00023   0.00026   0.00003   2.06710
   R13        2.06797  -0.00007  -0.00081   0.00014  -0.00067   2.06730
    A1        1.83825  -0.00003   0.00413  -0.00031   0.00331   1.84156
    A2        1.88309   0.00000   0.00046  -0.00027   0.00037   1.88346
    A3        1.91405   0.00004  -0.00163  -0.00007  -0.00154   1.91251
    A4        1.99191   0.00001  -0.00087   0.00027  -0.00040   1.99151
    A5        1.93569   0.00002  -0.00126   0.00040  -0.00086   1.93483
    A6        1.89857  -0.00003  -0.00071  -0.00006  -0.00082   1.89775
    A7        1.84191  -0.00000  -0.00506   0.00048  -0.00506   1.83685
    A8        1.85074   0.00001  -0.00502  -0.00034  -0.00618   1.84457
    A9        1.91064   0.00001   0.00039   0.00027   0.00093   1.91157
   A10        1.88043  -0.00002   0.00278  -0.00047   0.00258   1.88301
   A11        1.93413   0.00005  -0.00018   0.00027   0.00019   1.93432
   A12        1.98922  -0.00004   0.00113   0.00043   0.00181   1.99103
   A13        1.89657  -0.00002   0.00088  -0.00018   0.00061   1.89718
   A14        1.80799  -0.00009  -0.00226  -0.00002  -0.00342   1.80457
   A15        1.93994  -0.00002   0.00409  -0.00049   0.00397   1.94391
   A16        1.93655   0.00009  -0.00474   0.00058  -0.00387   1.93268
   A17        1.96012   0.00006   0.00502   0.00022   0.00556   1.96568
   A18        1.93693   0.00003  -0.00305   0.00029  -0.00245   1.93449
   A19        1.88285  -0.00007   0.00074  -0.00053   0.00003   1.88288
   A20        1.80194   0.00004   0.00233   0.00038   0.00171   1.80365
   A21        1.95020  -0.00002  -0.00449   0.00035  -0.00386   1.94634
   A22        1.92543  -0.00001   0.00442  -0.00047   0.00425   1.92967
   A23        1.96797  -0.00000  -0.00175   0.00065  -0.00079   1.96718
   A24        1.93309  -0.00000   0.00098  -0.00053   0.00068   1.93377
   A25        1.88515  -0.00001  -0.00117  -0.00037  -0.00171   1.88344
    D1        0.71815   0.00006  -0.00541  -0.00038  -0.00603   0.71212
    D2        2.85210   0.00006  -0.00391  -0.00038  -0.00446   2.84764
    D3       -1.36573   0.00004  -0.00541  -0.00064  -0.00609  -1.37182
    D4       -0.47738  -0.00004   0.04421   0.00082   0.04507  -0.43231
    D5       -2.59695  -0.00005   0.04722  -0.00038   0.04697  -2.54998
    D6        1.58884  -0.00002   0.04866   0.00018   0.04881   1.63765
    D7       -2.53951  -0.00002   0.04143   0.00121   0.04267  -2.49685
    D8        1.62410  -0.00003   0.04443   0.00001   0.04457   1.66867
    D9       -0.47329  -0.00000   0.04587   0.00057   0.04641  -0.42689
   D10        1.59205  -0.00000   0.04403   0.00077   0.04473   1.63677
   D11       -0.52752  -0.00002   0.04704  -0.00043   0.04663  -0.48089
   D12       -2.62492   0.00002   0.04847   0.00013   0.04847  -2.57645
   D13       -0.66191  -0.00011  -0.03766  -0.00022  -0.03771  -0.69963
   D14        1.42541  -0.00004  -0.04053   0.00005  -0.04050   1.38491
   D15       -2.79824  -0.00007  -0.03769  -0.00028  -0.03778  -2.83602
   D16        0.33699   0.00006   0.06366   0.00051   0.06416   0.40116
   D17        2.44556   0.00007   0.07037   0.00050   0.07077   2.51633
   D18       -1.74245   0.00003   0.07087  -0.00010   0.07086  -1.67159
   D19       -1.73488   0.00001   0.06626   0.00023   0.06658  -1.66830
   D20        0.37368   0.00003   0.07297   0.00023   0.07319   0.44688
   D21        2.46886  -0.00002   0.07347  -0.00038   0.07328   2.54214
   D22        2.40256   0.00002   0.06440  -0.00005   0.06428   2.46684
   D23       -1.77206   0.00004   0.07111  -0.00006   0.07089  -1.70117
   D24        0.32312  -0.00000   0.07161  -0.00067   0.07097   0.39409
   D25        0.08232  -0.00003  -0.06329  -0.00077  -0.06401   0.01831
   D26        2.18984  -0.00003  -0.06816   0.00023  -0.06799   2.12185
   D27       -1.97855  -0.00005  -0.07018  -0.00018  -0.07025  -2.04880
   D28       -2.01255   0.00001  -0.06939  -0.00028  -0.06954  -2.08209
   D29        0.09497   0.00001  -0.07426   0.00072  -0.07353   0.02144
   D30        2.20977  -0.00001  -0.07628   0.00030  -0.07579   2.13398
   D31        2.16150   0.00004  -0.07166   0.00004  -0.07169   2.08981
   D32       -2.01417   0.00004  -0.07652   0.00104  -0.07567  -2.08984
   D33        0.10063   0.00002  -0.07855   0.00063  -0.07793   0.02269
         Item               Value     Threshold  Converged?
 Maximum Force            0.000156     0.000015     NO 
 RMS     Force            0.000049     0.000010     NO 
 Maximum Displacement     0.128430     0.000060     NO 
 RMS     Displacement     0.038206     0.000040     NO 
 Predicted change in Energy=-3.935353D-06
 Lowest energy point so far.  Saving SCF results.
 GradGradGradGradGradGradGradGradGradGradGradGradGradGradGradGradGradGrad

 Leave Link  103 at Mon Aug 25 14:25:32 2025, MaxMem=  4294967296 cpu:               0.1 elap:               0.0
 (Enter /opt/apps/Gaussian/G16C/g16/l202.exe)
                          Input orientation:                          
 ---------------------------------------------------------------------
 Center     Atomic      Atomic             Coordinates (Angstroms)
 Number     Number       Type             X           Y           Z
 ---------------------------------------------------------------------
      1          6           0       -1.747357    0.289453    0.701297
      2          8           0       -0.927154   -0.442333   -0.199967
      3          6           0        0.166056    0.417635   -0.492771
      4          6           0       -0.437838    1.824271   -0.633771
      5          6           0       -1.758302    1.729903    0.169496
      6          1           0       -2.730941   -0.185982    0.722298
      7          1           0       -1.312623    0.248029    1.712909
      8          1           0        0.892623    0.384388    0.334779
      9          1           0        0.650651    0.047625   -1.399493
     10          1           0        0.238727    2.589659   -0.242820
     11          1           0       -0.636988    2.056743   -1.683955
     12          1           0       -1.809969    2.457981    0.984213
     13          1           0       -2.621834    1.892334   -0.482189
 ---------------------------------------------------------------------
                    Distance matrix (angstroms):
                    1          2          3          4          5
     1  C    0.000000
     2  O    1.421451   0.000000
     3  C    2.259066   1.421403   0.000000
     4  C    2.419279   2.359048   1.537268   0.000000
     5  C    1.535522   2.354978   2.421528   1.548472   0.000000
     6  H    1.092665   2.042042   3.198959   3.337418   2.218611
     7  H    1.101847   2.069851   2.660880   2.959171   2.185567
     8  H    2.666991   2.069060   1.101745   2.186659   2.977436
     9  H    3.197225   2.041663   1.092651   2.219822   3.330892
    10  H    3.182269   3.248706   2.187566   1.093802   2.212986
    11  H    3.169489   2.920924   2.179558   1.093888   2.190765
    12  H    2.187802   3.254761   3.201433   2.214092   1.093860
    13  H    2.175908   2.898665   3.153916   2.190308   1.093968
                    6          7          8          9         10
     6  H    0.000000
     7  H    1.783620   0.000000
     8  H    3.688591   2.604024   0.000000
     9  H    3.998967   3.685329   1.783161   0.000000
    10  H    4.177866   3.422688   2.371586   2.823033   0.000000
    11  H    3.899296   3.907251   3.035089   2.403224   1.768543
    12  H    2.811997   2.379546   3.467788   4.188857   2.391674
    13  H    2.404598   3.039116   3.910594   3.866983   2.954043
                   11         12         13
    11  H    0.000000
    12  H    2.942108   0.000000
    13  H    2.326132   1.769016   0.000000
 Symmetry turned off by external request.
 Stoichiometry    C4H8O
 Framework group  C1[X(C4H8O)]
 Deg. of freedom    33
 Full point group                 C1      NOp   1
 Rotational constants (GHZ):           7.1537762           6.9431353           4.0007732
 Leave Link  202 at Mon Aug 25 14:25:32 2025, MaxMem=  4294967296 cpu:               0.0 elap:               0.0
 (Enter /opt/apps/Gaussian/G16C/g16/l301.exe)
 Standard basis: 6-31+G(d) (6D, 7F)
 Ernie: Thresh=  0.10000D-02 Tol=  0.10000D-05 Strict=F.
   111 basis functions,   192 primitive gaussians,   111 cartesian basis functions
    20 alpha electrons       20 beta electrons
       nuclear repulsion energy       190.6045902174 Hartrees.
 IExCor= 4639 DFT=T Ex+Corr=wB97XD ExCW=0 ScaHFX=  1.000000
 ScaDFX=  1.000000  1.000000  1.000000  1.000000 ScalE2=  1.000000  1.000000
 IRadAn=      5 IRanWt=     -1 IRanGd=            0 ICorTp=0 IEmpDi=121
 HFx  wShort=  0.000000 wLong=  0.200000 cFull=  0.222036 cShort=  0.000000 cLong=  0.777964
 DFx  wShort=  0.000000 wLong=  0.200000 cFull=  0.000000 cShort=  0.000000 cLong=  1.000000
 NAtoms=   13 NActive=   13 NUniq=   13 SFac= 1.00D+00 NAtFMM=   60 NAOKFM=F Big=F
 Integral buffers will be    131072 words long.
 Raffenetti 2 integral format.
 Two-electron integral symmetry is turned off.
 R6Disp:  Grimme-D2 Dispersion energy=       -0.0056533914 Hartrees.
 Nuclear repulsion after empirical dispersion term =      190.5989368260 Hartrees.
 ------------------------------------------------------------------------------
 Polarizable Continuum Model (PCM)
 =================================
 Model                : PCM.
 Atomic radii         : SMD-Coulomb.
 Polarization charges : Total charges.
 Charge compensation  : None.
 Solution method      : On-the-fly selection.
 Cavity type          : VdW (van der Waals Surface) (Alpha=1.000).
 Cavity algorithm     : GePol (No added spheres)
                        Default sphere list used, NSphG=   13.
                        Lebedev-Laikov grids with approx.  5.0 points / Ang**2.
                        Smoothing algorithm: York/Karplus (Gamma=1.0000).
                        Polarization charges: spherical gaussians, with
                                              point-specific exponents (IZeta= 3).
                        Self-potential: point-specific (ISelfS= 7).
                        Self-field    : sphere-specific E.n sum rule (ISelfD= 2).
 1st derivatives      : Analytical E(r).r(x)/FMM algorithm (CHGder, D1EAlg=3).
                        Cavity 1st derivative terms included.
 Solvent              : TetraHydroFuran, Eps=   7.425700 Eps(inf)=   1.974025
 ------------------------------------------------------------------------------
 Spheres list:
 ISph  on   Nord     Re0    Alpha      Xe            Ye            Ze
    1   C      1    1.8500  1.000     -1.747357      0.289453      0.701297
    2   O      2    2.2940  1.000     -0.927154     -0.442333     -0.199967
    3   C      3    1.8500  1.000      0.166056      0.417635     -0.492771
    4   C      4    1.8500  1.000     -0.437838      1.824271     -0.633771
    5   C      5    1.8500  1.000     -1.758302      1.729903      0.169496
    6   H      6    1.2000  1.000     -2.730941     -0.185982      0.722298
    7   H      7    1.2000  1.000     -1.312623      0.248029      1.712909
    8   H      8    1.2000  1.000      0.892623      0.384388      0.334779
    9   H      9    1.2000  1.000      0.650651      0.047625     -1.399493
   10   H     10    1.2000  1.000      0.238727      2.589659     -0.242820
   11   H     11    1.2000  1.000     -0.636988      2.056743     -1.683955
   12   H     12    1.2000  1.000     -1.809969      2.457981      0.984213
   13   H     13    1.2000  1.000     -2.621834      1.892334     -0.482189
 ------------------------------------------------------------------------------
 GePol: Number of generator spheres                  =      13
 GePol: Total number of spheres                      =      13
 GePol: Number of exposed spheres                    =      13 (100.00%)
 GePol: Number of points                             =     980
 GePol: Average weight of points                     =       0.12
 GePol: Minimum weight of points                     =   0.22D-07
 GePol: Maximum weight of points                     =    0.17992
 GePol: Number of points with low weight             =      47
 GePol: Fraction of low-weight points (<1% of avg)   =       4.80%
 GePol: Cavity surface area                          =    115.880 Ang**2
 GePol: Cavity volume                                =     98.792 Ang**3
 ------------------------------------------------------------------------------
 Atomic radii for non-electrostatic terms: SMD-CDS.
 ------------------------------------------------------------------------------
 PCM non-electrostatic energy =        -0.0025663032 Hartrees.
 Nuclear repulsion after PCM non-electrostatic terms =      190.5963705227 Hartrees.
 Leave Link  301 at Mon Aug 25 14:25:32 2025, MaxMem=  4294967296 cpu:               0.1 elap:               0.0
 (Enter /opt/apps/Gaussian/G16C/g16/l302.exe)
 NPDir=0 NMtPBC=     1 NCelOv=     1 NCel=       1 NClECP=     1 NCelD=      1
         NCelK=      1 NCelE2=     1 NClLst=     1 CellRange=     0.0.
 One-electron integrals computed using PRISM.
 NBasis=   111 RedAO= T EigKep=  2.64D-05  NBF=   111
 NBsUse=   111 1.00D-06 EigRej= -1.00D+00 NBFU=   111
 Precomputing XC quadrature grid using
 IXCGrd= 4 IRadAn=           5 IRanWt=          -1 IRanGd=           0 AccXCQ= 0.00D+00.
 Generated NRdTot=       0 NPtTot=           0 NUsed=           0 NTot=          32
 NSgBfM=   111   111   111   111   111 MxSgAt=    13 MxSgA2=    13.
 Leave Link  302 at Mon Aug 25 14:25:32 2025, MaxMem=  4294967296 cpu:               0.8 elap:               0.1
 (Enter /opt/apps/Gaussian/G16C/g16/l303.exe)
 DipDrv:  MaxL=1.
 Leave Link  303 at Mon Aug 25 14:25:32 2025, MaxMem=  4294967296 cpu:               0.1 elap:               0.0
 (Enter /opt/apps/Gaussian/G16C/g16/l401.exe)
 Initial guess from the checkpoint file:  "THF-dzpop.chk"
 B after Tr=     0.001613    0.000624   -0.010366
         Rot=    0.999999   -0.001585    0.000292   -0.000041 Ang=  -0.18 deg.
 Guess basis will be translated and rotated to current coordinates.
 JPrj=2 DoOrth=T DoCkMO=T.
 Generating alternative initial guess.
 ExpMin= 4.38D-02 ExpMax= 5.48D+03 ExpMxC= 8.25D+02 IAcc=3 IRadAn=         5 AccDes= 0.00D+00
 Harris functional with IExCor= 4639 and IRadAn=       5 diagonalized for initial guess.
 HarFok:  IExCor= 4639 AccDes= 0.00D+00 IRadAn=         5 IDoV= 1 UseB2=F ITyADJ=14
 ICtDFT=  3500011 ScaDFX=  1.000000  1.000000  1.000000  1.000000
 FoFCou: FMM=F IPFlag=           0 FMFlag=      100000 FMFlg1=           0
         NFxFlg=           0 DoJE=T BraDBF=F KetDBF=T FulRan=T
         wScrn=  0.000000 ICntrl=       500 IOpCl=  0 I1Cent=   200000004 NGrid=           0
         NMat0=    1 NMatS0=      1 NMatT0=    0 NMatD0=    1 NMtDS0=    0 NMtDT0=    0
 Symmetry not used in FoFCou.
 Harris En= -222.058154633941    
 Leave Link  401 at Mon Aug 25 14:25:32 2025, MaxMem=  4294967296 cpu:               3.3 elap:               0.3
 (Enter /opt/apps/Gaussian/G16C/g16/l502.exe)
 Two-electron integral symmetry not used.
 Closed shell SCF:
 Using DIIS extrapolation, IDIIS=  1040.
 NGot=  4294967296 LenX=  4294939455 LenY=  4294926693
 Requested convergence on RMS density matrix=1.00D-08 within 128 cycles.
 Requested convergence on MAX density matrix=1.00D-06.
 Requested convergence on             energy=1.00D-06.
 No special actions if energy rises.
 Fock matrices will be formed incrementally for  20 cycles.

 Cycle   1  Pass 1  IDiag  1:
 FoFJK:  IHMeth= 1 ICntrl=       0 DoSepK=T KAlg= 0 I1Cent=           0 FoldK=F
 IRaf=         1 NMat=       1 IRICut=       1 DoRegI=T DoRafI=F ISym2E= 0 IDoP0=0 IntGTp=1.
 FoFCou: FMM=F IPFlag=           0 FMFlag=      100000 FMFlg1=           0
         NFxFlg=           0 DoJE=T BraDBF=F KetDBF=F FulRan=T
         wScrn=  0.000000 ICntrl=       500 IOpCl=  0 I1Cent=           0 NGrid=           0
         NMat0=    1 NMatS0=      1 NMatT0=    0 NMatD0=    1 NMtDS0=    0 NMtDT0=    0
 Symmetry not used in FoFCou.
 Inv3:  Mode=1 IEnd=     2881200.
 Iteration    1 A*A^-1 deviation from unit magnitude is 3.89D-15 for    975.
 Iteration    1 A*A^-1 deviation from orthogonality  is 1.54D-15 for    379    343.
 Iteration    1 A^-1*A deviation from unit magnitude is 4.11D-15 for    975.
 Iteration    1 A^-1*A deviation from orthogonality  is 2.09D-15 for    409    364.
 E= -232.391284631423    
 DIIS: error= 3.30D-03 at cycle   1 NSaved=   1.
 NSaved= 1 IEnMin= 1 EnMin= -232.391284631423     IErMin= 1 ErrMin= 3.30D-03
 ErrMax= 3.30D-03  0.00D+00 EMaxC= 1.00D-01 BMatC= 1.07D-03 BMatP= 1.07D-03
 IDIUse=3 WtCom= 9.67D-01 WtEn= 3.30D-02
 Coeff-Com:  0.100D+01
 Coeff-En:   0.100D+01
 Coeff:      0.100D+01
 Gap=     0.833 Goal=   None    Shift=    0.000
 GapD=    0.833 DampG=2.000 DampE=1.000 DampFc=2.0000 IDamp=-1.
 RMSDP=7.80D-04 MaxDP=1.06D-02              OVMax= 1.01D-02

 Cycle   2  Pass 1  IDiag  1:
 RMSU=  7.80D-04    CP:  1.00D+00
 E= -232.393033510240     Delta-E=       -0.001748878817 Rises=F Damp=F
 DIIS: error= 4.51D-04 at cycle   2 NSaved=   2.
 NSaved= 2 IEnMin= 2 EnMin= -232.393033510240     IErMin= 2 ErrMin= 4.51D-04
 ErrMax= 4.51D-04  0.00D+00 EMaxC= 1.00D-01 BMatC= 4.00D-05 BMatP= 1.07D-03
 IDIUse=3 WtCom= 9.95D-01 WtEn= 4.51D-03
 Coeff-Com: -0.176D+00 0.118D+01
 Coeff-En:   0.000D+00 0.100D+01
 Coeff:     -0.175D+00 0.118D+01
 Gap=     0.419 Goal=   None    Shift=    0.000
 RMSDP=1.82D-04 MaxDP=2.46D-03 DE=-1.75D-03 OVMax= 3.49D-03

 Cycle   3  Pass 1  IDiag  1:
 RMSU=  1.20D-04    CP:  1.00D+00  1.18D+00
 E= -232.393139966836     Delta-E=       -0.000106456596 Rises=F Damp=F
 DIIS: error= 7.79D-05 at cycle   3 NSaved=   3.
 NSaved= 3 IEnMin= 3 EnMin= -232.393139966836     IErMin= 3 ErrMin= 7.79D-05
 ErrMax= 7.79D-05  0.00D+00 EMaxC= 1.00D-01 BMatC= 1.00D-06 BMatP= 4.00D-05
 IDIUse=1 WtCom= 1.00D+00 WtEn= 0.00D+00
 Coeff-Com:  0.605D-03-0.992D-01 0.110D+01
 Coeff:      0.605D-03-0.992D-01 0.110D+01
 Gap=     0.419 Goal=   None    Shift=    0.000
 RMSDP=3.73D-05 MaxDP=3.99D-04 DE=-1.06D-04 OVMax= 8.38D-04

 Cycle   4  Pass 1  IDiag  1:
 RMSU=  2.14D-05    CP:  1.00D+00  1.19D+00  1.24D+00
 E= -232.393142812064     Delta-E=       -0.000002845227 Rises=F Damp=F
 DIIS: error= 2.55D-05 at cycle   4 NSaved=   4.
 NSaved= 4 IEnMin= 4 EnMin= -232.393142812064     IErMin= 4 ErrMin= 2.55D-05
 ErrMax= 2.55D-05  0.00D+00 EMaxC= 1.00D-01 BMatC= 2.54D-07 BMatP= 1.00D-06
 IDIUse=1 WtCom= 1.00D+00 WtEn= 0.00D+00
 Coeff-Com:  0.720D-02-0.829D-01 0.385D+00 0.691D+00
 Coeff:      0.720D-02-0.829D-01 0.385D+00 0.691D+00
 Gap=     0.419 Goal=   None    Shift=    0.000
 RMSDP=8.46D-06 MaxDP=9.34D-05 DE=-2.85D-06 OVMax= 1.67D-04

 Cycle   5  Pass 1  IDiag  1:
 RMSU=  7.30D-06    CP:  1.00D+00  1.19D+00  1.27D+00  1.09D+00
 E= -232.393143109319     Delta-E=       -0.000000297255 Rises=F Damp=F
 DIIS: error= 6.67D-06 at cycle   5 NSaved=   5.
 NSaved= 5 IEnMin= 5 EnMin= -232.393143109319     IErMin= 5 ErrMin= 6.67D-06
 ErrMax= 6.67D-06  0.00D+00 EMaxC= 1.00D-01 BMatC= 1.24D-08 BMatP= 2.54D-07
 IDIUse=1 WtCom= 1.00D+00 WtEn= 0.00D+00
 Coeff-Com:  0.981D-03-0.201D-02-0.637D-01 0.105D+00 0.959D+00
 Coeff:      0.981D-03-0.201D-02-0.637D-01 0.105D+00 0.959D+00
 Gap=     0.419 Goal=   None    Shift=    0.000
 RMSDP=4.33D-06 MaxDP=7.15D-05 DE=-2.97D-07 OVMax= 8.94D-05

 Cycle   6  Pass 1  IDiag  1:
 RMSU=  1.50D-06    CP:  1.00D+00  1.19D+00  1.28D+00  1.26D+00  1.22D+00
 E= -232.393143133240     Delta-E=       -0.000000023921 Rises=F Damp=F
 DIIS: error= 2.46D-06 at cycle   6 NSaved=   6.
 NSaved= 6 IEnMin= 6 EnMin= -232.393143133240     IErMin= 6 ErrMin= 2.46D-06
 ErrMax= 2.46D-06  0.00D+00 EMaxC= 1.00D-01 BMatC= 1.21D-09 BMatP= 1.24D-08
 IDIUse=1 WtCom= 1.00D+00 WtEn= 0.00D+00
 Coeff-Com: -0.438D-04 0.332D-02-0.374D-01 0.400D-03 0.289D+00 0.745D+00
 Coeff:     -0.438D-04 0.332D-02-0.374D-01 0.400D-03 0.289D+00 0.745D+00
 Gap=     0.419 Goal=   None    Shift=    0.000
 RMSDP=9.66D-07 MaxDP=1.92D-05 DE=-2.39D-08 OVMax= 1.76D-05

 Cycle   7  Pass 1  IDiag  1:
 RMSU=  4.37D-07    CP:  1.00D+00  1.19D+00  1.28D+00  1.28D+00  1.30D+00
                    CP:  1.16D+00
 E= -232.393143134541     Delta-E=       -0.000000001301 Rises=F Damp=F
 DIIS: error= 1.27D-06 at cycle   7 NSaved=   7.
 NSaved= 7 IEnMin= 7 EnMin= -232.393143134541     IErMin= 7 ErrMin= 1.27D-06
 ErrMax= 1.27D-06  0.00D+00 EMaxC= 1.00D-01 BMatC= 3.60D-10 BMatP= 1.21D-09
 IDIUse=1 WtCom= 1.00D+00 WtEn= 0.00D+00
 Coeff-Com: -0.197D-03 0.207D-02-0.775D-02-0.181D-01-0.221D-01 0.362D+00
 Coeff-Com:  0.684D+00
 Coeff:     -0.197D-03 0.207D-02-0.775D-02-0.181D-01-0.221D-01 0.362D+00
 Coeff:      0.684D+00
 Gap=     0.419 Goal=   None    Shift=    0.000
 RMSDP=4.43D-07 MaxDP=8.83D-06 DE=-1.30D-09 OVMax= 8.03D-06

 Cycle   8  Pass 1  IDiag  1:
 RMSU=  1.62D-07    CP:  1.00D+00  1.19D+00  1.27D+00  1.29D+00  1.33D+00
                    CP:  1.30D+00  1.10D+00
 E= -232.393143134909     Delta-E=       -0.000000000369 Rises=F Damp=F
 DIIS: error= 2.53D-07 at cycle   8 NSaved=   8.
 NSaved= 8 IEnMin= 8 EnMin= -232.393143134909     IErMin= 8 ErrMin= 2.53D-07
 ErrMax= 2.53D-07  0.00D+00 EMaxC= 1.00D-01 BMatC= 6.72D-12 BMatP= 3.60D-10
 IDIUse=1 WtCom= 1.00D+00 WtEn= 0.00D+00
 Coeff-Com: -0.155D-05-0.246D-03 0.331D-02-0.229D-03-0.266D-01-0.677D-01
 Coeff-Com: -0.659D-02 0.110D+01
 Coeff:     -0.155D-05-0.246D-03 0.331D-02-0.229D-03-0.266D-01-0.677D-01
 Coeff:     -0.659D-02 0.110D+01
 Gap=     0.419 Goal=   None    Shift=    0.000
 RMSDP=1.81D-07 MaxDP=3.86D-06 DE=-3.69D-10 OVMax= 3.08D-06

 Cycle   9  Pass 1  IDiag  1:
 RMSU=  4.41D-08    CP:  1.00D+00  1.19D+00  1.27D+00  1.30D+00  1.34D+00
                    CP:  1.37D+00  1.27D+00  1.35D+00
 E= -232.393143134933     Delta-E=       -0.000000000024 Rises=F Damp=F
 DIIS: error= 3.52D-08 at cycle   9 NSaved=   9.
 NSaved= 9 IEnMin= 9 EnMin= -232.393143134933     IErMin= 9 ErrMin= 3.52D-08
 ErrMax= 3.52D-08  0.00D+00 EMaxC= 1.00D-01 BMatC= 3.36D-13 BMatP= 6.72D-12
 IDIUse=1 WtCom= 1.00D+00 WtEn= 0.00D+00
 Coeff-Com:  0.977D-05-0.130D-03 0.672D-03 0.980D-03-0.926D-03-0.242D-01
 Coeff-Com: -0.368D-01 0.921D-01 0.968D+00
 Coeff:      0.977D-05-0.130D-03 0.672D-03 0.980D-03-0.926D-03-0.242D-01
 Coeff:     -0.368D-01 0.921D-01 0.968D+00
 Gap=     0.419 Goal=   None    Shift=    0.000
 RMSDP=3.17D-08 MaxDP=6.18D-07 DE=-2.42D-11 OVMax= 4.79D-07

 Cycle  10  Pass 1  IDiag  1:
 RMSU=  8.78D-09    CP:  1.00D+00  1.19D+00  1.27D+00  1.30D+00  1.34D+00
                    CP:  1.37D+00  1.31D+00  1.46D+00  1.23D+00
 E= -232.393143134931     Delta-E=        0.000000000002 Rises=F Damp=F
 DIIS: error= 1.37D-08 at cycle  10 NSaved=  10.
 NSaved=10 IEnMin= 9 EnMin= -232.393143134933     IErMin=10 ErrMin= 1.37D-08
 ErrMax= 1.37D-08  0.00D+00 EMaxC= 1.00D-01 BMatC= 5.59D-14 BMatP= 3.36D-13
 IDIUse=1 WtCom= 1.00D+00 WtEn= 0.00D+00
 Coeff-Com:  0.274D-05-0.205D-04-0.232D-04 0.292D-03 0.145D-02-0.243D-02
 Coeff-Com: -0.999D-02-0.448D-01 0.279D+00 0.777D+00
 Coeff:      0.274D-05-0.205D-04-0.232D-04 0.292D-03 0.145D-02-0.243D-02
 Coeff:     -0.999D-02-0.448D-01 0.279D+00 0.777D+00
 Gap=     0.419 Goal=   None    Shift=    0.000
 RMSDP=7.80D-09 MaxDP=9.04D-08 DE= 2.10D-12 OVMax= 1.06D-07

 Error on total polarization charges =  0.02884
 SCF Done:  E(RwB97XD) =  -232.393143135     A.U. after   10 cycles
            NFock= 10  Conv=0.78D-08     -V/T= 2.0094
 KE= 2.302313318686D+02 PE=-9.218535509425D+02 EE= 2.686327054163D+02
 SMD-CDS (non-electrostatic) energy       (kcal/mol) =      -1.61
 (included in total energy above)
 Leave Link  502 at Mon Aug 25 14:25:38 2025, MaxMem=  4294967296 cpu:              71.8 elap:               5.2
 (Enter /opt/apps/Gaussian/G16C/g16/l701.exe)
 ... and contract with generalized density number  0.
 Compute integral first derivatives.
 R6Disp: Adding Grimme-D2 dispersion energy 1st derivatives to the gradient.
 D1PCM: PCM CHGder 1st derivatives, ID1Alg=3 FixD1E=F DoIter=F DoCFld=F I1PDM=0.
 GePol: Maximum number of non-zero 1st derivatives   =     305
 Leave Link  701 at Mon Aug 25 14:25:38 2025, MaxMem=  4294967296 cpu:               4.9 elap:               0.4
 (Enter /opt/apps/Gaussian/G16C/g16/l702.exe)
 L702 exits ... SP integral derivatives will be done elsewhere.
 Leave Link  702 at Mon Aug 25 14:25:38 2025, MaxMem=  4294967296 cpu:               0.0 elap:               0.0
 (Enter /opt/apps/Gaussian/G16C/g16/l703.exe)
 Integral derivatives from FoFJK, PRISM(SPDF).
 Compute integral first derivatives, UseDBF=F ICtDFT=           0.
 Calling FoFJK, ICntrl=      2127 FMM=F ISym2X=0 I1Cent= 0 IOpClX= 0 NMat=1 NMatS=1 NMatT=0.
 FoFJK:  IHMeth= 1 ICntrl=    2127 DoSepK=T KAlg= 0 I1Cent=           0 FoldK=F
 IRaf=         1 NMat=       1 IRICut=       1 DoRegI=T DoRafI=F ISym2E= 0 IDoP0=0 IntGTp=1.
 FoFCou: FMM=F IPFlag=           0 FMFlag=      100000 FMFlg1=         800
         NFxFlg=           0 DoJE=F BraDBF=F KetDBF=F FulRan=T
         wScrn=  0.000000 ICntrl=      2527 IOpCl=  0 I1Cent=           0 NGrid=           0
         NMat0=    1 NMatS0=      1 NMatT0=    0 NMatD0=    1 NMtDS0=    0 NMtDT0=    0
 Symmetry not used in FoFCou.
 Leave Link  703 at Mon Aug 25 14:25:39 2025, MaxMem=  4294967296 cpu:               9.9 elap:               0.7
 (Enter /opt/apps/Gaussian/G16C/g16/l716.exe)
 Dipole        = 7.81957797D-02 8.39967330D-01 2.18836509D-01
 -------------------------------------------------------------------
 Center     Atomic                   Forces (Hartrees/Bohr)
 Number     Number              X              Y              Z
 -------------------------------------------------------------------
      1        6          -0.000125578   -0.000083429   -0.000050914
      2        8          -0.000013742   -0.000043083    0.000222646
      3        6           0.000140232    0.000113347   -0.000134551
      4        6          -0.000152757   -0.000073191    0.000078262
      5        6           0.000162327    0.000107767   -0.000050460
      6        1          -0.000027543   -0.000033341   -0.000029237
      7        1          -0.000008717   -0.000012883    0.000014778
      8        1          -0.000008667    0.000014817   -0.000033165
      9        1          -0.000025572   -0.000033368   -0.000040183
     10        1           0.000009211    0.000044794    0.000085865
     11        1           0.000032743   -0.000023969   -0.000056758
     12        1           0.000058042    0.000025247    0.000017102
     13        1          -0.000039980   -0.000002708   -0.000023384
 -------------------------------------------------------------------
 Cartesian Forces:  Max     0.000222646 RMS     0.000077066
 Leave Link  716 at Mon Aug 25 14:25:39 2025, MaxMem=  4294967296 cpu:               0.0 elap:               0.0
 (Enter /opt/apps/Gaussian/G16C/g16/l103.exe)

 GradGradGradGradGradGradGradGradGradGradGradGradGradGradGradGradGradGrad
 Berny optimization.
 Using GEDIIS/GDIIS optimizer.
 FormGI is forming the generalized inverse of G from B-inverse, IUseBI=4.
 Internal  Forces:  Max     0.000137984 RMS     0.000038491
 Search for a local minimum.
 Step number  15 out of a maximum of   81
 All quantities printed in internal units (Hartrees-Bohrs-Radians)
 RMS Force = .38491D-04 SwitMx=.10000D-02 MixMth= 2
 Mixed Optimization -- En-DIIS/RFO-DIIS
 Swapping is turned off.
 Update second derivatives using D2CorX and points   11   13   14   15
 DE= -5.96D-06 DEPred=-3.94D-06 R= 1.52D+00
 TightC=F SS=  1.41D+00  RLast= 3.38D-01 DXNew= 1.6837D+00 1.0130D+00
 Trust test= 1.52D+00 RLast= 3.38D-01 DXMaxT set to 1.01D+00
 ITU=  1 -1  1  1  1  1  1  1  1  1  1  1  1  1  0
     Eigenvalues ---    0.00012   0.00769   0.02694   0.03829   0.04982
     Eigenvalues ---    0.05149   0.05653   0.05966   0.06059   0.06490
     Eigenvalues ---    0.06951   0.07298   0.07913   0.09777   0.10987
     Eigenvalues ---    0.11355   0.11687   0.13019   0.22040   0.26343
     Eigenvalues ---    0.26760   0.29456   0.32290   0.33971   0.37087
     Eigenvalues ---    0.37186   0.37220   0.37238   0.37260   0.37347
     Eigenvalues ---    0.37562   0.39580   0.50689
 En-DIIS/RFO-DIIS/Sim-DIIS IScMMF=       -3 using points:    15   14   13   12   11   10    9    8    7    6
 RFO step:  Lambda=-2.97406881D-06.
 NNeg= 0 NGDIIS=10 SimSw=  2.50D-03 Rises=F DC= -5.96D-06 SmlDif=  1.00D-05
 NRisDI= 0 DoIntr=F SqrtH=F CThrHd= 10.0 CDAdj=  3.0
 RMS Error=  0.6858177119D-02 NUsed=10 OKEnD=F EnDIS=F
 InvSVX:  RCond= 1.58D-10 Info=           0 Equed=N FErr=  7.58D-07 BErr=  1.12D-16
 DIIS inversion failure, remove point  10.
 InvSVX:  RCond= 1.93D-10 Info=           0 Equed=N FErr=  6.27D-07 BErr=  8.79D-17
 DIIS inversion failure, remove point   9.
 InvSVX:  RCond= 5.51D-09 Info=           0 Equed=N FErr=  8.52D-09 BErr=  1.28D-16
 DIIS inversion failure, remove point   8.
 InvSVX:  RCond= 2.42D-08 Info=           0 Equed=N FErr=  3.37D-09 BErr=  1.01D-16
 DIIS inversion failure, remove point   7.
 InvSVX:  RCond= 1.21D-07 Info=           0 Equed=N FErr=  5.43D-10 BErr=  1.03D-16
 DIIS inversion failure, remove point   6.
 InvSVX:  RCond= 3.18D-07 Info=           0 Equed=N FErr=  4.76D-11 BErr=  4.47D-17
 RFO-DIIS uses    5 points instead of   10
 DidBck=F Rises=F RFO-DIIS coefs:    1.30112   -0.05170   -0.44610    0.30119   -0.10452
                  RFO-DIIS coefs:    0.00000    0.00000    0.00000    0.00000    0.00000
 Iteration  1 RMS(Cart)=  0.01367795 RMS(Int)=  0.00020574
 Iteration  2 RMS(Cart)=  0.00010607 RMS(Int)=  0.00018526
 Iteration  3 RMS(Cart)=  0.00000000 RMS(Int)=  0.00018526
 ITry= 1 IFail=0 DXMaxC= 4.65D-02 DCOld= 1.00D+10 DXMaxT= 1.01D+00 DXLimC= 3.00D+00 Rises=F
 Variable       Old X    -DE/DX   Delta X   Delta X   Delta X     New X
                                 (Linear)    (Quad)   (Total)
    R1        2.68615  -0.00002  -0.00042  -0.00003  -0.00059   2.68556
    R2        2.90172   0.00010  -0.00054  -0.00024  -0.00081   2.90090
    R3        2.06484   0.00004   0.00024  -0.00005   0.00018   2.06502
    R4        2.08219   0.00001   0.00015   0.00001   0.00016   2.08235
    R5        2.68606   0.00014   0.00131  -0.00014   0.00109   2.68716
    R6        2.90502  -0.00003   0.00172  -0.00023   0.00158   2.90659
    R7        2.08200  -0.00003  -0.00071   0.00015  -0.00056   2.08144
    R8        2.06481   0.00003   0.00019  -0.00005   0.00014   2.06495
    R9        2.92619  -0.00010  -0.00106  -0.00018  -0.00111   2.92508
   R10        2.06699   0.00007   0.00024  -0.00000   0.00023   2.06722
   R11        2.06715   0.00004   0.00006  -0.00002   0.00003   2.06718
   R12        2.06710   0.00003   0.00017  -0.00010   0.00008   2.06717
   R13        2.06730   0.00004  -0.00010   0.00022   0.00011   2.06741
    A1        1.84156  -0.00004  -0.00100  -0.00009  -0.00075   1.84080
    A2        1.88346   0.00001  -0.00016  -0.00008  -0.00037   1.88310
    A3        1.91251  -0.00001   0.00093  -0.00007   0.00076   1.91327
    A4        1.99151   0.00005   0.00051  -0.00013   0.00023   1.99174
    A5        1.93483  -0.00001  -0.00008   0.00018   0.00010   1.93493
    A6        1.89775  -0.00001  -0.00017   0.00018   0.00004   1.89779
    A7        1.83685   0.00005   0.00266   0.00003   0.00304   1.83989
    A8        1.84457  -0.00004   0.00193   0.00003   0.00254   1.84711
    A9        1.91157   0.00000  -0.00016   0.00006  -0.00028   1.91129
   A10        1.88301   0.00002  -0.00088  -0.00020  -0.00128   1.88173
   A11        1.93432  -0.00002   0.00031  -0.00018   0.00006   1.93438
   A12        1.99103   0.00004  -0.00103   0.00023  -0.00097   1.99006
   A13        1.89718   0.00001  -0.00017   0.00005  -0.00006   1.89712
   A14        1.80457   0.00006   0.00112  -0.00005   0.00187   1.80644
   A15        1.94391  -0.00001  -0.00164   0.00012  -0.00178   1.94213
   A16        1.93268  -0.00004   0.00178  -0.00018   0.00140   1.93408
   A17        1.96568  -0.00003  -0.00245  -0.00003  -0.00271   1.96297
   A18        1.93449  -0.00001   0.00155   0.00006   0.00140   1.93588
   A19        1.88288   0.00003  -0.00028   0.00006  -0.00008   1.88280
   A20        1.80365   0.00003  -0.00087   0.00012  -0.00009   1.80356
   A21        1.94634   0.00001   0.00100   0.00010   0.00090   1.94724
   A22        1.92967  -0.00003  -0.00089  -0.00020  -0.00129   1.92838
   A23        1.96718  -0.00002  -0.00053   0.00009  -0.00065   1.96653
   A24        1.93377  -0.00002   0.00020   0.00006   0.00009   1.93387
   A25        1.88344   0.00002   0.00098  -0.00015   0.00094   1.88438
    D1        0.71212  -0.00008  -0.00094  -0.00008  -0.00086   0.71126
    D2        2.84764  -0.00003  -0.00099  -0.00033  -0.00120   2.84644
    D3       -1.37182  -0.00004  -0.00076  -0.00021  -0.00094  -1.37275
    D4       -0.43231   0.00004  -0.01400   0.00005  -0.01398  -0.44630
    D5       -2.54998   0.00004  -0.01336  -0.00017  -0.01362  -2.56360
    D6        1.63765   0.00003  -0.01464   0.00009  -0.01453   1.62312
    D7       -2.49685   0.00003  -0.01343   0.00029  -0.01317  -2.51001
    D8        1.66867   0.00003  -0.01278   0.00006  -0.01280   1.65587
    D9       -0.42689   0.00001  -0.01407   0.00033  -0.01372  -0.44060
   D10        1.63677   0.00001  -0.01353   0.00001  -0.01347   1.62330
   D11       -0.48089   0.00001  -0.01288  -0.00021  -0.01311  -0.49400
   D12       -2.57645  -0.00001  -0.01417   0.00005  -0.01402  -2.59047
   D13       -0.69963   0.00006   0.01618   0.00003   0.01610  -0.68352
   D14        1.38491   0.00001   0.01757  -0.00013   0.01747   1.40238
   D15       -2.83602   0.00003   0.01679  -0.00015   0.01651  -2.81951
   D16        0.40116  -0.00004  -0.02433  -0.00002  -0.02434   0.37682
   D17        2.51633  -0.00005  -0.02741  -0.00002  -0.02736   2.48897
   D18       -1.67159  -0.00005  -0.02767   0.00003  -0.02771  -1.69930
   D19       -1.66830  -0.00001  -0.02545  -0.00002  -0.02553  -1.69383
   D20        0.44688  -0.00002  -0.02854  -0.00002  -0.02855   0.41833
   D21        2.54214  -0.00001  -0.02880   0.00003  -0.02890   2.51324
   D22        2.46684  -0.00002  -0.02471  -0.00012  -0.02478   2.44206
   D23       -1.70117  -0.00003  -0.02780  -0.00011  -0.02780  -1.72897
   D24        0.39409  -0.00003  -0.02806  -0.00007  -0.02815   0.36595
   D25        0.01831  -0.00002   0.02238  -0.00000   0.02235   0.04066
   D26        2.12185   0.00001   0.02276   0.00023   0.02304   2.14489
   D27       -2.04880   0.00001   0.02380   0.00014   0.02387  -2.02494
   D28       -2.08209  -0.00002   0.02492  -0.00010   0.02473  -2.05736
   D29        0.02144  -0.00000   0.02530   0.00013   0.02542   0.04686
   D30        2.13398  -0.00000   0.02634   0.00004   0.02625   2.16023
   D31        2.08981  -0.00003   0.02588  -0.00021   0.02572   2.11553
   D32       -2.08984  -0.00001   0.02626   0.00003   0.02641  -2.06343
   D33        0.02269  -0.00001   0.02730  -0.00007   0.02724   0.04993
         Item               Value     Threshold  Converged?
 Maximum Force            0.000138     0.000015     NO 
 RMS     Force            0.000038     0.000010     NO 
 Maximum Displacement     0.046540     0.000060     NO 
 RMS     Displacement     0.013677     0.000040     NO 
 Predicted change in Energy=-9.337584D-07
 Lowest energy point so far.  Saving SCF results.
 GradGradGradGradGradGradGradGradGradGradGradGradGradGradGradGradGradGrad

 Leave Link  103 at Mon Aug 25 14:25:39 2025, MaxMem=  4294967296 cpu:               0.1 elap:               0.0
 (Enter /opt/apps/Gaussian/G16C/g16/l202.exe)
                          Input orientation:                          
 ---------------------------------------------------------------------
 Center     Atomic      Atomic             Coordinates (Angstroms)
 Number     Number       Type             X           Y           Z
 ---------------------------------------------------------------------
      1          6           0       -1.745930    0.292179    0.706828
      2          8           0       -0.926629   -0.443733   -0.191400
      3          6           0        0.164504    0.415065   -0.497876
      4          6           0       -0.435099    1.825585   -0.626981
      5          6           0       -1.762318    1.727815    0.163513
      6          1           0       -2.728054   -0.186168    0.734117
      7          1           0       -1.308404    0.260095    1.717668
      8          1           0        0.903289    0.376677    0.318158
      9          1           0        0.633842    0.045752   -1.412962
     10          1           0        0.240194    2.582912   -0.218192
     11          1           0       -0.622535    2.073783   -1.675739
     12          1           0       -1.827200    2.462728    0.971172
     13          1           0       -2.620611    1.877016   -0.498279
 ---------------------------------------------------------------------
                    Distance matrix (angstroms):
                    1          2          3          4          5
     1  C    0.000000
     2  O    1.421138   0.000000
     3  C    2.261896   1.421982   0.000000
     4  C    2.418400   2.362443   1.538102   0.000000
     5  C    1.535093   2.353712   2.423508   1.547885   0.000000
     6  H    1.092761   2.041581   3.200965   3.340266   2.218460
     7  H    1.101934   2.070185   2.664979   2.951407   2.185323
     8  H    2.678912   2.069136   1.101449   2.187214   2.992482
     9  H    3.196491   2.041294   1.092727   2.219956   3.325085
    10  H    3.169828   3.243883   2.187125   1.093926   2.210643
    11  H    3.180056   2.938303   2.181315   1.093905   2.191266
    12  H    2.188097   3.257317   3.212151   2.213140   1.093901
    13  H    2.174639   2.889572   3.145500   2.189903   1.094028
                    6          7          8          9         10
     6  H    0.000000
     7  H    1.783797   0.000000
     8  H    3.698171   2.619887   0.000000
     9  H    3.995758   3.690408   1.782944   0.000000
    10  H    4.169555   3.397233   2.365341   2.831893   0.000000
    11  H    3.917651   3.908337   3.030500   2.400092   1.768603
    12  H    2.807914   2.382856   3.497657   4.193160   2.388126
    13  H    2.405633   3.040846   3.916052   3.844690   2.959890
                   11         12         13
    11  H    0.000000
    12  H    2.934047   0.000000
    13  H    2.327539   1.769702   0.000000
 Symmetry turned off by external request.
 Stoichiometry    C4H8O
 Framework group  C1[X(C4H8O)]
 Deg. of freedom    33
 Full point group                 C1      NOp   1
 Rotational constants (GHZ):           7.1505112           6.9418519           3.9963952
 Leave Link  202 at Mon Aug 25 14:25:39 2025, MaxMem=  4294967296 cpu:               0.0 elap:               0.0
 (Enter /opt/apps/Gaussian/G16C/g16/l301.exe)
 Standard basis: 6-31+G(d) (6D, 7F)
 Ernie: Thresh=  0.10000D-02 Tol=  0.10000D-05 Strict=F.
   111 basis functions,   192 primitive gaussians,   111 cartesian basis functions
    20 alpha electrons       20 beta electrons
       nuclear repulsion energy       190.5668766169 Hartrees.
 IExCor= 4639 DFT=T Ex+Corr=wB97XD ExCW=0 ScaHFX=  1.000000
 ScaDFX=  1.000000  1.000000  1.000000  1.000000 ScalE2=  1.000000  1.000000
 IRadAn=      5 IRanWt=     -1 IRanGd=            0 ICorTp=0 IEmpDi=121
 HFx  wShort=  0.000000 wLong=  0.200000 cFull=  0.222036 cShort=  0.000000 cLong=  0.777964
 DFx  wShort=  0.000000 wLong=  0.200000 cFull=  0.000000 cShort=  0.000000 cLong=  1.000000
 NAtoms=   13 NActive=   13 NUniq=   13 SFac= 1.00D+00 NAtFMM=   60 NAOKFM=F Big=F
 Integral buffers will be    131072 words long.
 Raffenetti 2 integral format.
 Two-electron integral symmetry is turned off.
 R6Disp:  Grimme-D2 Dispersion energy=       -0.0056515086 Hartrees.
 Nuclear repulsion after empirical dispersion term =      190.5612251084 Hartrees.
 ------------------------------------------------------------------------------
 Polarizable Continuum Model (PCM)
 =================================
 Model                : PCM.
 Atomic radii         : SMD-Coulomb.
 Polarization charges : Total charges.
 Charge compensation  : None.
 Solution method      : On-the-fly selection.
 Cavity type          : VdW (van der Waals Surface) (Alpha=1.000).
 Cavity algorithm     : GePol (No added spheres)
                        Default sphere list used, NSphG=   13.
                        Lebedev-Laikov grids with approx.  5.0 points / Ang**2.
                        Smoothing algorithm: York/Karplus (Gamma=1.0000).
                        Polarization charges: spherical gaussians, with
                                              point-specific exponents (IZeta= 3).
                        Self-potential: point-specific (ISelfS= 7).
                        Self-field    : sphere-specific E.n sum rule (ISelfD= 2).
 1st derivatives      : Analytical E(r).r(x)/FMM algorithm (CHGder, D1EAlg=3).
                        Cavity 1st derivative terms included.
 Solvent              : TetraHydroFuran, Eps=   7.425700 Eps(inf)=   1.974025
 ------------------------------------------------------------------------------
 Spheres list:
 ISph  on   Nord     Re0    Alpha      Xe            Ye            Ze
    1   C      1    1.8500  1.000     -1.745930      0.292179      0.706828
    2   O      2    2.2940  1.000     -0.926629     -0.443733     -0.191400
    3   C      3    1.8500  1.000      0.164504      0.415065     -0.497876
    4   C      4    1.8500  1.000     -0.435099      1.825585     -0.626981
    5   C      5    1.8500  1.000     -1.762318      1.727815      0.163513
    6   H      6    1.2000  1.000     -2.728054     -0.186168      0.734117
    7   H      7    1.2000  1.000     -1.308404      0.260095      1.717668
    8   H      8    1.2000  1.000      0.903289      0.376677      0.318158
    9   H      9    1.2000  1.000      0.633842      0.045752     -1.412962
   10   H     10    1.2000  1.000      0.240194      2.582912     -0.218192
   11   H     11    1.2000  1.000     -0.622535      2.073783     -1.675739
   12   H     12    1.2000  1.000     -1.827200      2.462728      0.971172
   13   H     13    1.2000  1.000     -2.620611      1.877016     -0.498279
 ------------------------------------------------------------------------------
 GePol: Number of generator spheres                  =      13
 GePol: Total number of spheres                      =      13
 GePol: Number of exposed spheres                    =      13 (100.00%)
 GePol: Number of points                             =     978
 GePol: Average weight of points                     =       0.12
 GePol: Minimum weight of points                     =   0.24D-07
 GePol: Maximum weight of points                     =    0.17992
 GePol: Number of points with low weight             =      43
 GePol: Fraction of low-weight points (<1% of avg)   =       4.40%
 GePol: Cavity surface area                          =    115.856 Ang**2
 GePol: Cavity volume                                =     98.830 Ang**3
 ------------------------------------------------------------------------------
 Atomic radii for non-electrostatic terms: SMD-CDS.
 ------------------------------------------------------------------------------
 PCM non-electrostatic energy =        -0.0025659567 Hartrees.
 Nuclear repulsion after PCM non-electrostatic terms =      190.5586591516 Hartrees.
 Leave Link  301 at Mon Aug 25 14:25:39 2025, MaxMem=  4294967296 cpu:               0.1 elap:               0.0
 (Enter /opt/apps/Gaussian/G16C/g16/l302.exe)
 NPDir=0 NMtPBC=     1 NCelOv=     1 NCel=       1 NClECP=     1 NCelD=      1
         NCelK=      1 NCelE2=     1 NClLst=     1 CellRange=     0.0.
 One-electron integrals computed using PRISM.
 NBasis=   111 RedAO= T EigKep=  2.66D-05  NBF=   111
 NBsUse=   111 1.00D-06 EigRej= -1.00D+00 NBFU=   111
 Precomputing XC quadrature grid using
 IXCGrd= 4 IRadAn=           5 IRanWt=          -1 IRanGd=           0 AccXCQ= 0.00D+00.
 Generated NRdTot=       0 NPtTot=           0 NUsed=           0 NTot=          32
 NSgBfM=   111   111   111   111   111 MxSgAt=    13 MxSgA2=    13.
 Leave Link  302 at Mon Aug 25 14:25:39 2025, MaxMem=  4294967296 cpu:               1.1 elap:               0.1
 (Enter /opt/apps/Gaussian/G16C/g16/l303.exe)
 DipDrv:  MaxL=1.
 Leave Link  303 at Mon Aug 25 14:25:39 2025, MaxMem=  4294967296 cpu:               0.1 elap:               0.0
 (Enter /opt/apps/Gaussian/G16C/g16/l401.exe)
 Initial guess from the checkpoint file:  "THF-dzpop.chk"
 B after Tr=     0.000258    0.000101    0.005245
         Rot=    1.000000    0.000801   -0.000075   -0.000132 Ang=   0.09 deg.
 Guess basis will be translated and rotated to current coordinates.
 JPrj=2 DoOrth=T DoCkMO=T.
 Generating alternative initial guess.
 ExpMin= 4.38D-02 ExpMax= 5.48D+03 ExpMxC= 8.25D+02 IAcc=3 IRadAn=         5 AccDes= 0.00D+00
 Harris functional with IExCor= 4639 and IRadAn=       5 diagonalized for initial guess.
 HarFok:  IExCor= 4639 AccDes= 0.00D+00 IRadAn=         5 IDoV= 1 UseB2=F ITyADJ=14
 ICtDFT=  3500011 ScaDFX=  1.000000  1.000000  1.000000  1.000000
 FoFCou: FMM=F IPFlag=           0 FMFlag=      100000 FMFlg1=           0
         NFxFlg=           0 DoJE=T BraDBF=F KetDBF=T FulRan=T
         wScrn=  0.000000 ICntrl=       500 IOpCl=  0 I1Cent=   200000004 NGrid=           0
         NMat0=    1 NMatS0=      1 NMatT0=    0 NMatD0=    1 NMtDS0=    0 NMtDT0=    0
 Symmetry not used in FoFCou.
 Harris En= -222.058186103024    
 Leave Link  401 at Mon Aug 25 14:25:39 2025, MaxMem=  4294967296 cpu:               3.3 elap:               0.3
 (Enter /opt/apps/Gaussian/G16C/g16/l502.exe)
 Two-electron integral symmetry not used.
 Closed shell SCF:
 Using DIIS extrapolation, IDIIS=  1040.
 NGot=  4294967296 LenX=  4294939455 LenY=  4294926693
 Requested convergence on RMS density matrix=1.00D-08 within 128 cycles.
 Requested convergence on MAX density matrix=1.00D-06.
 Requested convergence on             energy=1.00D-06.
 No special actions if energy rises.
 Fock matrices will be formed incrementally for  20 cycles.

 Cycle   1  Pass 1  IDiag  1:
 FoFJK:  IHMeth= 1 ICntrl=       0 DoSepK=T KAlg= 0 I1Cent=           0 FoldK=F
 IRaf=         1 NMat=       1 IRICut=       1 DoRegI=T DoRafI=F ISym2E= 0 IDoP0=0 IntGTp=1.
 FoFCou: FMM=F IPFlag=           0 FMFlag=      100000 FMFlg1=           0
         NFxFlg=           0 DoJE=T BraDBF=F KetDBF=F FulRan=T
         wScrn=  0.000000 ICntrl=       500 IOpCl=  0 I1Cent=           0 NGrid=           0
         NMat0=    1 NMatS0=      1 NMatT0=    0 NMatD0=    1 NMtDS0=    0 NMtDT0=    0
 Symmetry not used in FoFCou.
 Inv3:  Mode=1 IEnd=     2869452.
 Iteration    1 A*A^-1 deviation from unit magnitude is 5.22D-15 for    974.
 Iteration    1 A*A^-1 deviation from orthogonality  is 1.51D-15 for    678    497.
 Iteration    1 A^-1*A deviation from unit magnitude is 5.22D-15 for    974.
 Iteration    1 A^-1*A deviation from orthogonality  is 1.09D-14 for    505    471.
 E= -232.392896571955    
 DIIS: error= 1.20D-03 at cycle   1 NSaved=   1.
 NSaved= 1 IEnMin= 1 EnMin= -232.392896571955     IErMin= 1 ErrMin= 1.20D-03
 ErrMax= 1.20D-03  0.00D+00 EMaxC= 1.00D-01 BMatC= 1.42D-04 BMatP= 1.42D-04
 IDIUse=3 WtCom= 9.88D-01 WtEn= 1.20D-02
 Coeff-Com:  0.100D+01
 Coeff-En:   0.100D+01
 Coeff:      0.100D+01
 Gap=     0.832 Goal=   None    Shift=    0.000
 GapD=    0.832 DampG=2.000 DampE=1.000 DampFc=2.0000 IDamp=-1.
 RMSDP=2.81D-04 MaxDP=3.75D-03              OVMax= 3.52D-03

 Cycle   2  Pass 1  IDiag  1:
 RMSU=  2.81D-04    CP:  1.00D+00
 E= -232.393128756931     Delta-E=       -0.000232184976 Rises=F Damp=F
 DIIS: error= 1.52D-04 at cycle   2 NSaved=   2.
 NSaved= 2 IEnMin= 2 EnMin= -232.393128756931     IErMin= 2 ErrMin= 1.52D-04
 ErrMax= 1.52D-04  0.00D+00 EMaxC= 1.00D-01 BMatC= 5.34D-06 BMatP= 1.42D-04
 IDIUse=3 WtCom= 9.98D-01 WtEn= 1.52D-03
 Coeff-Com: -0.176D+00 0.118D+01
 Coeff-En:   0.000D+00 0.100D+01
 Coeff:     -0.176D+00 0.118D+01
 Gap=     0.419 Goal=   None    Shift=    0.000
 RMSDP=6.61D-05 MaxDP=9.16D-04 DE=-2.32D-04 OVMax= 1.22D-03

 Cycle   3  Pass 1  IDiag  1:
 RMSU=  4.45D-05    CP:  1.00D+00  1.17D+00
 E= -232.393142896668     Delta-E=       -0.000014139737 Rises=F Damp=F
 DIIS: error= 2.76D-05 at cycle   3 NSaved=   3.
 NSaved= 3 IEnMin= 3 EnMin= -232.393142896668     IErMin= 3 ErrMin= 2.76D-05
 ErrMax= 2.76D-05  0.00D+00 EMaxC= 1.00D-01 BMatC= 1.71D-07 BMatP= 5.34D-06
 IDIUse=1 WtCom= 1.00D+00 WtEn= 0.00D+00
 Coeff-Com: -0.742D-02-0.455D-01 0.105D+01
 Coeff:     -0.742D-02-0.455D-01 0.105D+01
 Gap=     0.419 Goal=   None    Shift=    0.000
 RMSDP=1.33D-05 MaxDP=1.46D-04 DE=-1.41D-05 OVMax= 2.78D-04

 Cycle   4  Pass 1  IDiag  1:
 RMSU=  8.41D-06    CP:  1.00D+00  1.19D+00  1.22D+00
 E= -232.393143263951     Delta-E=       -0.000000367283 Rises=F Damp=F
 DIIS: error= 1.64D-05 at cycle   4 NSaved=   4.
 NSaved= 4 IEnMin= 4 EnMin= -232.393143263951     IErMin= 4 ErrMin= 1.64D-05
 ErrMax= 1.64D-05  0.00D+00 EMaxC= 1.00D-01 BMatC= 8.21D-08 BMatP= 1.71D-07
 IDIUse=1 WtCom= 1.00D+00 WtEn= 0.00D+00
 Coeff-Com:  0.745D-02-0.928D-01 0.466D+00 0.619D+00
 Coeff:      0.745D-02-0.928D-01 0.466D+00 0.619D+00
 Gap=     0.419 Goal=   None    Shift=    0.000
 RMSDP=3.74D-06 MaxDP=6.06D-05 DE=-3.67D-07 OVMax= 7.38D-05

 Cycle   5  Pass 1  IDiag  1:
 RMSU=  3.18D-06    CP:  1.00D+00  1.19D+00  1.26D+00  1.00D+00
 E= -232.393143339030     Delta-E=       -0.000000075078 Rises=F Damp=F
 DIIS: error= 4.67D-06 at cycle   5 NSaved=   5.
 NSaved= 5 IEnMin= 5 EnMin= -232.393143339030     IErMin= 5 ErrMin= 4.67D-06
 ErrMax= 4.67D-06  0.00D+00 EMaxC= 1.00D-01 BMatC= 4.39D-09 BMatP= 8.21D-08
 IDIUse=1 WtCom= 1.00D+00 WtEn= 0.00D+00
 Coeff-Com:  0.283D-02-0.232D-01 0.348D-01 0.183D+00 0.802D+00
 Coeff:      0.283D-02-0.232D-01 0.348D-01 0.183D+00 0.802D+00
 Gap=     0.419 Goal=   None    Shift=    0.000
 RMSDP=1.60D-06 MaxDP=2.28D-05 DE=-7.51D-08 OVMax= 3.08D-05

 Cycle   6  Pass 1  IDiag  1:
 RMSU=  8.59D-07    CP:  1.00D+00  1.19D+00  1.27D+00  1.11D+00  1.26D+00
 E= -232.393143343853     Delta-E=       -0.000000004823 Rises=F Damp=F
 DIIS: error= 1.92D-06 at cycle   6 NSaved=   6.
 NSaved= 6 IEnMin= 6 EnMin= -232.393143343853     IErMin= 6 ErrMin= 1.92D-06
 ErrMax= 1.92D-06  0.00D+00 EMaxC= 1.00D-01 BMatC= 8.41D-10 BMatP= 4.39D-09
 IDIUse=1 WtCom= 1.00D+00 WtEn= 0.00D+00
 Coeff-Com:  0.170D-03 0.290D-02-0.498D-01-0.610D-02 0.341D+00 0.712D+00
 Coeff:      0.170D-03 0.290D-02-0.498D-01-0.610D-02 0.341D+00 0.712D+00
 Gap=     0.419 Goal=   None    Shift=    0.000
 RMSDP=6.50D-07 MaxDP=1.28D-05 DE=-4.82D-09 OVMax= 1.18D-05

 Cycle   7  Pass 1  IDiag  1:
 RMSU=  2.69D-07    CP:  1.00D+00  1.19D+00  1.27D+00  1.17D+00  1.38D+00
                    CP:  1.03D+00
 E= -232.393143344794     Delta-E=       -0.000000000942 Rises=F Damp=F
 DIIS: error= 3.13D-07 at cycle   7 NSaved=   7.
 NSaved= 7 IEnMin= 7 EnMin= -232.393143344794     IErMin= 7 ErrMin= 3.13D-07
 ErrMax= 3.13D-07  0.00D+00 EMaxC= 1.00D-01 BMatC= 1.84D-11 BMatP= 8.41D-10
 IDIUse=1 WtCom= 1.00D+00 WtEn= 0.00D+00
 Coeff-Com: -0.210D-03 0.221D-02-0.821D-02-0.149D-01-0.267D-01 0.753D-01
 Coeff-Com:  0.972D+00
 Coeff:     -0.210D-03 0.221D-02-0.821D-02-0.149D-01-0.267D-01 0.753D-01
 Coeff:      0.972D+00
 Gap=     0.419 Goal=   None    Shift=    0.000
 RMSDP=2.53D-07 MaxDP=5.17D-06 DE=-9.42D-10 OVMax= 4.28D-06

 Cycle   8  Pass 1  IDiag  1:
 RMSU=  7.82D-08    CP:  1.00D+00  1.19D+00  1.27D+00  1.18D+00  1.43D+00
                    CP:  1.15D+00  1.29D+00
 E= -232.393143344844     Delta-E=       -0.000000000050 Rises=F Damp=F
 DIIS: error= 9.38D-08 at cycle   8 NSaved=   8.
 NSaved= 8 IEnMin= 8 EnMin= -232.393143344844     IErMin= 8 ErrMin= 9.38D-08
 ErrMax= 9.38D-08  0.00D+00 EMaxC= 1.00D-01 BMatC= 1.00D-12 BMatP= 1.84D-11
 IDIUse=1 WtCom= 1.00D+00 WtEn= 0.00D+00
 Coeff-Com: -0.125D-04-0.143D-03 0.295D-02 0.559D-03-0.203D-01-0.437D-01
 Coeff-Com: -0.167D-01 0.108D+01
 Coeff:     -0.125D-04-0.143D-03 0.295D-02 0.559D-03-0.203D-01-0.437D-01
 Coeff:     -0.167D-01 0.108D+01
 Gap=     0.419 Goal=   None    Shift=    0.000
 RMSDP=7.08D-08 MaxDP=1.60D-06 DE=-4.95D-11 OVMax= 1.10D-06

 Cycle   9  Pass 1  IDiag  1:
 RMSU=  1.91D-08    CP:  1.00D+00  1.19D+00  1.27D+00  1.18D+00  1.44D+00
                    CP:  1.18D+00  1.43D+00  1.36D+00
 E= -232.393143344843     Delta-E=        0.000000000000 Rises=F Damp=F
 DIIS: error= 2.09D-08 at cycle   9 NSaved=   9.
 NSaved= 9 IEnMin= 8 EnMin= -232.393143344844     IErMin= 9 ErrMin= 2.09D-08
 ErrMax= 2.09D-08  0.00D+00 EMaxC= 1.00D-01 BMatC= 1.31D-13 BMatP= 1.00D-12
 IDIUse=1 WtCom= 1.00D+00 WtEn= 0.00D+00
 Coeff-Com:  0.109D-04-0.188D-03 0.128D-02 0.121D-02-0.304D-02-0.157D-01
 Coeff-Com: -0.712D-01 0.261D+00 0.826D+00
 Coeff:      0.109D-04-0.188D-03 0.128D-02 0.121D-02-0.304D-02-0.157D-01
 Coeff:     -0.712D-01 0.261D+00 0.826D+00
 Gap=     0.419 Goal=   None    Shift=    0.000
 RMSDP=1.41D-08 MaxDP=2.82D-07 DE= 2.27D-13 OVMax= 2.40D-07

 Cycle  10  Pass 1  IDiag  1:
 RMSU=  5.28D-09    CP:  1.00D+00  1.19D+00  1.27D+00  1.18D+00  1.44D+00
                    CP:  1.18D+00  1.46D+00  1.47D+00  1.14D+00
 E= -232.393143344845     Delta-E=       -0.000000000002 Rises=F Damp=F
 DIIS: error= 7.87D-09 at cycle  10 NSaved=  10.
 NSaved=10 IEnMin=10 EnMin= -232.393143344845     IErMin=10 ErrMin= 7.87D-09
 ErrMax= 7.87D-09  0.00D+00 EMaxC= 1.00D-01 BMatC= 1.43D-14 BMatP= 1.31D-13
 IDIUse=1 WtCom= 1.00D+00 WtEn= 0.00D+00
 Coeff-Com:  0.386D-05-0.322D-04 0.144D-04 0.246D-03 0.132D-02 0.636D-03
 Coeff-Com: -0.152D-01-0.476D-01 0.219D+00 0.841D+00
 Coeff:      0.386D-05-0.322D-04 0.144D-04 0.246D-03 0.132D-02 0.636D-03
 Coeff:     -0.152D-01-0.476D-01 0.219D+00 0.841D+00
 Gap=     0.419 Goal=   None    Shift=    0.000
 RMSDP=4.71D-09 MaxDP=6.37D-08 DE=-1.56D-12 OVMax= 8.17D-08

 Error on total polarization charges =  0.02884
 SCF Done:  E(RwB97XD) =  -232.393143345     A.U. after   10 cycles
            NFock= 10  Conv=0.47D-08     -V/T= 2.0094
 KE= 2.302303761857D+02 PE=-9.217787517116D+02 EE= 2.685965730295D+02
 SMD-CDS (non-electrostatic) energy       (kcal/mol) =      -1.61
 (included in total energy above)
 Leave Link  502 at Mon Aug 25 14:25:44 2025, MaxMem=  4294967296 cpu:              70.9 elap:               5.1
 (Enter /opt/apps/Gaussian/G16C/g16/l701.exe)
 ... and contract with generalized density number  0.
 Compute integral first derivatives.
 R6Disp: Adding Grimme-D2 dispersion energy 1st derivatives to the gradient.
 D1PCM: PCM CHGder 1st derivatives, ID1Alg=3 FixD1E=F DoIter=F DoCFld=F I1PDM=0.
 GePol: Maximum number of non-zero 1st derivatives   =     306
 Leave Link  701 at Mon Aug 25 14:25:45 2025, MaxMem=  4294967296 cpu:               3.8 elap:               0.3
 (Enter /opt/apps/Gaussian/G16C/g16/l702.exe)
 L702 exits ... SP integral derivatives will be done elsewhere.
 Leave Link  702 at Mon Aug 25 14:25:45 2025, MaxMem=  4294967296 cpu:               0.0 elap:               0.0
 (Enter /opt/apps/Gaussian/G16C/g16/l703.exe)
 Integral derivatives from FoFJK, PRISM(SPDF).
 Compute integral first derivatives, UseDBF=F ICtDFT=           0.
 Calling FoFJK, ICntrl=      2127 FMM=F ISym2X=0 I1Cent= 0 IOpClX= 0 NMat=1 NMatS=1 NMatT=0.
 FoFJK:  IHMeth= 1 ICntrl=    2127 DoSepK=T KAlg= 0 I1Cent=           0 FoldK=F
 IRaf=         1 NMat=       1 IRICut=       1 DoRegI=T DoRafI=F ISym2E= 0 IDoP0=0 IntGTp=1.
 FoFCou: FMM=F IPFlag=           0 FMFlag=      100000 FMFlg1=         800
         NFxFlg=           0 DoJE=F BraDBF=F KetDBF=F FulRan=T
         wScrn=  0.000000 ICntrl=      2527 IOpCl=  0 I1Cent=           0 NGrid=           0
         NMat0=    1 NMatS0=      1 NMatT0=    0 NMatD0=    1 NMtDS0=    0 NMtDT0=    0
 Symmetry not used in FoFCou.
 Leave Link  703 at Mon Aug 25 14:25:45 2025, MaxMem=  4294967296 cpu:               9.9 elap:               0.7
 (Enter /opt/apps/Gaussian/G16C/g16/l716.exe)
 Dipole        = 7.68461978D-02 8.43365108D-01 2.11941146D-01
 -------------------------------------------------------------------
 Center     Atomic                   Forces (Hartrees/Bohr)
 Number     Number              X              Y              Z
 -------------------------------------------------------------------
      1        6           0.000026368    0.000077313    0.000028009
      2        8           0.000025939    0.000037790   -0.000150575
      3        6          -0.000071583   -0.000019598    0.000047328
      4        6           0.000003044   -0.000018296   -0.000041333
      5        6           0.000050343   -0.000065365    0.000106918
      6        1           0.000003395    0.000023489   -0.000001930
      7        1           0.000011373    0.000000786    0.000011592
      8        1           0.000024989   -0.000010385    0.000044583
      9        1           0.000008927   -0.000025142    0.000028371
     10        1           0.000020203   -0.000014161   -0.000051439
     11        1          -0.000006499    0.000013203    0.000014259
     12        1          -0.000070144   -0.000003806   -0.000017723
     13        1          -0.000026355    0.000004172   -0.000018060
 -------------------------------------------------------------------
 Cartesian Forces:  Max     0.000150575 RMS     0.000043940
 Leave Link  716 at Mon Aug 25 14:25:45 2025, MaxMem=  4294967296 cpu:               0.0 elap:               0.0
 (Enter /opt/apps/Gaussian/G16C/g16/l103.exe)

 GradGradGradGradGradGradGradGradGradGradGradGradGradGradGradGradGradGrad
 Berny optimization.
 Using GEDIIS/GDIIS optimizer.
 FormGI is forming the generalized inverse of G from B-inverse, IUseBI=4.
 Internal  Forces:  Max     0.000088746 RMS     0.000024011
 Search for a local minimum.
 Step number  16 out of a maximum of   81
 All quantities printed in internal units (Hartrees-Bohrs-Radians)
 RMS Force = .24011D-04 SwitMx=.10000D-02 MixMth= 2
 Mixed Optimization -- En-DIIS/RFO-DIIS
 Swapping is turned off.
 Update second derivatives using D2CorX and points   11   13   14   15   16
 DE= -2.10D-07 DEPred=-9.34D-07 R= 2.25D-01
 Trust test= 2.25D-01 RLast= 1.22D-01 DXMaxT set to 1.01D+00
 ITU=  0  1 -1  1  1  1  1  1  1  1  1  1  1  1  1  0
     Eigenvalues ---    0.00012   0.00734   0.02672   0.03851   0.04941
     Eigenvalues ---    0.05152   0.05523   0.05949   0.05990   0.06472
     Eigenvalues ---    0.06961   0.07306   0.07876   0.09752   0.10929
     Eigenvalues ---    0.11358   0.11533   0.12802   0.22006   0.26191
     Eigenvalues ---    0.26732   0.29283   0.32269   0.33988   0.36987
     Eigenvalues ---    0.37129   0.37188   0.37236   0.37247   0.37335
     Eigenvalues ---    0.37481   0.38831   0.55905
 En-DIIS/RFO-DIIS/Sim-DIIS IScMMF=       -3 using points:    16   15   14   13   12   11   10    9    8    7
 RFO step:  Lambda=-2.09069311D-06.
 NNeg= 0 NGDIIS=10 SimSw=  2.50D-03 Rises=F DC= -2.10D-07 SmlDif=  1.00D-05
 NRisDI= 0 DoIntr=F SqrtH=F CThrHd= 10.0 CDAdj=  3.0
 RMS Error=  0.1149782602D-01 NUsed=10 OKEnD=F EnDIS=F
 InvSVX:  RCond= 1.72D-10 Info=           0 Equed=N FErr=  6.68D-07 BErr=  5.06D-17
 DIIS inversion failure, remove point  10.
 InvSVX:  RCond= 4.94D-09 Info=           0 Equed=N FErr=  1.12D-08 BErr=  9.75D-17
 DIIS inversion failure, remove point   9.
 InvSVX:  RCond= 2.18D-08 Info=           0 Equed=N FErr=  4.43D-09 BErr=  9.86D-17
 DIIS inversion failure, remove point   8.
 InvSVX:  RCond= 1.56D-08 Info=           0 Equed=N FErr=  1.22D-09 BErr=  1.06D-16
 DIIS inversion failure, remove point   7.
 InvSVX:  RCond= 1.91D-08 Info=           0 Equed=N FErr=  3.64D-10 BErr=  7.06D-17
 DIIS inversion failure, remove point   6.
 InvSVX:  RCond= 2.30D-08 Info=           0 Equed=N FErr=  1.72D-10 BErr=  2.99D-17
 DIIS inversion failure, remove point   5.
 InvSVX:  RCond= 3.56D-08 Info=           0 Equed=N FErr=  1.27D-10 BErr=  2.53D-16
 DIIS inversion failure, remove point   4.
 InvSVX:  RCond= 2.60D-05 Info=           0 Equed=N FErr=  1.62D-13 BErr=  7.76D-17
 RFO-DIIS uses    3 points instead of   10
 DidBck=F Rises=F RFO-DIIS coefs:    1.19053    0.26339   -0.45392    0.00000    0.00000
                  RFO-DIIS coefs:    0.00000    0.00000    0.00000    0.00000    0.00000
 Iteration  1 RMS(Cart)=  0.01477201 RMS(Int)=  0.00011608
 Iteration  2 RMS(Cart)=  0.00012305 RMS(Int)=  0.00005579
 Iteration  3 RMS(Cart)=  0.00000000 RMS(Int)=  0.00005579
 ITry= 1 IFail=0 DXMaxC= 4.98D-02 DCOld= 1.00D+10 DXMaxT= 1.01D+00 DXLimC= 3.00D+00 Rises=F
 Variable       Old X    -DE/DX   Delta X   Delta X   Delta X     New X
                                 (Linear)    (Quad)   (Total)
    R1        2.68556   0.00003   0.00013   0.00014   0.00030   2.68587
    R2        2.90090  -0.00008   0.00196  -0.00023   0.00173   2.90263
    R3        2.06502  -0.00001   0.00002  -0.00004  -0.00002   2.06500
    R4        2.08235   0.00001  -0.00014  -0.00001  -0.00014   2.08221
    R5        2.68716  -0.00009  -0.00038  -0.00014  -0.00049   2.68667
    R6        2.90659   0.00000  -0.00154  -0.00009  -0.00165   2.90494
    R7        2.08144   0.00005   0.00013   0.00013   0.00026   2.08169
    R8        2.06495  -0.00001  -0.00005  -0.00001  -0.00007   2.06489
    R9        2.92508   0.00005   0.00064   0.00000   0.00061   2.92568
   R10        2.06722  -0.00002  -0.00001  -0.00002  -0.00003   2.06719
   R11        2.06718  -0.00001   0.00009  -0.00001   0.00009   2.06727
   R12        2.06717  -0.00001   0.00003  -0.00003   0.00000   2.06718
   R13        2.06741   0.00003  -0.00028   0.00011  -0.00017   2.06724
    A1        1.84080   0.00001   0.00136   0.00002   0.00127   1.84207
    A2        1.88310  -0.00000   0.00010  -0.00007   0.00007   1.88317
    A3        1.91327   0.00000  -0.00055  -0.00007  -0.00059   1.91268
    A4        1.99174  -0.00003  -0.00014  -0.00016  -0.00025   1.99149
    A5        1.93493   0.00002  -0.00037   0.00016  -0.00020   1.93472
    A6        1.89779   0.00001  -0.00036   0.00010  -0.00027   1.89752
    A7        1.83989  -0.00001  -0.00172   0.00005  -0.00177   1.83812
    A8        1.84711  -0.00000  -0.00232   0.00000  -0.00248   1.84463
    A9        1.91129   0.00001   0.00037   0.00001   0.00043   1.91172
   A10        1.88173  -0.00003   0.00093  -0.00009   0.00089   1.88262
   A11        1.93438   0.00002   0.00010  -0.00002   0.00010   1.93448
   A12        1.99006   0.00002   0.00064   0.00011   0.00080   1.99085
   A13        1.89712  -0.00001   0.00027  -0.00002   0.00023   1.89735
   A14        1.80644  -0.00001  -0.00120   0.00002  -0.00141   1.80503
   A15        1.94213  -0.00001   0.00146  -0.00002   0.00152   1.94366
   A16        1.93408   0.00001  -0.00149  -0.00007  -0.00149   1.93258
   A17        1.96297   0.00002   0.00201   0.00006   0.00214   1.96511
   A18        1.93588   0.00001  -0.00085  -0.00009  -0.00088   1.93501
   A19        1.88280  -0.00002  -0.00000   0.00008   0.00004   1.88284
   A20        1.80356  -0.00002   0.00076   0.00003   0.00059   1.80415
   A21        1.94724  -0.00000  -0.00158   0.00011  -0.00141   1.94584
   A22        1.92838   0.00000   0.00168  -0.00016   0.00159   1.92997
   A23        1.96653   0.00004  -0.00048   0.00027  -0.00015   1.96638
   A24        1.93387   0.00000   0.00033  -0.00013   0.00025   1.93411
   A25        1.88438  -0.00002  -0.00060  -0.00013  -0.00076   1.88362
    D1        0.71126   0.00004  -0.00290  -0.00016  -0.00311   0.70815
    D2        2.84644   0.00000  -0.00225  -0.00038  -0.00266   2.84377
    D3       -1.37275   0.00001  -0.00294  -0.00033  -0.00328  -1.37603
    D4       -0.44630  -0.00000   0.01779   0.00017   0.01797  -0.42832
    D5       -2.56360  -0.00004   0.01873  -0.00023   0.01852  -2.54507
    D6        1.62312  -0.00001   0.01939  -0.00004   0.01934   1.64246
    D7       -2.51001   0.00001   0.01686   0.00033   0.01720  -2.49282
    D8        1.65587  -0.00002   0.01779  -0.00007   0.01775   1.67362
    D9       -0.44060   0.00000   0.01845   0.00012   0.01857  -0.42203
   D10        1.62330   0.00001   0.01773   0.00019   0.01791   1.64121
   D11       -0.49400  -0.00002   0.01867  -0.00021   0.01846  -0.47554
   D12       -2.59047   0.00000   0.01933  -0.00002   0.01928  -2.57119
   D13       -0.68352  -0.00003  -0.01405   0.00012  -0.01389  -0.69741
   D14        1.40238  -0.00001  -0.01506   0.00011  -0.01495   1.38742
   D15       -2.81951  -0.00003  -0.01400   0.00004  -0.01392  -2.83343
   D16        0.37682   0.00003   0.02449   0.00000   0.02449   0.40130
   D17        2.48897   0.00004   0.02691   0.00008   0.02697   2.51595
   D18       -1.69930   0.00003   0.02688   0.00013   0.02703  -1.67227
   D19       -1.69383   0.00001   0.02536  -0.00000   0.02537  -1.66846
   D20        0.41833   0.00002   0.02778   0.00008   0.02786   0.44618
   D21        2.51324   0.00001   0.02776   0.00012   0.02792   2.54116
   D22        2.44206   0.00000   0.02446  -0.00005   0.02439   2.46646
   D23       -1.72897   0.00001   0.02688   0.00003   0.02688  -1.70209
   D24        0.36595  -0.00000   0.02685   0.00008   0.02694   0.39289
   D25        0.04066  -0.00001  -0.02480  -0.00007  -0.02486   0.01580
   D26        2.14489   0.00000  -0.02647   0.00022  -0.02627   2.11862
   D27       -2.02494   0.00000  -0.02734   0.00015  -0.02717  -2.05211
   D28       -2.05736  -0.00000  -0.02685  -0.00010  -0.02693  -2.08429
   D29        0.04686   0.00001  -0.02853   0.00019  -0.02833   0.01853
   D30        2.16023   0.00001  -0.02940   0.00012  -0.02924   2.13099
   D31        2.11553   0.00000  -0.02764  -0.00018  -0.02784   2.08769
   D32       -2.06343   0.00001  -0.02932   0.00011  -0.02925  -2.09267
   D33        0.04993   0.00001  -0.03018   0.00004  -0.03015   0.01979
         Item               Value     Threshold  Converged?
 Maximum Force            0.000089     0.000015     NO 
 RMS     Force            0.000024     0.000010     NO 
 Maximum Displacement     0.049833     0.000060     NO 
 RMS     Displacement     0.014775     0.000040     NO 
 Predicted change in Energy=-9.451520D-07
 Lowest energy point so far.  Saving SCF results.
 GradGradGradGradGradGradGradGradGradGradGradGradGradGradGradGradGradGrad

 Leave Link  103 at Mon Aug 25 14:25:45 2025, MaxMem=  4294967296 cpu:               0.1 elap:               0.0
 (Enter /opt/apps/Gaussian/G16C/g16/l202.exe)
                          Input orientation:                          
 ---------------------------------------------------------------------
 Center     Atomic      Atomic             Coordinates (Angstroms)
 Number     Number       Type             X           Y           Z
 ---------------------------------------------------------------------
      1          6           0       -1.748114    0.288894    0.701162
      2          8           0       -0.925429   -0.442810   -0.197665
      3          6           0        0.166946    0.418059   -0.492478
      4          6           0       -0.438307    1.823962   -0.634509
      5          6           0       -1.757777    1.730081    0.169931
      6          1           0       -2.731759   -0.186737    0.719060
      7          1           0       -1.316655    0.247180    1.714175
      8          1           0        0.894435    0.386298    0.334105
      9          1           0        0.650573    0.047395   -1.399501
     10          1           0        0.238013    2.590232   -0.244562
     11          1           0       -0.637941    2.055266   -1.684925
     12          1           0       -1.806904    2.457445    0.985499
     13          1           0       -2.622030    1.894438   -0.480265
 ---------------------------------------------------------------------
                    Distance matrix (angstroms):
                    1          2          3          4          5
     1  C    0.000000
     2  O    1.421299   0.000000
     3  C    2.260292   1.421722   0.000000
     4  C    2.419927   2.359316   1.537227   0.000000
     5  C    1.536008   2.355713   2.421724   1.548205   0.000000
     6  H    1.092750   2.041761   3.199390   3.336912   2.219093
     7  H    1.101858   2.069849   2.664506   2.962103   2.185925
     8  H    2.669697   2.069325   1.101585   2.186616   2.977739
     9  H    3.197625   2.041689   1.092692   2.219698   3.330870
    10  H    3.183592   3.248868   2.187430   1.093910   2.212429
    11  H    3.169537   2.921467   2.179500   1.093950   2.190951
    12  H    2.187903   3.253975   3.199937   2.213320   1.093903
    13  H    2.176527   2.901903   3.155667   2.190298   1.093939
                    6          7          8          9         10
     6  H    0.000000
     7  H    1.783552   0.000000
     8  H    3.691320   2.610146   0.000000
     9  H    3.997911   3.688479   1.783175   0.000000
    10  H    4.178478   3.426884   2.371301   2.823138   0.000000
    11  H    3.897409   3.909437   3.034816   2.402765   1.768652
    12  H    2.813902   2.378357   3.465717   4.187572   2.390056
    13  H    2.404518   3.038589   3.911931   3.868655   2.952885
                   11         12         13
    11  H    0.000000
    12  H    2.942683   0.000000
    13  H    2.326732   1.769144   0.000000
 Symmetry turned off by external request.
 Stoichiometry    C4H8O
 Framework group  C1[X(C4H8O)]
 Deg. of freedom    33
 Full point group                 C1      NOp   1
 Rotational constants (GHZ):           7.1519404           6.9419827           3.9985375
 Leave Link  202 at Mon Aug 25 14:25:45 2025, MaxMem=  4294967296 cpu:               0.0 elap:               0.0
 (Enter /opt/apps/Gaussian/G16C/g16/l301.exe)
 Standard basis: 6-31+G(d) (6D, 7F)
 Ernie: Thresh=  0.10000D-02 Tol=  0.10000D-05 Strict=F.
   111 basis functions,   192 primitive gaussians,   111 cartesian basis functions
    20 alpha electrons       20 beta electrons
       nuclear repulsion energy       190.5816857510 Hartrees.
 IExCor= 4639 DFT=T Ex+Corr=wB97XD ExCW=0 ScaHFX=  1.000000
 ScaDFX=  1.000000  1.000000  1.000000  1.000000 ScalE2=  1.000000  1.000000
 IRadAn=      5 IRanWt=     -1 IRanGd=            0 ICorTp=0 IEmpDi=121
 HFx  wShort=  0.000000 wLong=  0.200000 cFull=  0.222036 cShort=  0.000000 cLong=  0.777964
 DFx  wShort=  0.000000 wLong=  0.200000 cFull=  0.000000 cShort=  0.000000 cLong=  1.000000
 NAtoms=   13 NActive=   13 NUniq=   13 SFac= 1.00D+00 NAtFMM=   60 NAOKFM=F Big=F
 Integral buffers will be    131072 words long.
 Raffenetti 2 integral format.
 Two-electron integral symmetry is turned off.
 R6Disp:  Grimme-D2 Dispersion energy=       -0.0056523817 Hartrees.
 Nuclear repulsion after empirical dispersion term =      190.5760333694 Hartrees.
 ------------------------------------------------------------------------------
 Polarizable Continuum Model (PCM)
 =================================
 Model                : PCM.
 Atomic radii         : SMD-Coulomb.
 Polarization charges : Total charges.
 Charge compensation  : None.
 Solution method      : On-the-fly selection.
 Cavity type          : VdW (van der Waals Surface) (Alpha=1.000).
 Cavity algorithm     : GePol (No added spheres)
                        Default sphere list used, NSphG=   13.
                        Lebedev-Laikov grids with approx.  5.0 points / Ang**2.
                        Smoothing algorithm: York/Karplus (Gamma=1.0000).
                        Polarization charges: spherical gaussians, with
                                              point-specific exponents (IZeta= 3).
                        Self-potential: point-specific (ISelfS= 7).
                        Self-field    : sphere-specific E.n sum rule (ISelfD= 2).
 1st derivatives      : Analytical E(r).r(x)/FMM algorithm (CHGder, D1EAlg=3).
                        Cavity 1st derivative terms included.
 Solvent              : TetraHydroFuran, Eps=   7.425700 Eps(inf)=   1.974025
 ------------------------------------------------------------------------------
 Spheres list:
 ISph  on   Nord     Re0    Alpha      Xe            Ye            Ze
    1   C      1    1.8500  1.000     -1.748114      0.288894      0.701162
    2   O      2    2.2940  1.000     -0.925429     -0.442810     -0.197665
    3   C      3    1.8500  1.000      0.166946      0.418059     -0.492478
    4   C      4    1.8500  1.000     -0.438307      1.823962     -0.634509
    5   C      5    1.8500  1.000     -1.757777      1.730081      0.169931
    6   H      6    1.2000  1.000     -2.731759     -0.186737      0.719060
    7   H      7    1.2000  1.000     -1.316655      0.247180      1.714175
    8   H      8    1.2000  1.000      0.894435      0.386298      0.334105
    9   H      9    1.2000  1.000      0.650573      0.047395     -1.399501
   10   H     10    1.2000  1.000      0.238013      2.590232     -0.244562
   11   H     11    1.2000  1.000     -0.637941      2.055266     -1.684925
   12   H     12    1.2000  1.000     -1.806904      2.457445      0.985499
   13   H     13    1.2000  1.000     -2.622030      1.894438     -0.480265
 ------------------------------------------------------------------------------
 GePol: Number of generator spheres                  =      13
 GePol: Total number of spheres                      =      13
 GePol: Number of exposed spheres                    =      13 (100.00%)
 GePol: Number of points                             =     978
 GePol: Average weight of points                     =       0.12
 GePol: Minimum weight of points                     =   0.11D-06
 GePol: Maximum weight of points                     =    0.17992
 GePol: Number of points with low weight             =      46
 GePol: Fraction of low-weight points (<1% of avg)   =       4.70%
 GePol: Cavity surface area                          =    115.893 Ang**2
 GePol: Cavity volume                                =     98.795 Ang**3
 ------------------------------------------------------------------------------
 Atomic radii for non-electrostatic terms: SMD-CDS.
 ------------------------------------------------------------------------------
 PCM non-electrostatic energy =        -0.0025658639 Hartrees.
 Nuclear repulsion after PCM non-electrostatic terms =      190.5734675055 Hartrees.
 Leave Link  301 at Mon Aug 25 14:25:45 2025, MaxMem=  4294967296 cpu:               0.1 elap:               0.0
 (Enter /opt/apps/Gaussian/G16C/g16/l302.exe)
 NPDir=0 NMtPBC=     1 NCelOv=     1 NCel=       1 NClECP=     1 NCelD=      1
         NCelK=      1 NCelE2=     1 NClLst=     1 CellRange=     0.0.
 One-electron integrals computed using PRISM.
 NBasis=   111 RedAO= T EigKep=  2.64D-05  NBF=   111
 NBsUse=   111 1.00D-06 EigRej= -1.00D+00 NBFU=   111
 Precomputing XC quadrature grid using
 IXCGrd= 4 IRadAn=           5 IRanWt=          -1 IRanGd=           0 AccXCQ= 0.00D+00.
 Generated NRdTot=       0 NPtTot=           0 NUsed=           0 NTot=          32
 NSgBfM=   111   111   111   111   111 MxSgAt=    13 MxSgA2=    13.
 Leave Link  302 at Mon Aug 25 14:25:46 2025, MaxMem=  4294967296 cpu:               1.0 elap:               0.1
 (Enter /opt/apps/Gaussian/G16C/g16/l303.exe)
 DipDrv:  MaxL=1.
 Leave Link  303 at Mon Aug 25 14:25:46 2025, MaxMem=  4294967296 cpu:               0.1 elap:               0.0
 (Enter /opt/apps/Gaussian/G16C/g16/l401.exe)
 Initial guess from the checkpoint file:  "THF-dzpop.chk"
 B after Tr=     0.000880    0.000388   -0.003703
         Rot=    1.000000   -0.000568    0.000109   -0.000047 Ang=  -0.07 deg.
 Guess basis will be translated and rotated to current coordinates.
 JPrj=2 DoOrth=T DoCkMO=T.
 Generating alternative initial guess.
 ExpMin= 4.38D-02 ExpMax= 5.48D+03 ExpMxC= 8.25D+02 IAcc=3 IRadAn=         5 AccDes= 0.00D+00
 Harris functional with IExCor= 4639 and IRadAn=       5 diagonalized for initial guess.
 HarFok:  IExCor= 4639 AccDes= 0.00D+00 IRadAn=         5 IDoV= 1 UseB2=F ITyADJ=14
 ICtDFT=  3500011 ScaDFX=  1.000000  1.000000  1.000000  1.000000
 FoFCou: FMM=F IPFlag=           0 FMFlag=      100000 FMFlg1=           0
         NFxFlg=           0 DoJE=T BraDBF=F KetDBF=T FulRan=T
         wScrn=  0.000000 ICntrl=       500 IOpCl=  0 I1Cent=   200000004 NGrid=           0
         NMat0=    1 NMatS0=      1 NMatT0=    0 NMatD0=    1 NMtDS0=    0 NMtDT0=    0
 Symmetry not used in FoFCou.
 Harris En= -222.058196385813    
 Leave Link  401 at Mon Aug 25 14:25:46 2025, MaxMem=  4294967296 cpu:               3.3 elap:               0.3
 (Enter /opt/apps/Gaussian/G16C/g16/l502.exe)
 Two-electron integral symmetry not used.
 Closed shell SCF:
 Using DIIS extrapolation, IDIIS=  1040.
 NGot=  4294967296 LenX=  4294939455 LenY=  4294926693
 Requested convergence on RMS density matrix=1.00D-08 within 128 cycles.
 Requested convergence on MAX density matrix=1.00D-06.
 Requested convergence on             energy=1.00D-06.
 No special actions if energy rises.
 Fock matrices will be formed incrementally for  20 cycles.

 Cycle   1  Pass 1  IDiag  1:
 FoFJK:  IHMeth= 1 ICntrl=       0 DoSepK=T KAlg= 0 I1Cent=           0 FoldK=F
 IRaf=         1 NMat=       1 IRICut=       1 DoRegI=T DoRafI=F ISym2E= 0 IDoP0=0 IntGTp=1.
 FoFCou: FMM=F IPFlag=           0 FMFlag=      100000 FMFlg1=           0
         NFxFlg=           0 DoJE=T BraDBF=F KetDBF=F FulRan=T
         wScrn=  0.000000 ICntrl=       500 IOpCl=  0 I1Cent=           0 NGrid=           0
         NMat0=    1 NMatS0=      1 NMatT0=    0 NMatD0=    1 NMtDS0=    0 NMtDT0=    0
 Symmetry not used in FoFCou.
 Inv3:  Mode=1 IEnd=     2869452.
 Iteration    1 A*A^-1 deviation from unit magnitude is 7.88D-15 for    970.
 Iteration    1 A*A^-1 deviation from orthogonality  is 2.33D-15 for    970    870.
 Iteration    1 A^-1*A deviation from unit magnitude is 8.33D-15 for    970.
 Iteration    1 A^-1*A deviation from orthogonality  is 2.39D-15 for    408    363.
 E= -232.392867574967    
 DIIS: error= 1.29D-03 at cycle   1 NSaved=   1.
 NSaved= 1 IEnMin= 1 EnMin= -232.392867574967     IErMin= 1 ErrMin= 1.29D-03
 ErrMax= 1.29D-03  0.00D+00 EMaxC= 1.00D-01 BMatC= 1.61D-04 BMatP= 1.61D-04
 IDIUse=3 WtCom= 9.87D-01 WtEn= 1.29D-02
 Coeff-Com:  0.100D+01
 Coeff-En:   0.100D+01
 Coeff:      0.100D+01
 Gap=     0.832 Goal=   None    Shift=    0.000
 GapD=    0.832 DampG=2.000 DampE=1.000 DampFc=2.0000 IDamp=-1.
 RMSDP=3.07D-04 MaxDP=4.16D-03              OVMax= 3.89D-03

 Cycle   2  Pass 1  IDiag  1:
 RMSU=  3.07D-04    CP:  1.00D+00
 E= -232.393128277166     Delta-E=       -0.000260702199 Rises=F Damp=F
 DIIS: error= 1.77D-04 at cycle   2 NSaved=   2.
 NSaved= 2 IEnMin= 2 EnMin= -232.393128277166     IErMin= 2 ErrMin= 1.77D-04
 ErrMax= 1.77D-04  0.00D+00 EMaxC= 1.00D-01 BMatC= 5.96D-06 BMatP= 1.61D-04
 IDIUse=3 WtCom= 9.98D-01 WtEn= 1.77D-03
 Coeff-Com: -0.174D+00 0.117D+01
 Coeff-En:   0.000D+00 0.100D+01
 Coeff:     -0.174D+00 0.117D+01
 Gap=     0.419 Goal=   None    Shift=    0.000
 RMSDP=7.06D-05 MaxDP=9.61D-04 DE=-2.61D-04 OVMax= 1.34D-03

 Cycle   3  Pass 1  IDiag  1:
 RMSU=  4.60D-05    CP:  1.00D+00  1.17D+00
 E= -232.393144100883     Delta-E=       -0.000015823717 Rises=F Damp=F
 DIIS: error= 3.10D-05 at cycle   3 NSaved=   3.
 NSaved= 3 IEnMin= 3 EnMin= -232.393144100883     IErMin= 3 ErrMin= 3.10D-05
 ErrMax= 3.10D-05  0.00D+00 EMaxC= 1.00D-01 BMatC= 1.49D-07 BMatP= 5.96D-06
 IDIUse=1 WtCom= 1.00D+00 WtEn= 0.00D+00
 Coeff-Com:  0.110D-02-0.104D+00 0.110D+01
 Coeff:      0.110D-02-0.104D+00 0.110D+01
 Gap=     0.419 Goal=   None    Shift=    0.000
 RMSDP=1.44D-05 MaxDP=1.56D-04 DE=-1.58D-05 OVMax= 3.25D-04

 Cycle   4  Pass 1  IDiag  1:
 RMSU=  8.02D-06    CP:  1.00D+00  1.19D+00  1.24D+00
 E= -232.393144526230     Delta-E=       -0.000000425348 Rises=F Damp=F
 DIIS: error= 1.03D-05 at cycle   4 NSaved=   4.
 NSaved= 4 IEnMin= 4 EnMin= -232.393144526230     IErMin= 4 ErrMin= 1.03D-05
 ErrMax= 1.03D-05  0.00D+00 EMaxC= 1.00D-01 BMatC= 3.98D-08 BMatP= 1.49D-07
 IDIUse=1 WtCom= 1.00D+00 WtEn= 0.00D+00
 Coeff-Com:  0.704D-02-0.837D-01 0.398D+00 0.679D+00
 Coeff:      0.704D-02-0.837D-01 0.398D+00 0.679D+00
 Gap=     0.419 Goal=   None    Shift=    0.000
 RMSDP=3.21D-06 MaxDP=3.53D-05 DE=-4.25D-07 OVMax= 6.15D-05

 Cycle   5  Pass 1  IDiag  1:
 RMSU=  2.76D-06    CP:  1.00D+00  1.19D+00  1.27D+00  1.10D+00
 E= -232.393144570375     Delta-E=       -0.000000044145 Rises=F Damp=F
 DIIS: error= 2.88D-06 at cycle   5 NSaved=   5.
 NSaved= 5 IEnMin= 5 EnMin= -232.393144570375     IErMin= 5 ErrMin= 2.88D-06
 ErrMax= 2.88D-06  0.00D+00 EMaxC= 1.00D-01 BMatC= 2.57D-09 BMatP= 3.98D-08
 IDIUse=1 WtCom= 1.00D+00 WtEn= 0.00D+00
 Coeff-Com:  0.134D-02-0.637D-02-0.426D-01 0.147D+00 0.901D+00
 Coeff:      0.134D-02-0.637D-02-0.426D-01 0.147D+00 0.901D+00
 Gap=     0.419 Goal=   None    Shift=    0.000
 RMSDP=1.61D-06 MaxDP=2.61D-05 DE=-4.41D-08 OVMax= 3.35D-05

 Cycle   6  Pass 1  IDiag  1:
 RMSU=  6.23D-07    CP:  1.00D+00  1.19D+00  1.28D+00  1.26D+00  1.21D+00
 E= -232.393144574118     Delta-E=       -0.000000003743 Rises=F Damp=F
 DIIS: error= 1.60D-06 at cycle   6 NSaved=   6.
 NSaved= 6 IEnMin= 6 EnMin= -232.393144574118     IErMin= 6 ErrMin= 1.60D-06
 ErrMax= 1.60D-06  0.00D+00 EMaxC= 1.00D-01 BMatC= 5.71D-10 BMatP= 2.57D-09
 IDIUse=1 WtCom= 1.00D+00 WtEn= 0.00D+00
 Coeff-Com:  0.826D-04 0.338D-02-0.494D-01 0.174D-01 0.412D+00 0.617D+00
 Coeff:      0.826D-04 0.338D-02-0.494D-01 0.174D-01 0.412D+00 0.617D+00
 Gap=     0.419 Goal=   None    Shift=    0.000
 RMSDP=4.07D-07 MaxDP=7.73D-06 DE=-3.74D-09 OVMax= 7.51D-06

 Cycle   7  Pass 1  IDiag  1:
 RMSU=  2.12D-07    CP:  1.00D+00  1.19D+00  1.28D+00  1.30D+00  1.29D+00
                    CP:  1.05D+00
 E= -232.393144574632     Delta-E=       -0.000000000514 Rises=F Damp=F
 DIIS: error= 3.22D-07 at cycle   7 NSaved=   7.
 NSaved= 7 IEnMin= 7 EnMin= -232.393144574632     IErMin= 7 ErrMin= 3.22D-07
 ErrMax= 3.22D-07  0.00D+00 EMaxC= 1.00D-01 BMatC= 3.27D-11 BMatP= 5.71D-10
 IDIUse=1 WtCom= 1.00D+00 WtEn= 0.00D+00
 Coeff-Com: -0.190D-03 0.203D-02-0.754D-02-0.177D-01-0.238D-01 0.169D+00
 Coeff-Com:  0.879D+00
 Coeff:     -0.190D-03 0.203D-02-0.754D-02-0.177D-01-0.238D-01 0.169D+00
 Coeff:      0.879D+00
 Gap=     0.419 Goal=   None    Shift=    0.000
 RMSDP=2.30D-07 MaxDP=4.76D-06 DE=-5.14D-10 OVMax= 4.25D-06

 Cycle   8  Pass 1  IDiag  1:
 RMSU=  6.96D-08    CP:  1.00D+00  1.19D+00  1.28D+00  1.31D+00  1.33D+00
                    CP:  1.21D+00  1.20D+00
 E= -232.393144574679     Delta-E=       -0.000000000048 Rises=F Damp=F
 DIIS: error= 9.33D-08 at cycle   8 NSaved=   8.
 NSaved= 8 IEnMin= 8 EnMin= -232.393144574679     IErMin= 8 ErrMin= 9.33D-08
 ErrMax= 9.33D-08  0.00D+00 EMaxC= 1.00D-01 BMatC= 8.38D-13 BMatP= 3.27D-11
 IDIUse=1 WtCom= 1.00D+00 WtEn= 0.00D+00
 Coeff-Com: -0.321D-07-0.259D-03 0.329D-02-0.225D-03-0.240D-01-0.464D-01
 Coeff-Com: -0.531D-01 0.112D+01
 Coeff:     -0.321D-07-0.259D-03 0.329D-02-0.225D-03-0.240D-01-0.464D-01
 Coeff:     -0.531D-01 0.112D+01
 Gap=     0.419 Goal=   None    Shift=    0.000
 RMSDP=6.94D-08 MaxDP=1.43D-06 DE=-4.78D-11 OVMax= 1.19D-06

 Cycle   9  Pass 1  IDiag  1:
 RMSU=  1.66D-08    CP:  1.00D+00  1.19D+00  1.28D+00  1.31D+00  1.34D+00
                    CP:  1.27D+00  1.35D+00  1.37D+00
 E= -232.393144574684     Delta-E=       -0.000000000005 Rises=F Damp=F
 DIIS: error= 1.36D-08 at cycle   9 NSaved=   9.
 NSaved= 9 IEnMin= 9 EnMin= -232.393144574684     IErMin= 9 ErrMin= 1.36D-08
 ErrMax= 1.36D-08  0.00D+00 EMaxC= 1.00D-01 BMatC= 5.79D-14 BMatP= 8.38D-13
 IDIUse=1 WtCom= 1.00D+00 WtEn= 0.00D+00
 Coeff-Com:  0.964D-05-0.140D-03 0.791D-03 0.972D-03-0.155D-02-0.144D-01
 Coeff-Com: -0.532D-01 0.139D+00 0.929D+00
 Coeff:      0.964D-05-0.140D-03 0.791D-03 0.972D-03-0.155D-02-0.144D-01
 Coeff:     -0.532D-01 0.139D+00 0.929D+00
 Gap=     0.419 Goal=   None    Shift=    0.000
 RMSDP=1.19D-08 MaxDP=2.25D-07 DE=-4.63D-12 OVMax= 1.71D-07

 Cycle  10  Pass 1  IDiag  1:
 RMSU=  3.81D-09    CP:  1.00D+00  1.19D+00  1.28D+00  1.31D+00  1.34D+00
                    CP:  1.27D+00  1.37D+00  1.47D+00  1.20D+00
 E= -232.393144574683     Delta-E=        0.000000000001 Rises=F Damp=F
 DIIS: error= 5.07D-09 at cycle  10 NSaved=  10.
 NSaved=10 IEnMin= 9 EnMin= -232.393144574684     IErMin=10 ErrMin= 5.07D-09
 ErrMax= 5.07D-09  0.00D+00 EMaxC= 1.00D-01 BMatC= 9.87D-15 BMatP= 5.79D-14
 IDIUse=1 WtCom= 1.00D+00 WtEn= 0.00D+00
 Coeff-Com:  0.274D-05-0.210D-04-0.213D-04 0.306D-03 0.139D-02-0.635D-03
 Coeff-Com: -0.114D-01-0.458D-01 0.281D+00 0.775D+00
 Coeff:      0.274D-05-0.210D-04-0.213D-04 0.306D-03 0.139D-02-0.635D-03
 Coeff:     -0.114D-01-0.458D-01 0.281D+00 0.775D+00
 Gap=     0.419 Goal=   None    Shift=    0.000
 RMSDP=3.21D-09 MaxDP=3.75D-08 DE= 9.09D-13 OVMax= 4.38D-08

 Error on total polarization charges =  0.02884
 SCF Done:  E(RwB97XD) =  -232.393144575     A.U. after   10 cycles
            NFock= 10  Conv=0.32D-08     -V/T= 2.0094
 KE= 2.302302917132D+02 PE=-9.218076741906D+02 EE= 2.686107703973D+02
 SMD-CDS (non-electrostatic) energy       (kcal/mol) =      -1.61
 (included in total energy above)
 Leave Link  502 at Mon Aug 25 14:25:51 2025, MaxMem=  4294967296 cpu:              70.5 elap:               5.0
 (Enter /opt/apps/Gaussian/G16C/g16/l701.exe)
 ... and contract with generalized density number  0.
 Compute integral first derivatives.
 R6Disp: Adding Grimme-D2 dispersion energy 1st derivatives to the gradient.
 D1PCM: PCM CHGder 1st derivatives, ID1Alg=3 FixD1E=F DoIter=F DoCFld=F I1PDM=0.
 GePol: Maximum number of non-zero 1st derivatives   =     307
 Leave Link  701 at Mon Aug 25 14:25:51 2025, MaxMem=  4294967296 cpu:               3.6 elap:               0.3
 (Enter /opt/apps/Gaussian/G16C/g16/l702.exe)
 L702 exits ... SP integral derivatives will be done elsewhere.
 Leave Link  702 at Mon Aug 25 14:25:51 2025, MaxMem=  4294967296 cpu:               0.1 elap:               0.0
 (Enter /opt/apps/Gaussian/G16C/g16/l703.exe)
 Integral derivatives from FoFJK, PRISM(SPDF).
 Compute integral first derivatives, UseDBF=F ICtDFT=           0.
 Calling FoFJK, ICntrl=      2127 FMM=F ISym2X=0 I1Cent= 0 IOpClX= 0 NMat=1 NMatS=1 NMatT=0.
 FoFJK:  IHMeth= 1 ICntrl=    2127 DoSepK=T KAlg= 0 I1Cent=           0 FoldK=F
 IRaf=         1 NMat=       1 IRICut=       1 DoRegI=T DoRafI=F ISym2E= 0 IDoP0=0 IntGTp=1.
 FoFCou: FMM=F IPFlag=           0 FMFlag=      100000 FMFlg1=         800
         NFxFlg=           0 DoJE=F BraDBF=F KetDBF=F FulRan=T
         wScrn=  0.000000 ICntrl=      2527 IOpCl=  0 I1Cent=           0 NGrid=           0
         NMat0=    1 NMatS0=      1 NMatT0=    0 NMatD0=    1 NMtDS0=    0 NMtDT0=    0
 Symmetry not used in FoFCou.
 Leave Link  703 at Mon Aug 25 14:25:52 2025, MaxMem=  4294967296 cpu:               9.9 elap:               0.7
 (Enter /opt/apps/Gaussian/G16C/g16/l716.exe)
 Dipole        = 7.73215045D-02 8.41124034D-01 2.16571625D-01
 -------------------------------------------------------------------
 Center     Atomic                   Forces (Hartrees/Bohr)
 Number     Number              X              Y              Z
 -------------------------------------------------------------------
      1        6          -0.000074840    0.000086388   -0.000022435
      2        8           0.000110369    0.000002959    0.000031111
      3        6          -0.000091729    0.000023675   -0.000112117
      4        6           0.000003152   -0.000036994    0.000050435
      5        6           0.000089627   -0.000033034    0.000073215
      6        1           0.000005979    0.000014798   -0.000029884
      7        1           0.000002974   -0.000004625   -0.000004802
      8        1           0.000030173    0.000000420    0.000039987
      9        1          -0.000015902   -0.000025811   -0.000001614
     10        1          -0.000016232    0.000002613    0.000024219
     11        1           0.000001812   -0.000037264   -0.000008986
     12        1           0.000000146    0.000004479   -0.000009939
     13        1          -0.000045528    0.000002396   -0.000029191
 -------------------------------------------------------------------
 Cartesian Forces:  Max     0.000112117 RMS     0.000044344
 Leave Link  716 at Mon Aug 25 14:25:52 2025, MaxMem=  4294967296 cpu:               0.0 elap:               0.0
 (Enter /opt/apps/Gaussian/G16C/g16/l103.exe)

 GradGradGradGradGradGradGradGradGradGradGradGradGradGradGradGradGradGrad
 Berny optimization.
 Using GEDIIS/GDIIS optimizer.
 FormGI is forming the generalized inverse of G from B-inverse, IUseBI=4.
 Internal  Forces:  Max     0.000073261 RMS     0.000020654
 Search for a local minimum.
 Step number  17 out of a maximum of   81
 All quantities printed in internal units (Hartrees-Bohrs-Radians)
 RMS Force = .20654D-04 SwitMx=.10000D-02 MixMth= 2
 Mixed Optimization -- En-DIIS/RFO-DIIS
 Swapping is turned off.
 Update second derivatives using D2CorX and points   11   13   14   15   16
                                                     17
 DE= -1.23D-06 DEPred=-9.45D-07 R= 1.30D+00
 TightC=F SS=  1.41D+00  RLast= 1.30D-01 DXNew= 1.7037D+00 3.9084D-01
 Trust test= 1.30D+00 RLast= 1.30D-01 DXMaxT set to 1.01D+00
 ITU=  1  0  1 -1  1  1  1  1  1  1  1  1  1  1  1  1  0
     Eigenvalues ---    0.00007   0.00686   0.02590   0.03867   0.04875
     Eigenvalues ---    0.05116   0.05435   0.05924   0.05964   0.06456
     Eigenvalues ---    0.06957   0.07298   0.07743   0.09737   0.10767
     Eigenvalues ---    0.11363   0.11394   0.12669   0.21929   0.26101
     Eigenvalues ---    0.26709   0.29241   0.32271   0.33927   0.36638
     Eigenvalues ---    0.37133   0.37196   0.37235   0.37248   0.37330
     Eigenvalues ---    0.37464   0.38299   0.58019
 Eigenvalue     1 is   7.38D-05 Eigenvector:
                          D33       D32       D30       D29       D27
   1                    0.23676   0.23097   0.23024   0.22446   0.21610
                          D31       D26       D28       D25       D21
   1                    0.21263   0.21031   0.20611   0.19197  -0.19135
 En-DIIS/RFO-DIIS/Sim-DIIS IScMMF=       -3 using points:    17   16   15   14   13   12   11   10    9    8
 RFO step:  Lambda=-2.44518618D-07.
 NNeg= 0 NGDIIS=10 SimSw=  2.50D-01 Rises=F DC= -1.23D-06 SmlDif=  1.00D-05
 NRisDI= 0 DoIntr=F SqrtH=F CThrHd= 10.0 CDAdj=  3.0
 RMS Error=  0.1221500366D-02 NUsed=10 OKEnD=F EnDIS=F
 InvSVX:  RCond= 1.45D-09 Info=           0 Equed=N FErr=  1.11D-08 BErr=  8.53D-17
 DIIS inversion failure, remove point  10.
 InvSVX:  RCond= 1.73D-09 Info=           0 Equed=N FErr=  1.12D-08 BErr=  9.25D-17
 DIIS inversion failure, remove point   9.
 InvSVX:  RCond= 1.96D-09 Info=           0 Equed=N FErr=  7.11D-09 BErr=  1.33D-16
 DIIS inversion failure, remove point   8.
 InvSVX:  RCond= 3.57D-09 Info=           0 Equed=N FErr=  8.62D-10 BErr=  7.99D-17
 DIIS inversion failure, remove point   7.
 InvSVX:  RCond= 5.77D-09 Info=           0 Equed=N FErr=  5.00D-10 BErr=  5.31D-17
 DIIS inversion failure, remove point   6.
 InvSVX:  RCond= 9.36D-09 Info=           0 Equed=N FErr=  1.85D-10 BErr=  8.93D-17
 DIIS inversion failure, remove point   5.
 InvSVX:  RCond= 4.18D-08 Info=           0 Equed=N FErr=  1.29D-11 BErr=  9.01D-17
 DIIS inversion failure, remove point   4.
 InvSVX:  RCond= 2.74D-05 Info=           0 Equed=N FErr=  4.12D-15 BErr=  6.63D-17
 RFO-DIIS uses    3 points instead of   10
 DidBck=F Rises=F RFO-DIIS coefs:    1.55187   -0.11807   -0.43380    0.00000    0.00000
                  RFO-DIIS coefs:    0.00000    0.00000    0.00000    0.00000    0.00000
 Iteration  1 RMS(Cart)=  0.00236053 RMS(Int)=  0.00000496
 Iteration  2 RMS(Cart)=  0.00000314 RMS(Int)=  0.00000421
 Iteration  3 RMS(Cart)=  0.00000000 RMS(Int)=  0.00000421
 ITry= 1 IFail=0 DXMaxC= 7.29D-03 DCOld= 1.00D+10 DXMaxT= 1.01D+00 DXLimC= 3.00D+00 Rises=F
 Variable       Old X    -DE/DX   Delta X   Delta X   Delta X     New X
                                 (Linear)    (Quad)   (Total)
    R1        2.68587   0.00004  -0.00009   0.00012   0.00003   2.68590
    R2        2.90263  -0.00007   0.00060  -0.00026   0.00035   2.90298
    R3        2.06500  -0.00001   0.00007  -0.00005   0.00002   2.06502
    R4        2.08221  -0.00000  -0.00001  -0.00002  -0.00003   2.08218
    R5        2.68667  -0.00006   0.00020  -0.00019   0.00001   2.68668
    R6        2.90494  -0.00005  -0.00023  -0.00008  -0.00031   2.90462
    R7        2.08169   0.00005  -0.00010   0.00014   0.00003   2.08173
    R8        2.06489   0.00000   0.00003  -0.00001   0.00001   2.06490
    R9        2.92568  -0.00003  -0.00015   0.00001  -0.00014   2.92554
   R10        2.06719   0.00000   0.00008  -0.00006   0.00003   2.06722
   R11        2.06727   0.00000   0.00006  -0.00003   0.00003   2.06730
   R12        2.06718  -0.00000   0.00003  -0.00003   0.00001   2.06718
   R13        2.06724   0.00005  -0.00004   0.00007   0.00003   2.06727
    A1        1.84207   0.00001   0.00037   0.00006   0.00042   1.84249
    A2        1.88317   0.00000  -0.00012  -0.00004  -0.00015   1.88301
    A3        1.91268  -0.00001   0.00000  -0.00008  -0.00008   1.91261
    A4        1.99149  -0.00001  -0.00004  -0.00011  -0.00014   1.99135
    A5        1.93472  -0.00000  -0.00007   0.00006  -0.00001   1.93472
    A6        1.89752   0.00001  -0.00013   0.00010  -0.00004   1.89748
    A7        1.83812   0.00001   0.00034  -0.00000   0.00033   1.83845
    A8        1.84463  -0.00001  -0.00027   0.00006  -0.00022   1.84441
    A9        1.91172   0.00000   0.00012  -0.00003   0.00009   1.91182
   A10        1.88262  -0.00001  -0.00006  -0.00003  -0.00008   1.88254
   A11        1.93448  -0.00002   0.00008  -0.00004   0.00004   1.93452
   A12        1.99085   0.00003   0.00002   0.00006   0.00008   1.99094
   A13        1.89735   0.00000   0.00010  -0.00002   0.00008   1.89743
   A14        1.80503   0.00003   0.00003   0.00001   0.00002   1.80505
   A15        1.94366   0.00001   0.00007   0.00015   0.00023   1.94389
   A16        1.93258  -0.00003  -0.00022  -0.00014  -0.00036   1.93222
   A17        1.96511  -0.00002   0.00001   0.00001   0.00002   1.96513
   A18        1.93501  -0.00001   0.00012  -0.00015  -0.00002   1.93498
   A19        1.88284   0.00002  -0.00002   0.00011   0.00009   1.88293
   A20        1.80415  -0.00001   0.00029  -0.00001   0.00026   1.80441
   A21        1.94584   0.00001  -0.00038   0.00008  -0.00030   1.94553
   A22        1.92997  -0.00001   0.00032  -0.00005   0.00027   1.93023
   A23        1.96638   0.00001  -0.00037   0.00009  -0.00027   1.96611
   A24        1.93411  -0.00000   0.00018  -0.00003   0.00016   1.93427
   A25        1.88362  -0.00000  -0.00001  -0.00007  -0.00009   1.88354
    D1        0.70815  -0.00002  -0.00209  -0.00011  -0.00220   0.70595
    D2        2.84377  -0.00002  -0.00199  -0.00022  -0.00222   2.84156
    D3       -1.37603  -0.00002  -0.00222  -0.00018  -0.00239  -1.37842
    D4       -0.42832   0.00002   0.00385   0.00004   0.00389  -0.42443
    D5       -2.54507   0.00001   0.00432  -0.00010   0.00422  -2.54086
    D6        1.64246   0.00001   0.00437  -0.00002   0.00435   1.64681
    D7       -2.49282   0.00002   0.00378   0.00010   0.00388  -2.48893
    D8        1.67362   0.00001   0.00424  -0.00004   0.00421   1.67783
    D9       -0.42203   0.00001   0.00430   0.00004   0.00434  -0.41770
   D10        1.64121   0.00001   0.00404   0.00001   0.00405   1.64526
   D11       -0.47554  -0.00000   0.00450  -0.00013   0.00437  -0.47117
   D12       -2.57119  -0.00000   0.00456  -0.00005   0.00450  -2.56669
   D13       -0.69741   0.00003  -0.00068   0.00018  -0.00050  -0.69791
   D14        1.38742   0.00001  -0.00067   0.00015  -0.00052   1.38690
   D15       -2.83343   0.00001  -0.00052   0.00009  -0.00043  -2.83386
   D16        0.40130  -0.00001   0.00295  -0.00011   0.00284   0.40414
   D17        2.51595  -0.00001   0.00302  -0.00002   0.00300   2.51894
   D18       -1.67227  -0.00001   0.00290   0.00013   0.00303  -1.66924
   D19       -1.66846   0.00000   0.00293  -0.00009   0.00284  -1.66562
   D20        0.44618  -0.00000   0.00299   0.00001   0.00300   0.44918
   D21        2.54116   0.00001   0.00287   0.00015   0.00303   2.54418
   D22        2.46646  -0.00001   0.00271  -0.00007   0.00264   2.46910
   D23       -1.70209  -0.00001   0.00278   0.00003   0.00280  -1.69929
   D24        0.39289  -0.00001   0.00266   0.00017   0.00283   0.39572
   D25        0.01580   0.00000  -0.00403   0.00007  -0.00396   0.01184
   D26        2.11862   0.00001  -0.00450   0.00020  -0.00430   2.11432
   D27       -2.05211   0.00002  -0.00464   0.00015  -0.00449  -2.05659
   D28       -2.08429  -0.00001  -0.00413  -0.00012  -0.00426  -2.08855
   D29        0.01853  -0.00000  -0.00461   0.00001  -0.00460   0.01393
   D30        2.13099   0.00000  -0.00475  -0.00004  -0.00479   2.12620
   D31        2.08769  -0.00002  -0.00421  -0.00017  -0.00437   2.08332
   D32       -2.09267  -0.00001  -0.00468  -0.00003  -0.00472  -2.09739
   D33        0.01979  -0.00000  -0.00482  -0.00008  -0.00491   0.01488
         Item               Value     Threshold  Converged?
 Maximum Force            0.000073     0.000015     NO 
 RMS     Force            0.000021     0.000010     NO 
 Maximum Displacement     0.007293     0.000060     NO 
 RMS     Displacement     0.002360     0.000040     NO 
 Predicted change in Energy=-1.147891D-07
 Lowest energy point so far.  Saving SCF results.
 GradGradGradGradGradGradGradGradGradGradGradGradGradGradGradGradGradGrad

 Leave Link  103 at Mon Aug 25 14:25:52 2025, MaxMem=  4294967296 cpu:               0.1 elap:               0.0
 (Enter /opt/apps/Gaussian/G16C/g16/l202.exe)
                          Input orientation:                          
 ---------------------------------------------------------------------
 Center     Atomic      Atomic             Coordinates (Angstroms)
 Number     Number       Type             X           Y           Z
 ---------------------------------------------------------------------
      1          6           0       -1.748669    0.288364    0.700419
      2          8           0       -0.924434   -0.442877   -0.197390
      3          6           0        0.167596    0.418598   -0.491746
      4          6           0       -0.438845    1.823619   -0.635628
      5          6           0       -1.756973    1.730400    0.170945
      6          1           0       -2.732520   -0.186952    0.715704
      7          1           0       -1.319384    0.245301    1.714279
      8          1           0        0.894236    0.388235    0.335660
      9          1           0        0.652433    0.047480   -1.397944
     10          1           0        0.237406    2.591360   -0.248421
     11          1           0       -0.640278    2.052273   -1.686299
     12          1           0       -1.803290    2.456578    0.987737
     13          1           0       -2.622227    1.897325   -0.477289
 ---------------------------------------------------------------------
                    Distance matrix (angstroms):
                    1          2          3          4          5
     1  C    0.000000
     2  O    1.421315   0.000000
     3  C    2.260594   1.421729   0.000000
     4  C    2.420262   2.358994   1.537061   0.000000
     5  C    1.536190   2.356253   2.421559   1.548132   0.000000
     6  H    1.092759   2.041670   3.199265   3.336081   2.219165
     7  H    1.101841   2.069796   2.666025   2.964541   2.186067
     8  H    2.669826   2.069409   1.101603   2.186511   2.976147
     9  H    3.197880   2.041638   1.092699   2.219612   3.331496
    10  H    3.185684   3.249473   2.187459   1.093925   2.212390
    11  H    3.168016   2.919481   2.179108   1.093968   2.190882
    12  H    2.187850   3.253268   3.197909   2.213067   1.093906
    13  H    2.176892   2.904719   3.157524   2.190357   1.093954
                    6          7          8          9         10
     6  H    0.000000
     7  H    1.783521   0.000000
     8  H    3.691699   2.611731   0.000000
     9  H    3.997546   3.689597   1.783246   0.000000
    10  H    4.179595   3.432169   2.371990   2.822229   0.000000
    11  H    3.893741   3.910277   3.035140   2.402799   1.768739
    12  H    2.815266   2.377346   3.461198   4.186383   2.389706
    13  H    2.404081   3.038018   3.912001   3.872071   2.951537
                   11         12         13
    11  H    0.000000
    12  H    2.943897   0.000000
    13  H    2.326766   1.769103   0.000000
 Symmetry turned off by external request.
 Stoichiometry    C4H8O
 Framework group  C1[X(C4H8O)]
 Deg. of freedom    33
 Full point group                 C1      NOp   1
 Rotational constants (GHZ):           7.1515680           6.9419097           3.9980177
 Leave Link  202 at Mon Aug 25 14:25:52 2025, MaxMem=  4294967296 cpu:               0.0 elap:               0.0
 (Enter /opt/apps/Gaussian/G16C/g16/l301.exe)
 Standard basis: 6-31+G(d) (6D, 7F)
 Ernie: Thresh=  0.10000D-02 Tol=  0.10000D-05 Strict=F.
   111 basis functions,   192 primitive gaussians,   111 cartesian basis functions
    20 alpha electrons       20 beta electrons
       nuclear repulsion energy       190.5775999203 Hartrees.
 IExCor= 4639 DFT=T Ex+Corr=wB97XD ExCW=0 ScaHFX=  1.000000
 ScaDFX=  1.000000  1.000000  1.000000  1.000000 ScalE2=  1.000000  1.000000
 IRadAn=      5 IRanWt=     -1 IRanGd=            0 ICorTp=0 IEmpDi=121
 HFx  wShort=  0.000000 wLong=  0.200000 cFull=  0.222036 cShort=  0.000000 cLong=  0.777964
 DFx  wShort=  0.000000 wLong=  0.200000 cFull=  0.000000 cShort=  0.000000 cLong=  1.000000
 NAtoms=   13 NActive=   13 NUniq=   13 SFac= 1.00D+00 NAtFMM=   60 NAOKFM=F Big=F
 Integral buffers will be    131072 words long.
 Raffenetti 2 integral format.
 Two-electron integral symmetry is turned off.
 R6Disp:  Grimme-D2 Dispersion energy=       -0.0056521046 Hartrees.
 Nuclear repulsion after empirical dispersion term =      190.5719478157 Hartrees.
 ------------------------------------------------------------------------------
 Polarizable Continuum Model (PCM)
 =================================
 Model                : PCM.
 Atomic radii         : SMD-Coulomb.
 Polarization charges : Total charges.
 Charge compensation  : None.
 Solution method      : On-the-fly selection.
 Cavity type          : VdW (van der Waals Surface) (Alpha=1.000).
 Cavity algorithm     : GePol (No added spheres)
                        Default sphere list used, NSphG=   13.
                        Lebedev-Laikov grids with approx.  5.0 points / Ang**2.
                        Smoothing algorithm: York/Karplus (Gamma=1.0000).
                        Polarization charges: spherical gaussians, with
                                              point-specific exponents (IZeta= 3).
                        Self-potential: point-specific (ISelfS= 7).
                        Self-field    : sphere-specific E.n sum rule (ISelfD= 2).
 1st derivatives      : Analytical E(r).r(x)/FMM algorithm (CHGder, D1EAlg=3).
                        Cavity 1st derivative terms included.
 Solvent              : TetraHydroFuran, Eps=   7.425700 Eps(inf)=   1.974025
 ------------------------------------------------------------------------------
 Spheres list:
 ISph  on   Nord     Re0    Alpha      Xe            Ye            Ze
    1   C      1    1.8500  1.000     -1.748669      0.288364      0.700419
    2   O      2    2.2940  1.000     -0.924434     -0.442877     -0.197390
    3   C      3    1.8500  1.000      0.167596      0.418598     -0.491746
    4   C      4    1.8500  1.000     -0.438845      1.823619     -0.635628
    5   C      5    1.8500  1.000     -1.756973      1.730400      0.170945
    6   H      6    1.2000  1.000     -2.732520     -0.186952      0.715704
    7   H      7    1.2000  1.000     -1.319384      0.245301      1.714279
    8   H      8    1.2000  1.000      0.894236      0.388235      0.335660
    9   H      9    1.2000  1.000      0.652433      0.047480     -1.397944
   10   H     10    1.2000  1.000      0.237406      2.591360     -0.248421
   11   H     11    1.2000  1.000     -0.640278      2.052273     -1.686299
   12   H     12    1.2000  1.000     -1.803290      2.456578      0.987737
   13   H     13    1.2000  1.000     -2.622227      1.897325     -0.477289
 ------------------------------------------------------------------------------
 GePol: Number of generator spheres                  =      13
 GePol: Total number of spheres                      =      13
 GePol: Number of exposed spheres                    =      13 (100.00%)
 GePol: Number of points                             =     978
 GePol: Average weight of points                     =       0.12
 GePol: Minimum weight of points                     =   0.79D-10
 GePol: Maximum weight of points                     =    0.17992
 GePol: Number of points with low weight             =      47
 GePol: Fraction of low-weight points (<1% of avg)   =       4.81%
 GePol: Cavity surface area                          =    115.899 Ang**2
 GePol: Cavity volume                                =     98.789 Ang**3
 ------------------------------------------------------------------------------
 Atomic radii for non-electrostatic terms: SMD-CDS.
 ------------------------------------------------------------------------------
 PCM non-electrostatic energy =        -0.0025658580 Hartrees.
 Nuclear repulsion after PCM non-electrostatic terms =      190.5693819578 Hartrees.
 Leave Link  301 at Mon Aug 25 14:25:52 2025, MaxMem=  4294967296 cpu:               0.1 elap:               0.0
 (Enter /opt/apps/Gaussian/G16C/g16/l302.exe)
 NPDir=0 NMtPBC=     1 NCelOv=     1 NCel=       1 NClECP=     1 NCelD=      1
         NCelK=      1 NCelE2=     1 NClLst=     1 CellRange=     0.0.
 One-electron integrals computed using PRISM.
 NBasis=   111 RedAO= T EigKep=  2.64D-05  NBF=   111
 NBsUse=   111 1.00D-06 EigRej= -1.00D+00 NBFU=   111
 Precomputing XC quadrature grid using
 IXCGrd= 4 IRadAn=           5 IRanWt=          -1 IRanGd=           0 AccXCQ= 0.00D+00.
 Generated NRdTot=       0 NPtTot=           0 NUsed=           0 NTot=          32
 NSgBfM=   111   111   111   111   111 MxSgAt=    13 MxSgA2=    13.
 Leave Link  302 at Mon Aug 25 14:25:52 2025, MaxMem=  4294967296 cpu:               0.7 elap:               0.1
 (Enter /opt/apps/Gaussian/G16C/g16/l303.exe)
 DipDrv:  MaxL=1.
 Leave Link  303 at Mon Aug 25 14:25:52 2025, MaxMem=  4294967296 cpu:               0.1 elap:               0.0
 (Enter /opt/apps/Gaussian/G16C/g16/l401.exe)
 Initial guess from the checkpoint file:  "THF-dzpop.chk"
 B after Tr=     0.000656    0.000280    0.000249
         Rot=    1.000000    0.000031    0.000026   -0.000084 Ang=   0.01 deg.
 Guess basis will be translated and rotated to current coordinates.
 JPrj=2 DoOrth=T DoCkMO=T.
 Leave Link  401 at Mon Aug 25 14:25:52 2025, MaxMem=  4294967296 cpu:               0.2 elap:               0.1
 (Enter /opt/apps/Gaussian/G16C/g16/l502.exe)
 Two-electron integral symmetry not used.
 Closed shell SCF:
 Using DIIS extrapolation, IDIIS=  1040.
 NGot=  4294967296 LenX=  4294939455 LenY=  4294926693
 Requested convergence on RMS density matrix=1.00D-08 within 128 cycles.
 Requested convergence on MAX density matrix=1.00D-06.
 Requested convergence on             energy=1.00D-06.
 No special actions if energy rises.
 Fock matrices will be formed incrementally for  20 cycles.

 Cycle   1  Pass 1  IDiag  1:
 FoFJK:  IHMeth= 1 ICntrl=       0 DoSepK=T KAlg= 0 I1Cent=           0 FoldK=F
 IRaf=         1 NMat=       1 IRICut=       1 DoRegI=T DoRafI=F ISym2E= 0 IDoP0=0 IntGTp=1.
 FoFCou: FMM=F IPFlag=           0 FMFlag=      100000 FMFlg1=           0
         NFxFlg=           0 DoJE=T BraDBF=F KetDBF=F FulRan=T
         wScrn=  0.000000 ICntrl=       500 IOpCl=  0 I1Cent=           0 NGrid=           0
         NMat0=    1 NMatS0=      1 NMatT0=    0 NMatD0=    1 NMtDS0=    0 NMtDT0=    0
 Symmetry not used in FoFCou.
 Inv3:  Mode=1 IEnd=     2869452.
 Iteration    1 A*A^-1 deviation from unit magnitude is 4.22D-15 for    963.
 Iteration    1 A*A^-1 deviation from orthogonality  is 1.21D-15 for    733    248.
 Iteration    1 A^-1*A deviation from unit magnitude is 4.22D-15 for    963.
 Iteration    1 A^-1*A deviation from orthogonality  is 2.37D-15 for    390    363.
 E= -232.393137717944    
 DIIS: error= 2.03D-04 at cycle   1 NSaved=   1.
 NSaved= 1 IEnMin= 1 EnMin= -232.393137717944     IErMin= 1 ErrMin= 2.03D-04
 ErrMax= 2.03D-04  0.00D+00 EMaxC= 1.00D-01 BMatC= 4.12D-06 BMatP= 4.12D-06
 IDIUse=3 WtCom= 9.98D-01 WtEn= 2.03D-03
 Coeff-Com:  0.100D+01
 Coeff-En:   0.100D+01
 Coeff:      0.100D+01
 Gap=     0.832 Goal=   None    Shift=    0.000
 RMSDP=4.99D-05 MaxDP=7.36D-04              OVMax= 6.05D-04

 Cycle   2  Pass 1  IDiag  1:
 RMSU=  4.99D-05    CP:  1.00D+00
 E= -232.393144373581     Delta-E=       -0.000006655637 Rises=F Damp=F
 DIIS: error= 3.05D-05 at cycle   2 NSaved=   2.
 NSaved= 2 IEnMin= 2 EnMin= -232.393144373581     IErMin= 2 ErrMin= 3.05D-05
 ErrMax= 3.05D-05  0.00D+00 EMaxC= 1.00D-01 BMatC= 1.52D-07 BMatP= 4.12D-06
 IDIUse=1 WtCom= 1.00D+00 WtEn= 0.00D+00
 Coeff-Com: -0.173D+00 0.117D+01
 Coeff:     -0.173D+00 0.117D+01
 Gap=     0.419 Goal=   None    Shift=    0.000
 RMSDP=1.14D-05 MaxDP=1.51D-04 DE=-6.66D-06 OVMax= 2.07D-04

 Cycle   3  Pass 1  IDiag  1:
 RMSU=  7.40D-06    CP:  1.00D+00  1.17D+00
 E= -232.393144776612     Delta-E=       -0.000000403031 Rises=F Damp=F
 DIIS: error= 5.09D-06 at cycle   3 NSaved=   3.
 NSaved= 3 IEnMin= 3 EnMin= -232.393144776612     IErMin= 3 ErrMin= 5.09D-06
 ErrMax= 5.09D-06  0.00D+00 EMaxC= 1.00D-01 BMatC= 4.35D-09 BMatP= 1.52D-07
 IDIUse=1 WtCom= 1.00D+00 WtEn= 0.00D+00
 Coeff-Com: -0.357D-02-0.725D-01 0.108D+01
 Coeff:     -0.357D-02-0.725D-01 0.108D+01
 Gap=     0.419 Goal=   None    Shift=    0.000
 RMSDP=2.27D-06 MaxDP=2.32D-05 DE=-4.03D-07 OVMax= 4.98D-05

 Cycle   4  Pass 1  IDiag  1:
 RMSU=  1.36D-06    CP:  1.00D+00  1.19D+00  1.23D+00
 E= -232.393144787361     Delta-E=       -0.000000010749 Rises=F Damp=F
 DIIS: error= 2.30D-06 at cycle   4 NSaved=   4.
 NSaved= 4 IEnMin= 4 EnMin= -232.393144787361     IErMin= 4 ErrMin= 2.30D-06
 ErrMax= 2.30D-06  0.00D+00 EMaxC= 1.00D-01 BMatC= 1.64D-09 BMatP= 4.35D-09
 IDIUse=1 WtCom= 1.00D+00 WtEn= 0.00D+00
 Coeff-Com:  0.707D-02-0.886D-01 0.439D+00 0.643D+00
 Coeff:      0.707D-02-0.886D-01 0.439D+00 0.643D+00
 Gap=     0.419 Goal=   None    Shift=    0.000
 RMSDP=5.69D-07 MaxDP=6.83D-06 DE=-1.07D-08 OVMax= 9.93D-06

 Cycle   5  Pass 1  IDiag  1:
 RMSU=  4.97D-07    CP:  1.00D+00  1.19D+00  1.27D+00  1.02D+00
 E= -232.393144788991     Delta-E=       -0.000000001630 Rises=F Damp=F
 DIIS: error= 6.53D-07 at cycle   5 NSaved=   5.
 NSaved= 5 IEnMin= 5 EnMin= -232.393144788991     IErMin= 5 ErrMin= 6.53D-07
 ErrMax= 6.53D-07  0.00D+00 EMaxC= 1.00D-01 BMatC= 9.92D-11 BMatP= 1.64D-09
 IDIUse=1 WtCom= 1.00D+00 WtEn= 0.00D+00
 Coeff-Com:  0.219D-02-0.166D-01 0.609D-02 0.174D+00 0.835D+00
 Coeff:      0.219D-02-0.166D-01 0.609D-02 0.174D+00 0.835D+00
 Gap=     0.419 Goal=   None    Shift=    0.000
 RMSDP=2.50D-07 MaxDP=4.22D-06 DE=-1.63D-09 OVMax= 5.00D-06

 Cycle   6  Pass 1  IDiag  1:
 RMSU=  1.21D-07    CP:  1.00D+00  1.19D+00  1.27D+00  1.15D+00  1.23D+00
 E= -232.393144789099     Delta-E=       -0.000000000108 Rises=F Damp=F
 DIIS: error= 3.25D-07 at cycle   6 NSaved=   6.
 NSaved= 6 IEnMin= 6 EnMin= -232.393144789099     IErMin= 6 ErrMin= 3.25D-07
 ErrMax= 3.25D-07  0.00D+00 EMaxC= 1.00D-01 BMatC= 2.42D-11 BMatP= 9.92D-11
 IDIUse=1 WtCom= 1.00D+00 WtEn= 0.00D+00
 Coeff-Com:  0.168D-03 0.295D-02-0.504D-01 0.419D-02 0.390D+00 0.653D+00
 Coeff:      0.168D-03 0.295D-02-0.504D-01 0.419D-02 0.390D+00 0.653D+00
 Gap=     0.419 Goal=   None    Shift=    0.000
 RMSDP=9.03D-08 MaxDP=1.80D-06 DE=-1.08D-10 OVMax= 1.73D-06

 Cycle   7  Pass 1  IDiag  1:
 RMSU=  4.13D-08    CP:  1.00D+00  1.19D+00  1.27D+00  1.20D+00  1.33D+00
                    CP:  1.00D+00
 E= -232.393144789125     Delta-E=       -0.000000000026 Rises=F Damp=F
 DIIS: error= 6.08D-08 at cycle   7 NSaved=   7.
 NSaved= 7 IEnMin= 7 EnMin= -232.393144789125     IErMin= 7 ErrMin= 6.08D-08
 ErrMax= 6.08D-08  0.00D+00 EMaxC= 1.00D-01 BMatC= 5.37D-13 BMatP= 2.42D-11
 IDIUse=1 WtCom= 1.00D+00 WtEn= 0.00D+00
 Coeff-Com: -0.189D-03 0.207D-02-0.774D-02-0.156D-01-0.245D-01 0.872D-01
 Coeff-Com:  0.959D+00
 Coeff:     -0.189D-03 0.207D-02-0.774D-02-0.156D-01-0.245D-01 0.872D-01
 Coeff:      0.959D+00
 Gap=     0.419 Goal=   None    Shift=    0.000
 RMSDP=3.96D-08 MaxDP=7.90D-07 DE=-2.61D-11 OVMax= 7.07D-07

 Cycle   8  Pass 1  IDiag  1:
 RMSU=  1.15D-08    CP:  1.00D+00  1.19D+00  1.27D+00  1.21D+00  1.37D+00
                    CP:  1.13D+00  1.26D+00
 E= -232.393144789125     Delta-E=        0.000000000000 Rises=F Damp=F
 DIIS: error= 1.20D-08 at cycle   8 NSaved=   8.
 NSaved= 8 IEnMin= 7 EnMin= -232.393144789125     IErMin= 8 ErrMin= 1.20D-08
 ErrMax= 1.20D-08  0.00D+00 EMaxC= 1.00D-01 BMatC= 2.33D-14 BMatP= 5.37D-13
 IDIUse=1 WtCom= 1.00D+00 WtEn= 0.00D+00
 Coeff-Com: -0.894D-05-0.162D-03 0.284D-02 0.115D-03-0.208D-01-0.380D-01
 Coeff-Com: -0.303D-01 0.109D+01
 Coeff:     -0.894D-05-0.162D-03 0.284D-02 0.115D-03-0.208D-01-0.380D-01
 Coeff:     -0.303D-01 0.109D+01
 Gap=     0.419 Goal=   None    Shift=    0.000
 RMSDP=1.08D-08 MaxDP=2.03D-07 DE= 1.71D-13 OVMax= 1.79D-07

 Cycle   9  Pass 1  IDiag  1:
 RMSU=  2.87D-09    CP:  1.00D+00  1.19D+00  1.27D+00  1.21D+00  1.38D+00
                    CP:  1.17D+00  1.39D+00  1.34D+00
 E= -232.393144789123     Delta-E=        0.000000000002 Rises=F Damp=F
 DIIS: error= 3.06D-09 at cycle   9 NSaved=   9.
 NSaved= 9 IEnMin= 7 EnMin= -232.393144789125     IErMin= 9 ErrMin= 3.06D-09
 ErrMax= 3.06D-09  0.00D+00 EMaxC= 1.00D-01 BMatC= 3.13D-15 BMatP= 2.33D-14
 IDIUse=1 WtCom= 1.00D+00 WtEn= 0.00D+00
 Coeff-Com:  0.101D-04-0.178D-03 0.120D-02 0.113D-02-0.328D-02-0.150D-01
 Coeff-Com: -0.725D-01 0.266D+00 0.823D+00
 Coeff:      0.101D-04-0.178D-03 0.120D-02 0.113D-02-0.328D-02-0.150D-01
 Coeff:     -0.725D-01 0.266D+00 0.823D+00
 Gap=     0.419 Goal=   None    Shift=    0.000
 RMSDP=2.05D-09 MaxDP=3.88D-08 DE= 1.96D-12 OVMax= 3.10D-08

 Error on total polarization charges =  0.02884
 SCF Done:  E(RwB97XD) =  -232.393144789     A.U. after    9 cycles
            NFock=  9  Conv=0.20D-08     -V/T= 2.0094
 KE= 2.302302047148D+02 PE=-9.217995914824D+02 EE= 2.686068600207D+02
 SMD-CDS (non-electrostatic) energy       (kcal/mol) =      -1.61
 (included in total energy above)
 Leave Link  502 at Mon Aug 25 14:25:57 2025, MaxMem=  4294967296 cpu:              65.1 elap:               4.7
 (Enter /opt/apps/Gaussian/G16C/g16/l701.exe)
 ... and contract with generalized density number  0.
 Compute integral first derivatives.
 R6Disp: Adding Grimme-D2 dispersion energy 1st derivatives to the gradient.
 D1PCM: PCM CHGder 1st derivatives, ID1Alg=3 FixD1E=F DoIter=F DoCFld=F I1PDM=0.
 GePol: Maximum number of non-zero 1st derivatives   =     307
 Leave Link  701 at Mon Aug 25 14:25:57 2025, MaxMem=  4294967296 cpu:               3.6 elap:               0.3
 (Enter /opt/apps/Gaussian/G16C/g16/l702.exe)
 L702 exits ... SP integral derivatives will be done elsewhere.
 Leave Link  702 at Mon Aug 25 14:25:57 2025, MaxMem=  4294967296 cpu:               0.0 elap:               0.0
 (Enter /opt/apps/Gaussian/G16C/g16/l703.exe)
 Integral derivatives from FoFJK, PRISM(SPDF).
 Compute integral first derivatives, UseDBF=F ICtDFT=           0.
 Calling FoFJK, ICntrl=      2127 FMM=F ISym2X=0 I1Cent= 0 IOpClX= 0 NMat=1 NMatS=1 NMatT=0.
 FoFJK:  IHMeth= 1 ICntrl=    2127 DoSepK=T KAlg= 0 I1Cent=           0 FoldK=F
 IRaf=         1 NMat=       1 IRICut=       1 DoRegI=T DoRafI=F ISym2E= 0 IDoP0=0 IntGTp=1.
 FoFCou: FMM=F IPFlag=           0 FMFlag=      100000 FMFlg1=         800
         NFxFlg=           0 DoJE=F BraDBF=F KetDBF=F FulRan=T
         wScrn=  0.000000 ICntrl=      2527 IOpCl=  0 I1Cent=           0 NGrid=           0
         NMat0=    1 NMatS0=      1 NMatT0=    0 NMatD0=    1 NMtDS0=    0 NMtDT0=    0
 Symmetry not used in FoFCou.
 Leave Link  703 at Mon Aug 25 14:25:58 2025, MaxMem=  4294967296 cpu:               9.9 elap:               0.7
 (Enter /opt/apps/Gaussian/G16C/g16/l716.exe)
 Dipole        = 7.66843138D-02 8.41420093D-01 2.16125655D-01
 -------------------------------------------------------------------
 Center     Atomic                   Forces (Hartrees/Bohr)
 Number     Number              X              Y              Z
 -------------------------------------------------------------------
      1        6          -0.000050983    0.000096175   -0.000010571
      2        8           0.000103942    0.000011485   -0.000007635
      3        6          -0.000109483   -0.000001883   -0.000072136
      4        6           0.000032932   -0.000021309    0.000026613
      5        6           0.000045077   -0.000050242    0.000074752
      6        1           0.000010033    0.000017653   -0.000021674
      7        1           0.000002735   -0.000002211   -0.000007585
      8        1           0.000028772   -0.000002115    0.000038679
      9        1          -0.000008699   -0.000015497    0.000004188
     10        1          -0.000015679   -0.000006651    0.000009352
     11        1          -0.000002665   -0.000030029   -0.000000667
     12        1          -0.000006316    0.000000921   -0.000011063
     13        1          -0.000029668    0.000003704   -0.000022252
 -------------------------------------------------------------------
 Cartesian Forces:  Max     0.000109483 RMS     0.000038892
 Leave Link  716 at Mon Aug 25 14:25:58 2025, MaxMem=  4294967296 cpu:               0.0 elap:               0.0
 (Enter /opt/apps/Gaussian/G16C/g16/l103.exe)

 GradGradGradGradGradGradGradGradGradGradGradGradGradGradGradGradGradGrad
 Berny optimization.
 Using GEDIIS/GDIIS optimizer.
 FormGI is forming the generalized inverse of G from B-inverse, IUseBI=4.
 Internal  Forces:  Max     0.000083936 RMS     0.000019044
 Search for a local minimum.
 Step number  18 out of a maximum of   81
 All quantities printed in internal units (Hartrees-Bohrs-Radians)
 RMS Force = .19044D-04 SwitMx=.10000D-02 MixMth= 2
 Mixed Optimization -- En-DIIS/RFO-DIIS
 Swapping is turned off.
 Update second derivatives using D2CorX and points   11   13   14   15   16
                                                     17   18
 DE= -2.14D-07 DEPred=-1.15D-07 R= 1.87D+00
 Trust test= 1.87D+00 RLast= 2.08D-02 DXMaxT set to 1.01D+00
 ITU=  0  1  0  1 -1  1  1  1  1  1  1  1  1  1  1  1  1  0
     Eigenvalues ---    0.00005   0.00609   0.02476   0.03594   0.04750
     Eigenvalues ---    0.05050   0.05326   0.05871   0.05938   0.06363
     Eigenvalues ---    0.06958   0.07245   0.07539   0.09527   0.10520
     Eigenvalues ---    0.11307   0.11367   0.12644   0.21905   0.26182
     Eigenvalues ---    0.26896   0.29061   0.32142   0.34055   0.35223
     Eigenvalues ---    0.37168   0.37207   0.37230   0.37258   0.37287
     Eigenvalues ---    0.37453   0.37801   0.47919
 Eigenvalue     1 is   4.59D-05 Eigenvector:
                          D33       D32       D30       D29       D27
   1                    0.23779   0.23098   0.23093   0.22412   0.21567
                          D31       D26       D28       D25       D21
   1                    0.21423   0.20886   0.20737   0.19211  -0.18611
 En-DIIS/RFO-DIIS/Sim-DIIS IScMMF=       -3 using points:    18   17   16   15   14   13   12   11   10    9
 RFO step:  Lambda=-2.16935081D-07.
 NNeg= 0 NGDIIS=10 SimSw=  2.50D-01 Rises=F DC= -2.14D-07 SmlDif=  1.00D-05
 NRisDI= 0 DoIntr=F SqrtH=F CThrHd= 10.0 CDAdj=  3.0
 RMS Error=  0.3045402179D-02 NUsed=10 OKEnD=F EnDIS=F
 InvSVX:  RCond= 2.21D-10 Info=           0 Equed=N FErr=  2.07D-08 BErr=  6.17D-17
 DIIS inversion failure, remove point  10.
 InvSVX:  RCond= 3.07D-10 Info=           0 Equed=N FErr=  8.21D-09 BErr=  5.93D-17
 DIIS inversion failure, remove point   9.
 InvSVX:  RCond= 6.53D-10 Info=           0 Equed=N FErr=  1.60D-09 BErr=  5.50D-17
 DIIS inversion failure, remove point   8.
 InvSVX:  RCond= 7.46D-10 Info=           0 Equed=N FErr=  1.19D-09 BErr=  5.03D-17
 DIIS inversion failure, remove point   7.
 InvSVX:  RCond= 3.67D-09 Info=           0 Equed=N FErr=  1.96D-10 BErr=  5.47D-17
 DIIS inversion failure, remove point   6.
 InvSVX:  RCond= 4.92D-09 Info=           0 Equed=N FErr=  1.19D-10 BErr=  6.03D-17
 DIIS inversion failure, remove point   5.
 InvSVX:  RCond= 1.59D-08 Info=           0 Equed=N FErr=  2.39D-11 BErr=  4.02D-17
 DIIS inversion failure, remove point   4.
 InvSVX:  RCond= 6.24D-06 Info=           0 Equed=N FErr=  5.70D-14 BErr=  5.66D-17
 RFO-DIIS uses    3 points instead of   10
 DidBck=F Rises=F RFO-DIIS coefs:    2.70266   -1.51305   -0.18961    0.00000    0.00000
                  RFO-DIIS coefs:    0.00000    0.00000    0.00000    0.00000    0.00000
 Iteration  1 RMS(Cart)=  0.00674009 RMS(Int)=  0.00002503
 Iteration  2 RMS(Cart)=  0.00002563 RMS(Int)=  0.00001344
 Iteration  3 RMS(Cart)=  0.00000000 RMS(Int)=  0.00001344
 ITry= 1 IFail=0 DXMaxC= 2.19D-02 DCOld= 1.00D+10 DXMaxT= 1.01D+00 DXLimC= 3.00D+00 Rises=F
 Variable       Old X    -DE/DX   Delta X   Delta X   Delta X     New X
                                 (Linear)    (Quad)   (Total)
    R1        2.68590   0.00004   0.00011   0.00012   0.00023   2.68613
    R2        2.90298  -0.00008   0.00092  -0.00024   0.00067   2.90365
    R3        2.06502  -0.00002   0.00003  -0.00005  -0.00002   2.06499
    R4        2.08218  -0.00001  -0.00008  -0.00003  -0.00011   2.08206
    R5        2.68668  -0.00008  -0.00007  -0.00019  -0.00026   2.68642
    R6        2.90462  -0.00004  -0.00085  -0.00009  -0.00094   2.90368
    R7        2.08173   0.00005   0.00011   0.00010   0.00021   2.08194
    R8        2.06490  -0.00000   0.00001  -0.00001  -0.00000   2.06490
    R9        2.92554  -0.00001  -0.00012   0.00007  -0.00006   2.92548
   R10        2.06722  -0.00001   0.00004  -0.00006  -0.00002   2.06720
   R11        2.06730  -0.00000   0.00007  -0.00002   0.00006   2.06736
   R12        2.06718  -0.00001   0.00001  -0.00002  -0.00001   2.06717
   R13        2.06727   0.00004   0.00002   0.00003   0.00004   2.06732
    A1        1.84249   0.00001   0.00096   0.00005   0.00098   1.84347
    A2        1.88301  -0.00000  -0.00025  -0.00004  -0.00028   1.88273
    A3        1.91261  -0.00001  -0.00024  -0.00008  -0.00031   1.91229
    A4        1.99135  -0.00001  -0.00029  -0.00004  -0.00032   1.99103
    A5        1.93472   0.00000  -0.00005   0.00005  -0.00000   1.93471
    A6        1.89748   0.00001  -0.00011   0.00006  -0.00006   1.89743
    A7        1.83845  -0.00000   0.00023  -0.00002   0.00018   1.83863
    A8        1.84441  -0.00000  -0.00084   0.00006  -0.00081   1.84360
    A9        1.91182   0.00000   0.00024   0.00003   0.00027   1.91209
   A10        1.88254  -0.00001   0.00003   0.00005   0.00009   1.88262
   A11        1.93452  -0.00001   0.00008  -0.00002   0.00006   1.93458
   A12        1.99094   0.00002   0.00029  -0.00005   0.00026   1.99119
   A13        1.89743   0.00000   0.00018  -0.00006   0.00012   1.89755
   A14        1.80505   0.00002  -0.00023  -0.00001  -0.00029   1.80476
   A15        1.94389   0.00001   0.00068   0.00011   0.00081   1.94470
   A16        1.93222  -0.00002  -0.00089  -0.00011  -0.00099   1.93124
   A17        1.96513  -0.00002   0.00044   0.00000   0.00046   1.96559
   A18        1.93498  -0.00000  -0.00021  -0.00012  -0.00031   1.93467
   A19        1.88293   0.00001   0.00017   0.00012   0.00028   1.88321
   A20        1.80441  -0.00002   0.00056  -0.00002   0.00048   1.80489
   A21        1.94553   0.00001  -0.00078   0.00004  -0.00073   1.94480
   A22        1.93023   0.00000   0.00075   0.00002   0.00079   1.93102
   A23        1.96611   0.00001  -0.00049   0.00004  -0.00044   1.96567
   A24        1.93427   0.00000   0.00031  -0.00005   0.00027   1.93454
   A25        1.88354  -0.00001  -0.00029  -0.00003  -0.00033   1.88321
    D1        0.70595  -0.00001  -0.00434  -0.00003  -0.00439   0.70156
    D2        2.84156  -0.00001  -0.00428  -0.00008  -0.00437   2.83719
    D3       -1.37842  -0.00001  -0.00470  -0.00007  -0.00477  -1.38319
    D4       -0.42443   0.00001   0.01004  -0.00000   0.01003  -0.41440
    D5       -2.54086   0.00000   0.01069  -0.00006   0.01064  -2.53022
    D6        1.64681   0.00000   0.01107  -0.00006   0.01100   1.65781
    D7       -2.48893   0.00001   0.00987   0.00004   0.00992  -2.47902
    D8        1.67783   0.00000   0.01053  -0.00001   0.01052   1.68835
    D9       -0.41770   0.00000   0.01091  -0.00002   0.01088  -0.40681
   D10        1.64526   0.00001   0.01029  -0.00005   0.01023   1.65549
   D11       -0.47117  -0.00000   0.01094  -0.00010   0.01084  -0.46034
   D12       -2.56669  -0.00000   0.01132  -0.00011   0.01120  -2.55550
   D13       -0.69791   0.00002  -0.00348   0.00010  -0.00337  -0.70128
   D14        1.38690   0.00001  -0.00373   0.00012  -0.00361   1.38329
   D15       -2.83386   0.00000  -0.00337   0.00009  -0.00327  -2.83712
   D16        0.40414  -0.00000   0.00948  -0.00006   0.00942   0.41356
   D17        2.51894  -0.00000   0.01022  -0.00001   0.01020   2.52915
   D18       -1.66924   0.00000   0.01028   0.00014   0.01042  -1.65882
   D19       -1.66562   0.00000   0.00965  -0.00012   0.00953  -1.65608
   D20        0.44918  -0.00000   0.01039  -0.00007   0.01032   0.45950
   D21        2.54418   0.00001   0.01045   0.00008   0.01054   2.55472
   D22        2.46910  -0.00000   0.00913   0.00001   0.00913   2.47823
   D23       -1.69929  -0.00001   0.00987   0.00006   0.00992  -1.68937
   D24        0.39572  -0.00000   0.00993   0.00021   0.01014   0.40585
   D25        0.01184   0.00000  -0.01145   0.00007  -0.01138   0.00047
   D26        2.11432   0.00001  -0.01230   0.00012  -0.01218   2.10214
   D27       -2.05659   0.00001  -0.01279   0.00008  -0.01271  -2.06930
   D28       -2.08855  -0.00001  -0.01235  -0.00006  -0.01241  -2.10095
   D29        0.01393  -0.00000  -0.01321  -0.00000  -0.01321   0.00072
   D30        2.12620   0.00000  -0.01370  -0.00005  -0.01373   2.11247
   D31        2.08332  -0.00001  -0.01273  -0.00012  -0.01285   2.07046
   D32       -2.09739  -0.00001  -0.01358  -0.00007  -0.01366  -2.11105
   D33        0.01488  -0.00000  -0.01407  -0.00011  -0.01418   0.00070
         Item               Value     Threshold  Converged?
 Maximum Force            0.000084     0.000015     NO 
 RMS     Force            0.000019     0.000010     NO 
 Maximum Displacement     0.021856     0.000060     NO 
 RMS     Displacement     0.006740     0.000040     NO 
 Predicted change in Energy=-1.441355D-07
 Lowest energy point so far.  Saving SCF results.
 GradGradGradGradGradGradGradGradGradGradGradGradGradGradGradGradGradGrad

 Leave Link  103 at Mon Aug 25 14:25:58 2025, MaxMem=  4294967296 cpu:               0.1 elap:               0.0
 (Enter /opt/apps/Gaussian/G16C/g16/l202.exe)
                          Input orientation:                          
 ---------------------------------------------------------------------
 Center     Atomic      Atomic             Coordinates (Angstroms)
 Number     Number       Type             X           Y           Z
 ---------------------------------------------------------------------
      1          6           0       -1.750008    0.286952    0.698058
      2          8           0       -0.922454   -0.442777   -0.198121
      3          6           0        0.169104    0.420088   -0.489473
      4          6           0       -0.440343    1.822684   -0.638887
      5          6           0       -1.754727    1.731333    0.173924
      6          1           0       -2.734456   -0.187259    0.707050
      7          1           0       -1.325573    0.239708    1.713707
      8          1           0        0.892227    0.393344    0.341281
      9          1           0        0.658699    0.048053   -1.392731
     10          1           0        0.235868    2.594583   -0.259987
     11          1           0       -0.647241    2.043480   -1.690207
     12          1           0       -1.793343    2.454024    0.994196
     13          1           0       -2.622702    1.905492   -0.468783
 ---------------------------------------------------------------------
                    Distance matrix (angstroms):
                    1          2          3          4          5
     1  C    0.000000
     2  O    1.421438   0.000000
     3  C    2.260740   1.421592   0.000000
     4  C    2.420975   2.357758   1.536563   0.000000
     5  C    1.536546   2.357510   2.420865   1.548100   0.000000
     6  H    1.092747   2.041562   3.198625   3.333823   2.219254
     7  H    1.101780   2.069632   2.668445   2.970546   2.186332
     8  H    2.668336   2.069570   1.101714   2.186203   2.970621
     9  H    3.198491   2.041581   1.092698   2.219345   3.333537
    10  H    3.191662   3.251322   2.187590   1.093916   2.212678
    11  H    3.163114   2.912651   2.177977   1.093998   2.190650
    12  H    2.187641   3.251388   3.192079   2.212727   1.093901
    13  H    2.177793   2.911781   3.162441   2.190544   1.093976
                    6          7          8          9         10
     6  H    0.000000
     7  H    1.783427   0.000000
     8  H    3.691032   2.612622   0.000000
     9  H    3.997244   3.691074   1.783412   0.000000
    10  H    4.182897   3.446592   2.374401   2.818991   0.000000
    11  H    3.883234   3.911567   3.036421   2.403269   1.768933
    12  H    2.818603   2.374805   3.447461   4.183136   2.389650
    13  H    2.403056   3.036551   3.911205   3.882184   2.947857
                   11         12         13
    11  H    0.000000
    12  H    2.947561   0.000000
    13  H    2.326664   1.768908   0.000000
 Symmetry turned off by external request.
 Stoichiometry    C4H8O
 Framework group  C1[X(C4H8O)]
 Deg. of freedom    33
 Full point group                 C1      NOp   1
 Rotational constants (GHZ):           7.1514315           6.9422685           3.9978446
 Leave Link  202 at Mon Aug 25 14:25:58 2025, MaxMem=  4294967296 cpu:               0.0 elap:               0.0
 (Enter /opt/apps/Gaussian/G16C/g16/l301.exe)
 Standard basis: 6-31+G(d) (6D, 7F)
 Ernie: Thresh=  0.10000D-02 Tol=  0.10000D-05 Strict=F.
   111 basis functions,   192 primitive gaussians,   111 cartesian basis functions
    20 alpha electrons       20 beta electrons
       nuclear repulsion energy       190.5780585340 Hartrees.
 IExCor= 4639 DFT=T Ex+Corr=wB97XD ExCW=0 ScaHFX=  1.000000
 ScaDFX=  1.000000  1.000000  1.000000  1.000000 ScalE2=  1.000000  1.000000
 IRadAn=      5 IRanWt=     -1 IRanGd=            0 ICorTp=0 IEmpDi=121
 HFx  wShort=  0.000000 wLong=  0.200000 cFull=  0.222036 cShort=  0.000000 cLong=  0.777964
 DFx  wShort=  0.000000 wLong=  0.200000 cFull=  0.000000 cShort=  0.000000 cLong=  1.000000
 NAtoms=   13 NActive=   13 NUniq=   13 SFac= 1.00D+00 NAtFMM=   60 NAOKFM=F Big=F
 Integral buffers will be    131072 words long.
 Raffenetti 2 integral format.
 Two-electron integral symmetry is turned off.
 R6Disp:  Grimme-D2 Dispersion energy=       -0.0056519400 Hartrees.
 Nuclear repulsion after empirical dispersion term =      190.5724065940 Hartrees.
 ------------------------------------------------------------------------------
 Polarizable Continuum Model (PCM)
 =================================
 Model                : PCM.
 Atomic radii         : SMD-Coulomb.
 Polarization charges : Total charges.
 Charge compensation  : None.
 Solution method      : On-the-fly selection.
 Cavity type          : VdW (van der Waals Surface) (Alpha=1.000).
 Cavity algorithm     : GePol (No added spheres)
                        Default sphere list used, NSphG=   13.
                        Lebedev-Laikov grids with approx.  5.0 points / Ang**2.
                        Smoothing algorithm: York/Karplus (Gamma=1.0000).
                        Polarization charges: spherical gaussians, with
                                              point-specific exponents (IZeta= 3).
                        Self-potential: point-specific (ISelfS= 7).
                        Self-field    : sphere-specific E.n sum rule (ISelfD= 2).
 1st derivatives      : Analytical E(r).r(x)/FMM algorithm (CHGder, D1EAlg=3).
                        Cavity 1st derivative terms included.
 Solvent              : TetraHydroFuran, Eps=   7.425700 Eps(inf)=   1.974025
 ------------------------------------------------------------------------------
 Spheres list:
 ISph  on   Nord     Re0    Alpha      Xe            Ye            Ze
    1   C      1    1.8500  1.000     -1.750008      0.286952      0.698058
    2   O      2    2.2940  1.000     -0.922454     -0.442777     -0.198121
    3   C      3    1.8500  1.000      0.169104      0.420088     -0.489473
    4   C      4    1.8500  1.000     -0.440343      1.822684     -0.638887
    5   C      5    1.8500  1.000     -1.754727      1.731333      0.173924
    6   H      6    1.2000  1.000     -2.734456     -0.187259      0.707050
    7   H      7    1.2000  1.000     -1.325573      0.239708      1.713707
    8   H      8    1.2000  1.000      0.892227      0.393344      0.341281
    9   H      9    1.2000  1.000      0.658699      0.048053     -1.392731
   10   H     10    1.2000  1.000      0.235868      2.594583     -0.259987
   11   H     11    1.2000  1.000     -0.647241      2.043480     -1.690207
   12   H     12    1.2000  1.000     -1.793343      2.454024      0.994196
   13   H     13    1.2000  1.000     -2.622702      1.905492     -0.468783
 ------------------------------------------------------------------------------
 GePol: Number of generator spheres                  =      13
 GePol: Total number of spheres                      =      13
 GePol: Number of exposed spheres                    =      13 (100.00%)
 GePol: Number of points                             =     979
 GePol: Average weight of points                     =       0.12
 GePol: Minimum weight of points                     =   0.61D-09
 GePol: Maximum weight of points                     =    0.17992
 GePol: Number of points with low weight             =      48
 GePol: Fraction of low-weight points (<1% of avg)   =       4.90%
 GePol: Cavity surface area                          =    115.907 Ang**2
 GePol: Cavity volume                                =     98.766 Ang**3
 ------------------------------------------------------------------------------
 Atomic radii for non-electrostatic terms: SMD-CDS.
 ------------------------------------------------------------------------------
 PCM non-electrostatic energy =        -0.0025660270 Hartrees.
 Nuclear repulsion after PCM non-electrostatic terms =      190.5698405669 Hartrees.
 Leave Link  301 at Mon Aug 25 14:25:58 2025, MaxMem=  4294967296 cpu:               0.1 elap:               0.0
 (Enter /opt/apps/Gaussian/G16C/g16/l302.exe)
 NPDir=0 NMtPBC=     1 NCelOv=     1 NCel=       1 NClECP=     1 NCelD=      1
         NCelK=      1 NCelE2=     1 NClLst=     1 CellRange=     0.0.
 One-electron integrals computed using PRISM.
 NBasis=   111 RedAO= T EigKep=  2.63D-05  NBF=   111
 NBsUse=   111 1.00D-06 EigRej= -1.00D+00 NBFU=   111
 Precomputing XC quadrature grid using
 IXCGrd= 4 IRadAn=           5 IRanWt=          -1 IRanGd=           0 AccXCQ= 0.00D+00.
 Generated NRdTot=       0 NPtTot=           0 NUsed=           0 NTot=          32
 NSgBfM=   111   111   111   111   111 MxSgAt=    13 MxSgA2=    13.
 Leave Link  302 at Mon Aug 25 14:25:58 2025, MaxMem=  4294967296 cpu:               1.0 elap:               0.1
 (Enter /opt/apps/Gaussian/G16C/g16/l303.exe)
 DipDrv:  MaxL=1.
 Leave Link  303 at Mon Aug 25 14:25:58 2025, MaxMem=  4294967296 cpu:               0.1 elap:               0.0
 (Enter /opt/apps/Gaussian/G16C/g16/l401.exe)
 Initial guess from the checkpoint file:  "THF-dzpop.chk"
 B after Tr=     0.001298    0.000564   -0.000268
         Rot=    1.000000   -0.000058    0.000066   -0.000150 Ang=  -0.02 deg.
 Guess basis will be translated and rotated to current coordinates.
 JPrj=2 DoOrth=T DoCkMO=T.
 Generating alternative initial guess.
 ExpMin= 4.38D-02 ExpMax= 5.48D+03 ExpMxC= 8.25D+02 IAcc=3 IRadAn=         5 AccDes= 0.00D+00
 Harris functional with IExCor= 4639 and IRadAn=       5 diagonalized for initial guess.
 HarFok:  IExCor= 4639 AccDes= 0.00D+00 IRadAn=         5 IDoV= 1 UseB2=F ITyADJ=14
 ICtDFT=  3500011 ScaDFX=  1.000000  1.000000  1.000000  1.000000
 FoFCou: FMM=F IPFlag=           0 FMFlag=      100000 FMFlg1=           0
         NFxFlg=           0 DoJE=T BraDBF=F KetDBF=T FulRan=T
         wScrn=  0.000000 ICntrl=       500 IOpCl=  0 I1Cent=   200000004 NGrid=           0
         NMat0=    1 NMatS0=      1 NMatT0=    0 NMatD0=    1 NMtDS0=    0 NMtDT0=    0
 Symmetry not used in FoFCou.
 Harris En= -222.058187168064    
 Leave Link  401 at Mon Aug 25 14:25:58 2025, MaxMem=  4294967296 cpu:               3.3 elap:               0.3
 (Enter /opt/apps/Gaussian/G16C/g16/l502.exe)
 Two-electron integral symmetry not used.
 Closed shell SCF:
 Using DIIS extrapolation, IDIIS=  1040.
 NGot=  4294967296 LenX=  4294939455 LenY=  4294926693
 Requested convergence on RMS density matrix=1.00D-08 within 128 cycles.
 Requested convergence on MAX density matrix=1.00D-06.
 Requested convergence on             energy=1.00D-06.
 No special actions if energy rises.
 Fock matrices will be formed incrementally for  20 cycles.

 Cycle   1  Pass 1  IDiag  1:
 FoFJK:  IHMeth= 1 ICntrl=       0 DoSepK=T KAlg= 0 I1Cent=           0 FoldK=F
 IRaf=         1 NMat=       1 IRICut=       1 DoRegI=T DoRafI=F ISym2E= 0 IDoP0=0 IntGTp=1.
 FoFCou: FMM=F IPFlag=           0 FMFlag=      100000 FMFlg1=           0
         NFxFlg=           0 DoJE=T BraDBF=F KetDBF=F FulRan=T
         wScrn=  0.000000 ICntrl=       500 IOpCl=  0 I1Cent=           0 NGrid=           0
         NMat0=    1 NMatS0=      1 NMatT0=    0 NMatD0=    1 NMtDS0=    0 NMtDT0=    0
 Symmetry not used in FoFCou.
 Inv3:  Mode=1 IEnd=     2875323.
 Iteration    1 A*A^-1 deviation from unit magnitude is 3.77D-15 for    972.
 Iteration    1 A*A^-1 deviation from orthogonality  is 1.95D-15 for    473    126.
 Iteration    1 A^-1*A deviation from unit magnitude is 3.55D-15 for    972.
 Iteration    1 A^-1*A deviation from orthogonality  is 1.60D-15 for    663    225.
 E= -232.393088515578    
 DIIS: error= 5.71D-04 at cycle   1 NSaved=   1.
 NSaved= 1 IEnMin= 1 EnMin= -232.393088515578     IErMin= 1 ErrMin= 5.71D-04
 ErrMax= 5.71D-04  0.00D+00 EMaxC= 1.00D-01 BMatC= 3.30D-05 BMatP= 3.30D-05
 IDIUse=3 WtCom= 9.94D-01 WtEn= 5.71D-03
 Coeff-Com:  0.100D+01
 Coeff-En:   0.100D+01
 Coeff:      0.100D+01
 Gap=     0.832 Goal=   None    Shift=    0.000
 RMSDP=1.42D-04 MaxDP=2.08D-03              OVMax= 1.79D-03

 Cycle   2  Pass 1  IDiag  1:
 RMSU=  1.42D-04    CP:  1.00D+00
 E= -232.393141668344     Delta-E=       -0.000053152766 Rises=F Damp=F
 DIIS: error= 8.69D-05 at cycle   2 NSaved=   2.
 NSaved= 2 IEnMin= 2 EnMin= -232.393141668344     IErMin= 2 ErrMin= 8.69D-05
 ErrMax= 8.69D-05  0.00D+00 EMaxC= 1.00D-01 BMatC= 1.21D-06 BMatP= 3.30D-05
 IDIUse=1 WtCom= 1.00D+00 WtEn= 0.00D+00
 Coeff-Com: -0.173D+00 0.117D+01
 Coeff:     -0.173D+00 0.117D+01
 Gap=     0.419 Goal=   None    Shift=    0.000
 RMSDP=3.23D-05 MaxDP=4.49D-04 DE=-5.32D-05 OVMax= 6.15D-04

 Cycle   3  Pass 1  IDiag  1:
 RMSU=  2.08D-05    CP:  1.00D+00  1.17D+00
 E= -232.393144888166     Delta-E=       -0.000003219822 Rises=F Damp=F
 DIIS: error= 1.46D-05 at cycle   3 NSaved=   3.
 NSaved= 3 IEnMin= 3 EnMin= -232.393144888166     IErMin= 3 ErrMin= 1.46D-05
 ErrMax= 1.46D-05  0.00D+00 EMaxC= 1.00D-01 BMatC= 2.94D-08 BMatP= 1.21D-06
 IDIUse=1 WtCom= 1.00D+00 WtEn= 0.00D+00
 Coeff-Com:  0.255D-02-0.114D+00 0.111D+01
 Coeff:      0.255D-02-0.114D+00 0.111D+01
 Gap=     0.419 Goal=   None    Shift=    0.000
 RMSDP=6.47D-06 MaxDP=6.79D-05 DE=-3.22D-06 OVMax= 1.52D-04

 Cycle   4  Pass 1  IDiag  1:
 RMSU=  3.51D-06    CP:  1.00D+00  1.19D+00  1.25D+00
 E= -232.393144975328     Delta-E=       -0.000000087162 Rises=F Damp=F
 DIIS: error= 5.24D-06 at cycle   4 NSaved=   4.
 NSaved= 4 IEnMin= 4 EnMin= -232.393144975328     IErMin= 4 ErrMin= 5.24D-06
 ErrMax= 5.24D-06  0.00D+00 EMaxC= 1.00D-01 BMatC= 7.20D-09 BMatP= 2.94D-08
 IDIUse=1 WtCom= 1.00D+00 WtEn= 0.00D+00
 Coeff-Com:  0.687D-02-0.822D-01 0.391D+00 0.685D+00
 Coeff:      0.687D-02-0.822D-01 0.391D+00 0.685D+00
 Gap=     0.419 Goal=   None    Shift=    0.000
 RMSDP=1.39D-06 MaxDP=1.37D-05 DE=-8.72D-08 OVMax= 2.72D-05

 Cycle   5  Pass 1  IDiag  1:
 RMSU=  1.20D-06    CP:  1.00D+00  1.19D+00  1.27D+00  1.11D+00
 E= -232.393144983440     Delta-E=       -0.000000008112 Rises=F Damp=F
 DIIS: error= 1.16D-06 at cycle   5 NSaved=   5.
 NSaved= 5 IEnMin= 5 EnMin= -232.393144983440     IErMin= 5 ErrMin= 1.16D-06
 ErrMax= 1.16D-06  0.00D+00 EMaxC= 1.00D-01 BMatC= 4.99D-10 BMatP= 7.20D-09
 IDIUse=1 WtCom= 1.00D+00 WtEn= 0.00D+00
 Coeff-Com:  0.109D-02-0.362D-02-0.559D-01 0.147D+00 0.911D+00
 Coeff:      0.109D-02-0.362D-02-0.559D-01 0.147D+00 0.911D+00
 Gap=     0.419 Goal=   None    Shift=    0.000
 RMSDP=7.15D-07 MaxDP=1.27D-05 DE=-8.11D-09 OVMax= 1.55D-05

 Cycle   6  Pass 1  IDiag  1:
 RMSU=  2.62D-07    CP:  1.00D+00  1.19D+00  1.28D+00  1.28D+00  1.21D+00
 E= -232.393144984193     Delta-E=       -0.000000000752 Rises=F Damp=F
 DIIS: error= 6.38D-07 at cycle   6 NSaved=   6.
 NSaved= 6 IEnMin= 6 EnMin= -232.393144984193     IErMin= 6 ErrMin= 6.38D-07
 ErrMax= 6.38D-07  0.00D+00 EMaxC= 1.00D-01 BMatC= 9.66D-11 BMatP= 4.99D-10
 IDIUse=1 WtCom= 1.00D+00 WtEn= 0.00D+00
 Coeff-Com:  0.444D-04 0.371D-02-0.504D-01 0.227D-01 0.409D+00 0.615D+00
 Coeff:      0.444D-04 0.371D-02-0.504D-01 0.227D-01 0.409D+00 0.615D+00
 Gap=     0.419 Goal=   None    Shift=    0.000
 RMSDP=1.67D-07 MaxDP=3.22D-06 DE=-7.52D-10 OVMax= 3.19D-06

 Cycle   7  Pass 1  IDiag  1:
 RMSU=  8.91D-08    CP:  1.00D+00  1.19D+00  1.28D+00  1.31D+00  1.27D+00
                    CP:  1.07D+00
 E= -232.393144984278     Delta-E=       -0.000000000085 Rises=F Damp=F
 DIIS: error= 2.05D-07 at cycle   7 NSaved=   7.
 NSaved= 7 IEnMin= 7 EnMin= -232.393144984278     IErMin= 7 ErrMin= 2.05D-07
 ErrMax= 2.05D-07  0.00D+00 EMaxC= 1.00D-01 BMatC= 6.47D-12 BMatP= 9.66D-11
 IDIUse=1 WtCom= 1.00D+00 WtEn= 0.00D+00
 Coeff-Com: -0.179D-03 0.184D-02-0.593D-02-0.180D-01-0.320D-01 0.179D+00
 Coeff-Com:  0.876D+00
 Coeff:     -0.179D-03 0.184D-02-0.593D-02-0.180D-01-0.320D-01 0.179D+00
 Coeff:      0.876D+00
 Gap=     0.419 Goal=   None    Shift=    0.000
 RMSDP=1.01D-07 MaxDP=1.99D-06 DE=-8.47D-11 OVMax= 1.90D-06

 Cycle   8  Pass 1  IDiag  1:
 RMSU=  2.88D-08    CP:  1.00D+00  1.19D+00  1.28D+00  1.33D+00  1.32D+00
                    CP:  1.24D+00  1.18D+00
 E= -232.393144984289     Delta-E=       -0.000000000012 Rises=F Damp=F
 DIIS: error= 3.58D-08 at cycle   8 NSaved=   8.
 NSaved= 8 IEnMin= 8 EnMin= -232.393144984289     IErMin= 8 ErrMin= 3.58D-08
 ErrMax= 3.58D-08  0.00D+00 EMaxC= 1.00D-01 BMatC= 1.40D-13 BMatP= 6.47D-12
 IDIUse=1 WtCom= 1.00D+00 WtEn= 0.00D+00
 Coeff-Com:  0.821D-05-0.325D-03 0.328D-02 0.196D-03-0.206D-01-0.518D-01
 Coeff-Com: -0.823D-01 0.115D+01
 Coeff:      0.821D-05-0.325D-03 0.328D-02 0.196D-03-0.206D-01-0.518D-01
 Coeff:     -0.823D-01 0.115D+01
 Gap=     0.419 Goal=   None    Shift=    0.000
 RMSDP=2.99D-08 MaxDP=4.67D-07 DE=-1.18D-11 OVMax= 5.30D-07

 Cycle   9  Pass 1  IDiag  1:
 RMSU=  6.41D-09    CP:  1.00D+00  1.19D+00  1.28D+00  1.33D+00  1.32D+00
                    CP:  1.30D+00  1.32D+00  1.40D+00
 E= -232.393144984286     Delta-E=        0.000000000004 Rises=F Damp=F
 DIIS: error= 5.56D-09 at cycle   9 NSaved=   9.
 NSaved= 9 IEnMin= 8 EnMin= -232.393144984289     IErMin= 9 ErrMin= 5.56D-09
 ErrMax= 5.56D-09  0.00D+00 EMaxC= 1.00D-01 BMatC= 7.09D-15 BMatP= 1.40D-13
 IDIUse=1 WtCom= 1.00D+00 WtEn= 0.00D+00
 Coeff-Com:  0.847D-05-0.110D-03 0.513D-03 0.915D-03 0.549D-06-0.122D-01
 Coeff-Com: -0.462D-01 0.930D-01 0.964D+00
 Coeff:      0.847D-05-0.110D-03 0.513D-03 0.915D-03 0.549D-06-0.122D-01
 Coeff:     -0.462D-01 0.930D-01 0.964D+00
 Gap=     0.419 Goal=   None    Shift=    0.000
 RMSDP=4.67D-09 MaxDP=6.98D-08 DE= 3.72D-12 OVMax= 6.71D-08

 Error on total polarization charges =  0.02885
 SCF Done:  E(RwB97XD) =  -232.393144984     A.U. after    9 cycles
            NFock=  9  Conv=0.47D-08     -V/T= 2.0094
 KE= 2.302303993420D+02 PE=-9.218007052582D+02 EE= 2.686073203650D+02
 SMD-CDS (non-electrostatic) energy       (kcal/mol) =      -1.61
 (included in total energy above)
 Leave Link  502 at Mon Aug 25 14:26:03 2025, MaxMem=  4294967296 cpu:              65.6 elap:               4.7
 (Enter /opt/apps/Gaussian/G16C/g16/l701.exe)
 ... and contract with generalized density number  0.
 Compute integral first derivatives.
 R6Disp: Adding Grimme-D2 dispersion energy 1st derivatives to the gradient.
 D1PCM: PCM CHGder 1st derivatives, ID1Alg=3 FixD1E=F DoIter=F DoCFld=F I1PDM=0.
 GePol: Maximum number of non-zero 1st derivatives   =     305
 Leave Link  701 at Mon Aug 25 14:26:03 2025, MaxMem=  4294967296 cpu:               4.0 elap:               0.3
 (Enter /opt/apps/Gaussian/G16C/g16/l702.exe)
 L702 exits ... SP integral derivatives will be done elsewhere.
 Leave Link  702 at Mon Aug 25 14:26:03 2025, MaxMem=  4294967296 cpu:               0.0 elap:               0.0
 (Enter /opt/apps/Gaussian/G16C/g16/l703.exe)
 Integral derivatives from FoFJK, PRISM(SPDF).
 Compute integral first derivatives, UseDBF=F ICtDFT=           0.
 Calling FoFJK, ICntrl=      2127 FMM=F ISym2X=0 I1Cent= 0 IOpClX= 0 NMat=1 NMatS=1 NMatT=0.
 FoFJK:  IHMeth= 1 ICntrl=    2127 DoSepK=T KAlg= 0 I1Cent=           0 FoldK=F
 IRaf=         1 NMat=       1 IRICut=       1 DoRegI=T DoRafI=F ISym2E= 0 IDoP0=0 IntGTp=1.
 FoFCou: FMM=F IPFlag=           0 FMFlag=      100000 FMFlg1=         800
         NFxFlg=           0 DoJE=F BraDBF=F KetDBF=F FulRan=T
         wScrn=  0.000000 ICntrl=      2527 IOpCl=  0 I1Cent=           0 NGrid=           0
         NMat0=    1 NMatS0=      1 NMatT0=    0 NMatD0=    1 NMtDS0=    0 NMtDT0=    0
 Symmetry not used in FoFCou.
 Leave Link  703 at Mon Aug 25 14:26:04 2025, MaxMem=  4294967296 cpu:              10.0 elap:               0.7
 (Enter /opt/apps/Gaussian/G16C/g16/l716.exe)
 Dipole        = 7.54373901D-02 8.41533285D-01 2.16288149D-01
 -------------------------------------------------------------------
 Center     Atomic                   Forces (Hartrees/Bohr)
 Number     Number              X              Y              Z
 -------------------------------------------------------------------
      1        6          -0.000021746    0.000051115   -0.000003110
      2        8           0.000053582    0.000006529   -0.000010221
      3        6          -0.000061111   -0.000019687   -0.000015793
      4        6           0.000034723    0.000001737    0.000001094
      5        6          -0.000008976   -0.000027646    0.000031314
      6        1           0.000005148    0.000008242   -0.000006532
      7        1          -0.000001728    0.000001580   -0.000006376
      8        1           0.000009559   -0.000004330    0.000015041
      9        1          -0.000000538   -0.000002764    0.000002396
     10        1          -0.000009089   -0.000006344    0.000002925
     11        1          -0.000002211   -0.000012723    0.000002408
     12        1           0.000004067    0.000001853   -0.000005547
     13        1          -0.000001679    0.000002437   -0.000007597
 -------------------------------------------------------------------
 Cartesian Forces:  Max     0.000061111 RMS     0.000019265
 Leave Link  716 at Mon Aug 25 14:26:04 2025, MaxMem=  4294967296 cpu:               0.0 elap:               0.0
 (Enter /opt/apps/Gaussian/G16C/g16/l103.exe)

 GradGradGradGradGradGradGradGradGradGradGradGradGradGradGradGradGradGrad
 Berny optimization.
 Using GEDIIS/GDIIS optimizer.
 FormGI is forming the generalized inverse of G from B-inverse, IUseBI=4.
 Internal  Forces:  Max     0.000045475 RMS     0.000008895
 Search for a local minimum.
 Step number  19 out of a maximum of   81
 All quantities printed in internal units (Hartrees-Bohrs-Radians)
 RMS Force = .88953D-05 SwitMx=.10000D-02 MixMth= 2
 Mixed Optimization -- En-DIIS/RFO-DIIS
 Swapping is turned off.
 Update second derivatives using D2CorX and points   11   13   14   15   16
                                                     17   18   19
 DE= -1.95D-07 DEPred=-1.44D-07 R= 1.35D+00
 Trust test= 1.35D+00 RLast= 5.93D-02 DXMaxT set to 1.01D+00
 ITU=  0  0  1  0  1 -1  1  1  1  1  1  1  1  1  1  1  1  1  0
     Eigenvalues ---    0.00004   0.00534   0.02430   0.03383   0.04727
     Eigenvalues ---    0.04971   0.05373   0.05835   0.05933   0.06334
     Eigenvalues ---    0.06949   0.07254   0.07563   0.09486   0.10491
     Eigenvalues ---    0.11297   0.11393   0.12658   0.21946   0.26181
     Eigenvalues ---    0.26847   0.29058   0.30909   0.32663   0.34181
     Eigenvalues ---    0.37101   0.37169   0.37229   0.37247   0.37281
     Eigenvalues ---    0.37390   0.37722   0.41578
 Eigenvalue     1 is   3.74D-05 Eigenvector:
                          D33       D32       D30       D29       D27
   1                    0.23867   0.23209   0.23140   0.22482   0.21533
                          D31       D26       D28       D25       D21
   1                    0.21468   0.20874   0.20741   0.19133  -0.18581
 En-DIIS/RFO-DIIS/Sim-DIIS IScMMF=       -3 using points:    19   18   17   16   15   14   13   12   11   10
 RFO step:  Lambda=-3.29938346D-08.
 NNeg= 0 NGDIIS=10 SimSw=  2.50D-01 Rises=F DC= -1.95D-07 SmlDif=  1.00D-05
 NRisDI= 0 DoIntr=F SqrtH=F CThrHd= 10.0 CDAdj=  3.0
 RMS Error=  0.9796009071D-03 NUsed=10 OKEnD=F EnDIS=F
 InvSVX:  RCond= 7.40D-11 Info=           0 Equed=N FErr=  1.65D-08 BErr=  6.92D-17
 DIIS inversion failure, remove point  10.
 InvSVX:  RCond= 8.35D-11 Info=           0 Equed=N FErr=  6.91D-09 BErr=  9.06D-17
 DIIS inversion failure, remove point   9.
 InvSVX:  RCond= 1.58D-10 Info=           0 Equed=N FErr=  1.80D-09 BErr=  8.25D-17
 DIIS inversion failure, remove point   8.
 InvSVX:  RCond= 1.85D-10 Info=           0 Equed=N FErr=  1.51D-09 BErr=  6.89D-17
 DIIS inversion failure, remove point   7.
 InvSVX:  RCond= 3.21D-10 Info=           0 Equed=N FErr=  1.15D-09 BErr=  7.00D-17
 DIIS inversion failure, remove point   6.
 InvSVX:  RCond= 3.98D-10 Info=           0 Equed=N FErr=  9.02D-10 BErr=  6.36D-17
 DIIS inversion failure, remove point   5.
 InvSVX:  RCond= 8.46D-09 Info=           0 Equed=N FErr=  2.06D-11 BErr=  9.13D-17
 DIIS inversion failure, remove point   4.
 InvSVX:  RCond= 8.35D-07 Info=           0 Equed=N FErr=  1.30D-13 BErr=  5.23D-17
 RFO-DIIS uses    3 points instead of   10
 DidBck=F Rises=F RFO-DIIS coefs:    1.38526   -0.41649    0.03123    0.00000    0.00000
                  RFO-DIIS coefs:    0.00000    0.00000    0.00000    0.00000    0.00000
 Iteration  1 RMS(Cart)=  0.00251583 RMS(Int)=  0.00000404
 Iteration  2 RMS(Cart)=  0.00000358 RMS(Int)=  0.00000275
 Iteration  3 RMS(Cart)=  0.00000000 RMS(Int)=  0.00000275
 ITry= 1 IFail=0 DXMaxC= 8.14D-03 DCOld= 1.00D+10 DXMaxT= 1.01D+00 DXLimC= 3.00D+00 Rises=F
 Variable       Old X    -DE/DX   Delta X   Delta X   Delta X     New X
                                 (Linear)    (Quad)   (Total)
    R1        2.68613   0.00002   0.00009   0.00005   0.00014   2.68627
    R2        2.90365  -0.00004   0.00025  -0.00007   0.00017   2.90383
    R3        2.06499  -0.00001  -0.00001  -0.00001  -0.00002   2.06497
    R4        2.08206  -0.00001  -0.00004  -0.00001  -0.00006   2.08201
    R5        2.68642  -0.00005  -0.00010  -0.00008  -0.00018   2.68624
    R6        2.90368  -0.00001  -0.00035   0.00000  -0.00035   2.90333
    R7        2.08194   0.00002   0.00008   0.00002   0.00010   2.08204
    R8        2.06490  -0.00000  -0.00000   0.00000  -0.00000   2.06490
    R9        2.92548   0.00001  -0.00002   0.00004   0.00002   2.92551
   R10        2.06720  -0.00001  -0.00001  -0.00002  -0.00003   2.06717
   R11        2.06736  -0.00000   0.00002  -0.00001   0.00001   2.06737
   R12        2.06717  -0.00000  -0.00000  -0.00000  -0.00001   2.06717
   R13        2.06732   0.00001   0.00002  -0.00001   0.00000   2.06732
    A1        1.84347   0.00001   0.00036   0.00003   0.00038   1.84385
    A2        1.88273  -0.00000  -0.00010  -0.00001  -0.00011   1.88262
    A3        1.91229  -0.00001  -0.00012  -0.00003  -0.00015   1.91214
    A4        1.99103  -0.00000  -0.00012   0.00002  -0.00009   1.99094
    A5        1.93471  -0.00000  -0.00000  -0.00002  -0.00002   1.93470
    A6        1.89743   0.00000  -0.00002   0.00000  -0.00002   1.89741
    A7        1.83863  -0.00000   0.00006  -0.00001   0.00004   1.83868
    A8        1.84360   0.00000  -0.00031   0.00003  -0.00028   1.84332
    A9        1.91209  -0.00000   0.00010  -0.00001   0.00010   1.91219
   A10        1.88262  -0.00000   0.00004   0.00004   0.00008   1.88270
   A11        1.93458  -0.00000   0.00002   0.00001   0.00003   1.93462
   A12        1.99119   0.00000   0.00010  -0.00004   0.00006   1.99125
   A13        1.89755   0.00000   0.00004  -0.00002   0.00002   1.89757
   A14        1.80476   0.00000  -0.00011  -0.00001  -0.00014   1.80462
   A15        1.94470   0.00001   0.00030   0.00005   0.00036   1.94505
   A16        1.93124  -0.00001  -0.00037  -0.00001  -0.00038   1.93086
   A17        1.96559  -0.00001   0.00018  -0.00002   0.00016   1.96574
   A18        1.93467  -0.00000  -0.00012  -0.00005  -0.00017   1.93450
   A19        1.88321   0.00001   0.00010   0.00004   0.00015   1.88335
   A20        1.80489  -0.00001   0.00018  -0.00001   0.00015   1.80504
   A21        1.94480   0.00000  -0.00027   0.00001  -0.00026   1.94455
   A22        1.93102   0.00000   0.00030   0.00003   0.00033   1.93135
   A23        1.96567   0.00000  -0.00016  -0.00005  -0.00020   1.96547
   A24        1.93454   0.00000   0.00010  -0.00001   0.00009   1.93463
   A25        1.88321  -0.00000  -0.00012   0.00003  -0.00009   1.88312
    D1        0.70156   0.00000  -0.00162  -0.00001  -0.00163   0.69993
    D2        2.83719  -0.00000  -0.00161   0.00003  -0.00158   2.83561
    D3       -1.38319  -0.00000  -0.00176   0.00001  -0.00175  -1.38494
    D4       -0.41440   0.00000   0.00374  -0.00001   0.00373  -0.41066
    D5       -2.53022   0.00000   0.00397   0.00005   0.00402  -2.52620
    D6        1.65781  -0.00000   0.00410  -0.00002   0.00408   1.66189
    D7       -2.47902   0.00000   0.00370  -0.00003   0.00367  -2.47535
    D8        1.68835   0.00000   0.00392   0.00003   0.00396   1.69230
    D9       -0.40681  -0.00000   0.00406  -0.00004   0.00402  -0.40279
   D10        1.65549   0.00000   0.00381  -0.00004   0.00378   1.65926
   D11       -0.46034   0.00000   0.00404   0.00002   0.00406  -0.45628
   D12       -2.55550  -0.00000   0.00417  -0.00005   0.00412  -2.55137
   D13       -0.70128   0.00001  -0.00128   0.00004  -0.00125  -0.70253
   D14        1.38329   0.00001  -0.00138   0.00006  -0.00132   1.38197
   D15       -2.83712   0.00000  -0.00125   0.00005  -0.00119  -2.83832
   D16        0.41356   0.00000   0.00354  -0.00003   0.00351   0.41707
   D17        2.52915  -0.00000   0.00384  -0.00004   0.00380   2.53295
   D18       -1.65882   0.00000   0.00392   0.00004   0.00397  -1.65485
   D19       -1.65608   0.00000   0.00358  -0.00004   0.00354  -1.65254
   D20        0.45950  -0.00000   0.00388  -0.00005   0.00383   0.46334
   D21        2.55472   0.00000   0.00397   0.00003   0.00400   2.55872
   D22        2.47823   0.00000   0.00344   0.00001   0.00345   2.48168
   D23       -1.68937  -0.00000   0.00373   0.00001   0.00374  -1.68563
   D24        0.40585   0.00000   0.00382   0.00009   0.00390   0.40976
   D25        0.00047   0.00000  -0.00426   0.00004  -0.00423  -0.00376
   D26        2.10214   0.00000  -0.00456   0.00001  -0.00455   2.09759
   D27       -2.06930   0.00001  -0.00476   0.00001  -0.00474  -2.07404
   D28       -2.10095  -0.00000  -0.00465  -0.00001  -0.00465  -2.10561
   D29        0.00072  -0.00000  -0.00494  -0.00003  -0.00497  -0.00425
   D30        2.11247  -0.00000  -0.00514  -0.00003  -0.00517   2.10730
   D31        2.07046  -0.00000  -0.00482  -0.00001  -0.00483   2.06564
   D32       -2.11105  -0.00000  -0.00511  -0.00003  -0.00515  -2.11620
   D33        0.00070  -0.00000  -0.00531  -0.00003  -0.00534  -0.00464
         Item               Value     Threshold  Converged?
 Maximum Force            0.000045     0.000015     NO 
 RMS     Force            0.000009     0.000010     YES
 Maximum Displacement     0.008138     0.000060     NO 
 RMS     Displacement     0.002516     0.000040     NO 
 Predicted change in Energy=-2.210419D-08
 Lowest energy point so far.  Saving SCF results.
 GradGradGradGradGradGradGradGradGradGradGradGradGradGradGradGradGradGrad

 Leave Link  103 at Mon Aug 25 14:26:04 2025, MaxMem=  4294967296 cpu:               0.1 elap:               0.0
 (Enter /opt/apps/Gaussian/G16C/g16/l202.exe)
                          Input orientation:                          
 ---------------------------------------------------------------------
 Center     Atomic      Atomic             Coordinates (Angstroms)
 Number     Number       Type             X           Y           Z
 ---------------------------------------------------------------------
      1          6           0       -1.750507    0.286457    0.697157
      2          8           0       -0.921701   -0.442739   -0.198414
      3          6           0        0.169644    0.420629   -0.488615
      4          6           0       -0.440893    1.822327   -0.640089
      5          6           0       -1.753904    1.731670    0.175039
      6          1           0       -2.735152   -0.187357    0.703828
      7          1           0       -1.327856    0.237665    1.713444
      8          1           0        0.891452    0.395208    0.343392
      9          1           0        0.661047    0.048313   -1.390775
     10          1           0        0.235249    2.595779   -0.264293
     11          1           0       -0.649872    2.040154   -1.691624
     12          1           0       -1.789606    2.453052    0.996590
     13          1           0       -2.622851    1.908544   -0.465612
 ---------------------------------------------------------------------
                    Distance matrix (angstroms):
                    1          2          3          4          5
     1  C    0.000000
     2  O    1.421511   0.000000
     3  C    2.260761   1.421498   0.000000
     4  C    2.421201   2.357281   1.536378   0.000000
     5  C    1.536639   2.357982   2.420599   1.548112   0.000000
     6  H    1.092735   2.041534   3.198344   3.332951   2.219263
     7  H    1.101750   2.069567   2.669278   2.972705   2.186380
     8  H    2.667756   2.069597   1.101766   2.186103   2.968565
     9  H    3.198713   2.041556   1.092698   2.219217   3.334284
    10  H    3.193835   3.251994   2.187670   1.093901   2.212787
    11  H    3.161190   2.910038   2.177544   1.094004   2.190543
    12  H    2.187538   3.250676   3.189865   2.212591   1.093898
    13  H    2.178114   2.914419   3.164246   2.190621   1.093978
                    6          7          8          9         10
     6  H    0.000000
     7  H    1.783382   0.000000
     8  H    3.690738   2.612889   0.000000
     9  H    3.997132   3.691580   1.783468   0.000000
    10  H    4.184063   3.451875   2.375372   2.817773   0.000000
    11  H    3.879225   3.911919   3.036908   2.403424   1.769020
    12  H    2.819845   2.373822   3.442304   4.181863   2.389609
    13  H    2.402707   3.035973   3.910882   3.885920   2.946448
                   11         12         13
    11  H    0.000000
    12  H    2.948893   0.000000
    13  H    2.326601   1.768847   0.000000
 Symmetry turned off by external request.
 Stoichiometry    C4H8O
 Framework group  C1[X(C4H8O)]
 Deg. of freedom    33
 Full point group                 C1      NOp   1
 Rotational constants (GHZ):           7.1514785           6.9424619           3.9978516
 Leave Link  202 at Mon Aug 25 14:26:04 2025, MaxMem=  4294967296 cpu:               0.0 elap:               0.0
 (Enter /opt/apps/Gaussian/G16C/g16/l301.exe)
 Standard basis: 6-31+G(d) (6D, 7F)
 Ernie: Thresh=  0.10000D-02 Tol=  0.10000D-05 Strict=F.
   111 basis functions,   192 primitive gaussians,   111 cartesian basis functions
    20 alpha electrons       20 beta electrons
       nuclear repulsion energy       190.5793728184 Hartrees.
 IExCor= 4639 DFT=T Ex+Corr=wB97XD ExCW=0 ScaHFX=  1.000000
 ScaDFX=  1.000000  1.000000  1.000000  1.000000 ScalE2=  1.000000  1.000000
 IRadAn=      5 IRanWt=     -1 IRanGd=            0 ICorTp=0 IEmpDi=121
 HFx  wShort=  0.000000 wLong=  0.200000 cFull=  0.222036 cShort=  0.000000 cLong=  0.777964
 DFx  wShort=  0.000000 wLong=  0.200000 cFull=  0.000000 cShort=  0.000000 cLong=  1.000000
 NAtoms=   13 NActive=   13 NUniq=   13 SFac= 1.00D+00 NAtFMM=   60 NAOKFM=F Big=F
 Integral buffers will be    131072 words long.
 Raffenetti 2 integral format.
 Two-electron integral symmetry is turned off.
 R6Disp:  Grimme-D2 Dispersion energy=       -0.0056519268 Hartrees.
 Nuclear repulsion after empirical dispersion term =      190.5737208916 Hartrees.
 ------------------------------------------------------------------------------
 Polarizable Continuum Model (PCM)
 =================================
 Model                : PCM.
 Atomic radii         : SMD-Coulomb.
 Polarization charges : Total charges.
 Charge compensation  : None.
 Solution method      : On-the-fly selection.
 Cavity type          : VdW (van der Waals Surface) (Alpha=1.000).
 Cavity algorithm     : GePol (No added spheres)
                        Default sphere list used, NSphG=   13.
                        Lebedev-Laikov grids with approx.  5.0 points / Ang**2.
                        Smoothing algorithm: York/Karplus (Gamma=1.0000).
                        Polarization charges: spherical gaussians, with
                                              point-specific exponents (IZeta= 3).
                        Self-potential: point-specific (ISelfS= 7).
                        Self-field    : sphere-specific E.n sum rule (ISelfD= 2).
 1st derivatives      : Analytical E(r).r(x)/FMM algorithm (CHGder, D1EAlg=3).
                        Cavity 1st derivative terms included.
 Solvent              : TetraHydroFuran, Eps=   7.425700 Eps(inf)=   1.974025
 ------------------------------------------------------------------------------
 Spheres list:
 ISph  on   Nord     Re0    Alpha      Xe            Ye            Ze
    1   C      1    1.8500  1.000     -1.750507      0.286457      0.697157
    2   O      2    2.2940  1.000     -0.921701     -0.442739     -0.198414
    3   C      3    1.8500  1.000      0.169644      0.420629     -0.488615
    4   C      4    1.8500  1.000     -0.440893      1.822327     -0.640089
    5   C      5    1.8500  1.000     -1.753904      1.731670      0.175039
    6   H      6    1.2000  1.000     -2.735152     -0.187357      0.703828
    7   H      7    1.2000  1.000     -1.327856      0.237665      1.713444
    8   H      8    1.2000  1.000      0.891452      0.395208      0.343392
    9   H      9    1.2000  1.000      0.661047      0.048313     -1.390775
   10   H     10    1.2000  1.000      0.235249      2.595779     -0.264293
   11   H     11    1.2000  1.000     -0.649872      2.040154     -1.691624
   12   H     12    1.2000  1.000     -1.789606      2.453052      0.996590
   13   H     13    1.2000  1.000     -2.622851      1.908544     -0.465612
 ------------------------------------------------------------------------------
 GePol: Number of generator spheres                  =      13
 GePol: Total number of spheres                      =      13
 GePol: Number of exposed spheres                    =      13 (100.00%)
 GePol: Number of points                             =     977
 GePol: Average weight of points                     =       0.12
 GePol: Minimum weight of points                     =   0.47D-07
 GePol: Maximum weight of points                     =    0.17992
 GePol: Number of points with low weight             =      45
 GePol: Fraction of low-weight points (<1% of avg)   =       4.61%
 GePol: Cavity surface area                          =    115.908 Ang**2
 GePol: Cavity volume                                =     98.756 Ang**3
 ------------------------------------------------------------------------------
 Atomic radii for non-electrostatic terms: SMD-CDS.
 ------------------------------------------------------------------------------
 PCM non-electrostatic energy =        -0.0025661222 Hartrees.
 Nuclear repulsion after PCM non-electrostatic terms =      190.5711547694 Hartrees.
 Leave Link  301 at Mon Aug 25 14:26:04 2025, MaxMem=  4294967296 cpu:               0.1 elap:               0.0
 (Enter /opt/apps/Gaussian/G16C/g16/l302.exe)
 NPDir=0 NMtPBC=     1 NCelOv=     1 NCel=       1 NClECP=     1 NCelD=      1
         NCelK=      1 NCelE2=     1 NClLst=     1 CellRange=     0.0.
 One-electron integrals computed using PRISM.
 NBasis=   111 RedAO= T EigKep=  2.63D-05  NBF=   111
 NBsUse=   111 1.00D-06 EigRej= -1.00D+00 NBFU=   111
 Precomputing XC quadrature grid using
 IXCGrd= 4 IRadAn=           5 IRanWt=          -1 IRanGd=           0 AccXCQ= 0.00D+00.
 Generated NRdTot=       0 NPtTot=           0 NUsed=           0 NTot=          32
 NSgBfM=   111   111   111   111   111 MxSgAt=    13 MxSgA2=    13.
 Leave Link  302 at Mon Aug 25 14:26:04 2025, MaxMem=  4294967296 cpu:               0.8 elap:               0.1
 (Enter /opt/apps/Gaussian/G16C/g16/l303.exe)
 DipDrv:  MaxL=1.
 Leave Link  303 at Mon Aug 25 14:26:04 2025, MaxMem=  4294967296 cpu:               0.1 elap:               0.0
 (Enter /opt/apps/Gaussian/G16C/g16/l401.exe)
 Initial guess from the checkpoint file:  "THF-dzpop.chk"
 B after Tr=     0.000480    0.000207   -0.000104
         Rot=    1.000000   -0.000023    0.000026   -0.000055 Ang=  -0.01 deg.
 Guess basis will be translated and rotated to current coordinates.
 JPrj=2 DoOrth=T DoCkMO=T.
 Leave Link  401 at Mon Aug 25 14:26:05 2025, MaxMem=  4294967296 cpu:               0.2 elap:               0.1
 (Enter /opt/apps/Gaussian/G16C/g16/l502.exe)
 Two-electron integral symmetry not used.
 Closed shell SCF:
 Using DIIS extrapolation, IDIIS=  1040.
 NGot=  4294967296 LenX=  4294939455 LenY=  4294926693
 Requested convergence on RMS density matrix=1.00D-08 within 128 cycles.
 Requested convergence on MAX density matrix=1.00D-06.
 Requested convergence on             energy=1.00D-06.
 No special actions if energy rises.
 Fock matrices will be formed incrementally for  20 cycles.

 Cycle   1  Pass 1  IDiag  1:
 FoFJK:  IHMeth= 1 ICntrl=       0 DoSepK=T KAlg= 0 I1Cent=           0 FoldK=F
 IRaf=         1 NMat=       1 IRICut=       1 DoRegI=T DoRafI=F ISym2E= 0 IDoP0=0 IntGTp=1.
 FoFCou: FMM=F IPFlag=           0 FMFlag=      100000 FMFlg1=           0
         NFxFlg=           0 DoJE=T BraDBF=F KetDBF=F FulRan=T
         wScrn=  0.000000 ICntrl=       500 IOpCl=  0 I1Cent=           0 NGrid=           0
         NMat0=    1 NMatS0=      1 NMatT0=    0 NMatD0=    1 NMtDS0=    0 NMtDT0=    0
 Symmetry not used in FoFCou.
 Inv3:  Mode=1 IEnd=     2863587.
 Iteration    1 A*A^-1 deviation from unit magnitude is 3.44D-15 for    962.
 Iteration    1 A*A^-1 deviation from orthogonality  is 1.67D-15 for    472    125.
 Iteration    1 A^-1*A deviation from unit magnitude is 3.22D-15 for    962.
 Iteration    1 A^-1*A deviation from orthogonality  is 1.98D-15 for    389    362.
 E= -232.393137147344    
 DIIS: error= 2.09D-04 at cycle   1 NSaved=   1.
 NSaved= 1 IEnMin= 1 EnMin= -232.393137147344     IErMin= 1 ErrMin= 2.09D-04
 ErrMax= 2.09D-04  0.00D+00 EMaxC= 1.00D-01 BMatC= 4.59D-06 BMatP= 4.59D-06
 IDIUse=3 WtCom= 9.98D-01 WtEn= 2.09D-03
 Coeff-Com:  0.100D+01
 Coeff-En:   0.100D+01
 Coeff:      0.100D+01
 Gap=     0.832 Goal=   None    Shift=    0.000
 RMSDP=5.30D-05 MaxDP=7.97D-04              OVMax= 6.68D-04

 Cycle   2  Pass 1  IDiag  1:
 RMSU=  5.30D-05    CP:  1.00D+00
 E= -232.393144548467     Delta-E=       -0.000007401123 Rises=F Damp=F
 DIIS: error= 3.26D-05 at cycle   2 NSaved=   2.
 NSaved= 2 IEnMin= 2 EnMin= -232.393144548467     IErMin= 2 ErrMin= 3.26D-05
 ErrMax= 3.26D-05  0.00D+00 EMaxC= 1.00D-01 BMatC= 1.69D-07 BMatP= 4.59D-06
 IDIUse=1 WtCom= 1.00D+00 WtEn= 0.00D+00
 Coeff-Com: -0.173D+00 0.117D+01
 Coeff:     -0.173D+00 0.117D+01
 Gap=     0.419 Goal=   None    Shift=    0.000
 RMSDP=1.21D-05 MaxDP=1.70D-04 DE=-7.40D-06 OVMax= 2.31D-04

 Cycle   3  Pass 1  IDiag  1:
 RMSU=  7.76D-06    CP:  1.00D+00  1.17D+00
 E= -232.393144997411     Delta-E=       -0.000000448944 Rises=F Damp=F
 DIIS: error= 5.45D-06 at cycle   3 NSaved=   3.
 NSaved= 3 IEnMin= 3 EnMin= -232.393144997411     IErMin= 3 ErrMin= 5.45D-06
 ErrMax= 5.45D-06  0.00D+00 EMaxC= 1.00D-01 BMatC= 4.03D-09 BMatP= 1.69D-07
 IDIUse=1 WtCom= 1.00D+00 WtEn= 0.00D+00
 Coeff-Com:  0.323D-02-0.118D+00 0.111D+01
 Coeff:      0.323D-02-0.118D+00 0.111D+01
 Gap=     0.419 Goal=   None    Shift=    0.000
 RMSDP=2.41D-06 MaxDP=2.58D-05 DE=-4.49D-07 OVMax= 5.70D-05

 Cycle   4  Pass 1  IDiag  1:
 RMSU=  1.30D-06    CP:  1.00D+00  1.19D+00  1.25D+00
 E= -232.393145009573     Delta-E=       -0.000000012162 Rises=F Damp=F
 DIIS: error= 1.92D-06 at cycle   4 NSaved=   4.
 NSaved= 4 IEnMin= 4 EnMin= -232.393145009573     IErMin= 4 ErrMin= 1.92D-06
 ErrMax= 1.92D-06  0.00D+00 EMaxC= 1.00D-01 BMatC= 9.10D-10 BMatP= 4.03D-09
 IDIUse=1 WtCom= 1.00D+00 WtEn= 0.00D+00
 Coeff-Com:  0.689D-02-0.810D-01 0.379D+00 0.695D+00
 Coeff:      0.689D-02-0.810D-01 0.379D+00 0.695D+00
 Gap=     0.419 Goal=   None    Shift=    0.000
 RMSDP=5.13D-07 MaxDP=5.62D-06 DE=-1.22D-08 OVMax= 1.02D-05

 Cycle   5  Pass 1  IDiag  1:
 RMSU=  4.42D-07    CP:  1.00D+00  1.19D+00  1.27D+00  1.12D+00
 E= -232.393145010637     Delta-E=       -0.000000001064 Rises=F Damp=F
 DIIS: error= 4.27D-07 at cycle   5 NSaved=   5.
 NSaved= 5 IEnMin= 5 EnMin= -232.393145010637     IErMin= 5 ErrMin= 4.27D-07
 ErrMax= 4.27D-07  0.00D+00 EMaxC= 1.00D-01 BMatC= 5.96D-11 BMatP= 9.10D-10
 IDIUse=1 WtCom= 1.00D+00 WtEn= 0.00D+00
 Coeff-Com:  0.824D-03-0.516D-03-0.706D-01 0.131D+00 0.939D+00
 Coeff:      0.824D-03-0.516D-03-0.706D-01 0.131D+00 0.939D+00
 Gap=     0.419 Goal=   None    Shift=    0.000
 RMSDP=2.69D-07 MaxDP=4.86D-06 DE=-1.06D-09 OVMax= 5.92D-06

 Cycle   6  Pass 1  IDiag  1:
 RMSU=  9.18D-08    CP:  1.00D+00  1.19D+00  1.28D+00  1.30D+00  1.21D+00
 E= -232.393145010742     Delta-E=       -0.000000000105 Rises=F Damp=F
 DIIS: error= 1.82D-07 at cycle   6 NSaved=   6.
 NSaved= 6 IEnMin= 6 EnMin= -232.393145010742     IErMin= 6 ErrMin= 1.82D-07
 ErrMax= 1.82D-07  0.00D+00 EMaxC= 1.00D-01 BMatC= 7.79D-12 BMatP= 5.96D-11
 IDIUse=1 WtCom= 1.00D+00 WtEn= 0.00D+00
 Coeff-Com: -0.184D-04 0.380D-02-0.460D-01 0.182D-01 0.364D+00 0.660D+00
 Coeff:     -0.184D-04 0.380D-02-0.460D-01 0.182D-01 0.364D+00 0.660D+00
 Gap=     0.419 Goal=   None    Shift=    0.000
 RMSDP=5.70D-08 MaxDP=1.10D-06 DE=-1.05D-10 OVMax= 1.07D-06

 Cycle   7  Pass 1  IDiag  1:
 RMSU=  2.87D-08    CP:  1.00D+00  1.19D+00  1.28D+00  1.32D+00  1.27D+00
                    CP:  1.13D+00
 E= -232.393145010747     Delta-E=       -0.000000000005 Rises=F Damp=F
 DIIS: error= 7.81D-08 at cycle   7 NSaved=   7.
 NSaved= 7 IEnMin= 7 EnMin= -232.393145010747     IErMin= 7 ErrMin= 7.81D-08
 ErrMax= 7.81D-08  0.00D+00 EMaxC= 1.00D-01 BMatC= 1.17D-12 BMatP= 7.79D-12
 IDIUse=1 WtCom= 1.00D+00 WtEn= 0.00D+00
 Coeff-Com: -0.178D-03 0.178D-02-0.529D-02-0.185D-01-0.359D-01 0.267D+00
 Coeff-Com:  0.791D+00
 Coeff:     -0.178D-03 0.178D-02-0.529D-02-0.185D-01-0.359D-01 0.267D+00
 Coeff:      0.791D+00
 Gap=     0.419 Goal=   None    Shift=    0.000
 RMSDP=3.39D-08 MaxDP=6.56D-07 DE=-5.20D-12 OVMax= 6.33D-07

 Cycle   8  Pass 1  IDiag  1:
 RMSU=  1.03D-08    CP:  1.00D+00  1.19D+00  1.28D+00  1.34D+00  1.31D+00
                    CP:  1.30D+00  1.12D+00
 E= -232.393145010749     Delta-E=       -0.000000000002 Rises=F Damp=F
 DIIS: error= 1.29D-08 at cycle   8 NSaved=   8.
 NSaved= 8 IEnMin= 8 EnMin= -232.393145010749     IErMin= 8 ErrMin= 1.29D-08
 ErrMax= 1.29D-08  0.00D+00 EMaxC= 1.00D-01 BMatC= 1.95D-14 BMatP= 1.17D-12
 IDIUse=1 WtCom= 1.00D+00 WtEn= 0.00D+00
 Coeff-Com:  0.109D-04-0.344D-03 0.329D-02 0.284D-03-0.206D-01-0.661D-01
 Coeff-Com: -0.702D-01 0.115D+01
 Coeff:      0.109D-04-0.344D-03 0.329D-02 0.284D-03-0.206D-01-0.661D-01
 Coeff:     -0.702D-01 0.115D+01
 Gap=     0.419 Goal=   None    Shift=    0.000
 RMSDP=1.11D-08 MaxDP=1.74D-07 DE=-1.99D-12 OVMax= 1.94D-07

 Cycle   9  Pass 1  IDiag  1:
 RMSU=  2.31D-09    CP:  1.00D+00  1.19D+00  1.28D+00  1.34D+00  1.32D+00
                    CP:  1.37D+00  1.27D+00  1.40D+00
 E= -232.393145010750     Delta-E=       -0.000000000001 Rises=F Damp=F
 DIIS: error= 1.90D-09 at cycle   9 NSaved=   9.
 NSaved= 9 IEnMin= 9 EnMin= -232.393145010750     IErMin= 9 ErrMin= 1.90D-09
 ErrMax= 1.90D-09  0.00D+00 EMaxC= 1.00D-01 BMatC= 8.29D-16 BMatP= 1.95D-14
 IDIUse=1 WtCom= 1.00D+00 WtEn= 0.00D+00
 Coeff-Com:  0.805D-05-0.982D-04 0.411D-03 0.900D-03 0.481D-03-0.155D-01
 Coeff-Com: -0.382D-01 0.707D-01 0.981D+00
 Coeff:      0.805D-05-0.982D-04 0.411D-03 0.900D-03 0.481D-03-0.155D-01
 Coeff:     -0.382D-01 0.707D-01 0.981D+00
 Gap=     0.419 Goal=   None    Shift=    0.000
 RMSDP=1.70D-09 MaxDP=2.64D-08 DE=-6.54D-13 OVMax= 2.36D-08

 Error on total polarization charges =  0.02886
 SCF Done:  E(RwB97XD) =  -232.393145011     A.U. after    9 cycles
            NFock=  9  Conv=0.17D-08     -V/T= 2.0094
 KE= 2.302305773949D+02 PE=-9.218034486647D+02 EE= 2.686085714897D+02
 SMD-CDS (non-electrostatic) energy       (kcal/mol) =      -1.61
 (included in total energy above)
 Leave Link  502 at Mon Aug 25 14:26:09 2025, MaxMem=  4294967296 cpu:              66.8 elap:               4.8
 (Enter /opt/apps/Gaussian/G16C/g16/l701.exe)
 ... and contract with generalized density number  0.
 Compute integral first derivatives.
 R6Disp: Adding Grimme-D2 dispersion energy 1st derivatives to the gradient.
 D1PCM: PCM CHGder 1st derivatives, ID1Alg=3 FixD1E=F DoIter=F DoCFld=F I1PDM=0.
 GePol: Maximum number of non-zero 1st derivatives   =     304
 Leave Link  701 at Mon Aug 25 14:26:10 2025, MaxMem=  4294967296 cpu:               3.8 elap:               0.3
 (Enter /opt/apps/Gaussian/G16C/g16/l702.exe)
 L702 exits ... SP integral derivatives will be done elsewhere.
 Leave Link  702 at Mon Aug 25 14:26:10 2025, MaxMem=  4294967296 cpu:               0.1 elap:               0.0
 (Enter /opt/apps/Gaussian/G16C/g16/l703.exe)
 Integral derivatives from FoFJK, PRISM(SPDF).
 Compute integral first derivatives, UseDBF=F ICtDFT=           0.
 Calling FoFJK, ICntrl=      2127 FMM=F ISym2X=0 I1Cent= 0 IOpClX= 0 NMat=1 NMatS=1 NMatT=0.
 FoFJK:  IHMeth= 1 ICntrl=    2127 DoSepK=T KAlg= 0 I1Cent=           0 FoldK=F
 IRaf=         1 NMat=       1 IRICut=       1 DoRegI=T DoRafI=F ISym2E= 0 IDoP0=0 IntGTp=1.
 FoFCou: FMM=F IPFlag=           0 FMFlag=      100000 FMFlg1=         800
         NFxFlg=           0 DoJE=F BraDBF=F KetDBF=F FulRan=T
         wScrn=  0.000000 ICntrl=      2527 IOpCl=  0 I1Cent=           0 NGrid=           0
         NMat0=    1 NMatS0=      1 NMatT0=    0 NMatD0=    1 NMtDS0=    0 NMtDT0=    0
 Symmetry not used in FoFCou.
 Leave Link  703 at Mon Aug 25 14:26:10 2025, MaxMem=  4294967296 cpu:               9.9 elap:               0.7
 (Enter /opt/apps/Gaussian/G16C/g16/l716.exe)
 Dipole        = 7.48898122D-02 8.41584678D-01 2.16386923D-01
 -------------------------------------------------------------------
 Center     Atomic                   Forces (Hartrees/Bohr)
 Number     Number              X              Y              Z
 -------------------------------------------------------------------
      1        6          -0.000006818    0.000013393    0.000000244
      2        8           0.000009395    0.000002285   -0.000001829
      3        6          -0.000015160   -0.000011021    0.000003771
      4        6           0.000013580    0.000002310   -0.000004137
      5        6          -0.000009995   -0.000005978    0.000004728
      6        1          -0.000000909    0.000002543   -0.000001468
      7        1          -0.000002954    0.000001417   -0.000001361
      8        1           0.000000515   -0.000002008    0.000002496
      9        1           0.000001137   -0.000001707    0.000001162
     10        1           0.000000051   -0.000002712    0.000001313
     11        1           0.000002289   -0.000003295    0.000000098
     12        1           0.000004742    0.000002193   -0.000002234
     13        1           0.000004126    0.000002580   -0.000002782
 -------------------------------------------------------------------
 Cartesian Forces:  Max     0.000015160 RMS     0.000005501
 Leave Link  716 at Mon Aug 25 14:26:10 2025, MaxMem=  4294967296 cpu:               0.0 elap:               0.0
 (Enter /opt/apps/Gaussian/G16C/g16/l103.exe)

 GradGradGradGradGradGradGradGradGradGradGradGradGradGradGradGradGradGrad
 Berny optimization.
 Using GEDIIS/GDIIS optimizer.
 FormGI is forming the generalized inverse of G from B-inverse, IUseBI=4.
 Internal  Forces:  Max     0.000009560 RMS     0.000001916
 Search for a local minimum.
 Step number  20 out of a maximum of   81
 All quantities printed in internal units (Hartrees-Bohrs-Radians)
 RMS Force = .19162D-05 SwitMx=.10000D-02 MixMth= 2
 Mixed Optimization -- En-DIIS/RFO-DIIS
 Swapping is turned off.
 Update second derivatives using D2CorX and points   13   14   15   16   17
                                                     18   19   20
 DE= -2.65D-08 DEPred=-2.21D-08 R= 1.20D+00
 Trust test= 1.20D+00 RLast= 2.22D-02 DXMaxT set to 1.01D+00
 ITU=  0  0  0  1  0  1 -1  1  1  1  1  1  1  1  1  1  1  1  1  0
     Eigenvalues ---    0.00003   0.00514   0.02524   0.03408   0.04775
     Eigenvalues ---    0.04945   0.05292   0.05845   0.05945   0.06303
     Eigenvalues ---    0.06946   0.07183   0.07648   0.09465   0.10586
     Eigenvalues ---    0.11271   0.11392   0.12642   0.21929   0.25580
     Eigenvalues ---    0.26527   0.29067   0.30369   0.32356   0.34044
     Eigenvalues ---    0.36750   0.37171   0.37228   0.37245   0.37284
     Eigenvalues ---    0.37373   0.37828   0.39391
 Eigenvalue     1 is   3.23D-05 Eigenvector:
                          D33       D32       D30       D29       D27
   1                    0.23873   0.23172   0.23149   0.22447   0.21556
                          D31       D26       D28       D25       D21
   1                    0.21477   0.20855   0.20752   0.19160  -0.18403
 En-DIIS/RFO-DIIS/Sim-DIIS IScMMF=       -3 using points:    20   19   18   17   16   15   14   13   12   11
 RFO step:  Lambda=-1.07507448D-09.
 NNeg= 0 NGDIIS=10 SimSw=  2.50D-01 Rises=F DC= -2.65D-08 SmlDif=  1.00D-05
 NRisDI= 0 DoIntr=F SqrtH=F CThrHd= 10.0 CDAdj=  3.0
 RMS Error=  0.2247985154D-03 NUsed=10 OKEnD=F EnDIS=F
 InvSVX:  RCond= 5.78D-11 Info=           0 Equed=N FErr=  4.74D-09 BErr=  7.16D-17
 DIIS inversion failure, remove point  10.
 InvSVX:  RCond= 1.98D-10 Info=           0 Equed=N FErr=  2.54D-09 BErr=  7.51D-17
 DIIS inversion failure, remove point   9.
 InvSVX:  RCond= 1.54D-10 Info=           0 Equed=N FErr=  2.15D-09 BErr=  6.93D-17
 DIIS inversion failure, remove point   8.
 InvSVX:  RCond= 1.90D-10 Info=           0 Equed=N FErr=  1.15D-09 BErr=  1.26D-16
 DIIS inversion failure, remove point   7.
 InvSVX:  RCond= 2.43D-10 Info=           0 Equed=N FErr=  8.94D-10 BErr=  1.20D-16
 DIIS inversion failure, remove point   6.
 InvSVX:  RCond= 7.41D-10 Info=           0 Equed=N FErr=  9.47D-11 BErr=  1.06D-16
 DIIS inversion failure, remove point   5.
 InvSVX:  RCond= 4.43D-09 Info=           0 Equed=N FErr=  2.18D-12 BErr=  6.19D-17
 DIIS inversion failure, remove point   4.
 InvSVX:  RCond= 7.48D-09 Info=           0 Equed=N FErr=  1.04D-12 BErr=  1.01D-16
 DIIS inversion failure, remove point   3.
 InvSVX:  RCond= 1.30D-05 Info=           0 Equed=N FErr=  1.53D-15 BErr=  2.20D-17
 RFO-DIIS uses    2 points instead of   10
 DidBck=F Rises=F RFO-DIIS coefs:    1.26216   -0.26216    0.00000    0.00000    0.00000
                  RFO-DIIS coefs:    0.00000    0.00000    0.00000    0.00000    0.00000
 Iteration  1 RMS(Cart)=  0.00065815 RMS(Int)=  0.00000032
 Iteration  2 RMS(Cart)=  0.00000024 RMS(Int)=  0.00000025
 ITry= 1 IFail=0 DXMaxC= 2.11D-03 DCOld= 1.00D+10 DXMaxT= 1.01D+00 DXLimC= 3.00D+00 Rises=F
 Variable       Old X    -DE/DX   Delta X   Delta X   Delta X     New X
                                 (Linear)    (Quad)   (Total)
    R1        2.68627   0.00000   0.00004  -0.00000   0.00003   2.68630
    R2        2.90383  -0.00001   0.00005   0.00000   0.00005   2.90388
    R3        2.06497  -0.00000  -0.00001   0.00000  -0.00000   2.06496
    R4        2.08201  -0.00000  -0.00001  -0.00000  -0.00002   2.08199
    R5        2.68624  -0.00001  -0.00005  -0.00000  -0.00005   2.68619
    R6        2.90333  -0.00000  -0.00009   0.00000  -0.00009   2.90324
    R7        2.08204   0.00000   0.00003  -0.00001   0.00002   2.08205
    R8        2.06490   0.00000  -0.00000   0.00000   0.00000   2.06490
    R9        2.92551   0.00000   0.00001   0.00002   0.00002   2.92553
   R10        2.06717  -0.00000  -0.00001   0.00000  -0.00001   2.06716
   R11        2.06737  -0.00000   0.00000  -0.00000   0.00000   2.06737
   R12        2.06717  -0.00000  -0.00000   0.00000  -0.00000   2.06717
   R13        2.06732  -0.00000   0.00000  -0.00001  -0.00001   2.06731
    A1        1.84385   0.00000   0.00010  -0.00000   0.00010   1.84395
    A2        1.88262  -0.00000  -0.00003  -0.00001  -0.00004   1.88258
    A3        1.91214  -0.00000  -0.00004  -0.00000  -0.00004   1.91210
    A4        1.99094   0.00000  -0.00002   0.00002  -0.00001   1.99093
    A5        1.93470   0.00000  -0.00000  -0.00000  -0.00001   1.93469
    A6        1.89741  -0.00000  -0.00000  -0.00001  -0.00001   1.89740
    A7        1.83868   0.00000   0.00001  -0.00000   0.00001   1.83869
    A8        1.84332   0.00000  -0.00007   0.00000  -0.00007   1.84325
    A9        1.91219   0.00000   0.00003   0.00002   0.00004   1.91223
   A10        1.88270   0.00000   0.00002   0.00002   0.00004   1.88274
   A11        1.93462  -0.00000   0.00001  -0.00001   0.00000   1.93462
   A12        1.99125  -0.00000   0.00001  -0.00002  -0.00001   1.99124
   A13        1.89757   0.00000   0.00001  -0.00001   0.00000   1.89757
   A14        1.80462  -0.00000  -0.00004  -0.00001  -0.00004   1.80458
   A15        1.94505   0.00000   0.00009   0.00000   0.00010   1.94515
   A16        1.93086  -0.00000  -0.00010   0.00000  -0.00009   1.93076
   A17        1.96574  -0.00000   0.00004  -0.00001   0.00003   1.96577
   A18        1.93450   0.00000  -0.00004   0.00000  -0.00004   1.93446
   A19        1.88335   0.00000   0.00004   0.00000   0.00004   1.88339
   A20        1.80504  -0.00000   0.00004  -0.00000   0.00004   1.80507
   A21        1.94455   0.00000  -0.00007  -0.00001  -0.00008   1.94447
   A22        1.93135   0.00000   0.00009   0.00002   0.00011   1.93146
   A23        1.96547  -0.00000  -0.00005  -0.00003  -0.00008   1.96538
   A24        1.93463  -0.00000   0.00002   0.00000   0.00002   1.93466
   A25        1.88312   0.00000  -0.00002   0.00002  -0.00000   1.88311
    D1        0.69993   0.00000  -0.00043   0.00001  -0.00042   0.69952
    D2        2.83561   0.00000  -0.00042   0.00003  -0.00039   2.83522
    D3       -1.38494   0.00000  -0.00046   0.00002  -0.00044  -1.38539
    D4       -0.41066   0.00000   0.00098  -0.00001   0.00097  -0.40969
    D5       -2.52620   0.00000   0.00105   0.00003   0.00109  -2.52511
    D6        1.66189  -0.00000   0.00107  -0.00000   0.00107   1.66296
    D7       -2.47535   0.00000   0.00096  -0.00001   0.00095  -2.47439
    D8        1.69230   0.00000   0.00104   0.00003   0.00107   1.69337
    D9       -0.40279  -0.00000   0.00105  -0.00000   0.00105  -0.40174
   D10        1.65926  -0.00000   0.00099  -0.00002   0.00097   1.66023
   D11       -0.45628   0.00000   0.00106   0.00003   0.00109  -0.45519
   D12       -2.55137  -0.00000   0.00108  -0.00001   0.00108  -2.55030
   D13       -0.70253   0.00000  -0.00033  -0.00001  -0.00033  -0.70286
   D14        1.38197   0.00000  -0.00035  -0.00000  -0.00035   1.38162
   D15       -2.83832   0.00000  -0.00031   0.00001  -0.00030  -2.83862
   D16        0.41707  -0.00000   0.00092  -0.00000   0.00092   0.41799
   D17        2.53295  -0.00000   0.00100  -0.00002   0.00098   2.53393
   D18       -1.65485   0.00000   0.00104  -0.00001   0.00103  -1.65382
   D19       -1.65254  -0.00000   0.00093  -0.00002   0.00091  -1.65163
   D20        0.46334  -0.00000   0.00101  -0.00003   0.00097   0.46431
   D21        2.55872  -0.00000   0.00105  -0.00002   0.00102   2.55975
   D22        2.48168   0.00000   0.00090   0.00001   0.00091   2.48259
   D23       -1.68563   0.00000   0.00098  -0.00001   0.00097  -1.68465
   D24        0.40976   0.00000   0.00102   0.00000   0.00103   0.41079
   D25       -0.00376   0.00000  -0.00111   0.00001  -0.00110  -0.00486
   D26        2.09759   0.00000  -0.00119  -0.00002  -0.00121   2.09638
   D27       -2.07404   0.00000  -0.00124  -0.00002  -0.00126  -2.07530
   D28       -2.10561   0.00000  -0.00122   0.00001  -0.00121  -2.10681
   D29       -0.00425  -0.00000  -0.00130  -0.00001  -0.00132  -0.00557
   D30        2.10730  -0.00000  -0.00136  -0.00001  -0.00136   2.10594
   D31        2.06564  -0.00000  -0.00127   0.00001  -0.00125   2.06438
   D32       -2.11620  -0.00000  -0.00135  -0.00002  -0.00137  -2.11756
   D33       -0.00464  -0.00000  -0.00140  -0.00001  -0.00141  -0.00606
         Item               Value     Threshold  Converged?
 Maximum Force            0.000010     0.000015     YES
 RMS     Force            0.000002     0.000010     YES
 Maximum Displacement     0.002113     0.000060     NO 
 RMS     Displacement     0.000658     0.000040     NO 
 Predicted change in Energy=-1.426115D-09
 Lowest energy point so far.  Saving SCF results.
 GradGradGradGradGradGradGradGradGradGradGradGradGradGradGradGradGradGrad

 Leave Link  103 at Mon Aug 25 14:26:10 2025, MaxMem=  4294967296 cpu:               0.1 elap:               0.0
 (Enter /opt/apps/Gaussian/G16C/g16/l202.exe)
                          Input orientation:                          
 ---------------------------------------------------------------------
 Center     Atomic      Atomic             Coordinates (Angstroms)
 Number     Number       Type             X           Y           Z
 ---------------------------------------------------------------------
      1          6           0       -1.750644    0.286327    0.696921
      2          8           0       -0.921511   -0.442730   -0.198489
      3          6           0        0.169779    0.420766   -0.488385
      4          6           0       -0.441036    1.822232   -0.640408
      5          6           0       -1.753699    1.731756    0.175323
      6          1           0       -2.735331   -0.187402    0.702998
      7          1           0       -1.328452    0.237138    1.713371
      8          1           0        0.891245    0.395703    0.343941
      9          1           0        0.661663    0.048394   -1.390262
     10          1           0        0.235080    2.596088   -0.265411
     11          1           0       -0.650548    2.039285   -1.691998
     12          1           0       -1.788604    2.452791    0.997212
     13          1           0       -2.622892    1.909356   -0.464786
 ---------------------------------------------------------------------
                    Distance matrix (angstroms):
                    1          2          3          4          5
     1  C    0.000000
     2  O    1.421529   0.000000
     3  C    2.260763   1.421471   0.000000
     4  C    2.421266   2.357160   1.536331   0.000000
     5  C    1.536665   2.358105   2.420531   1.548124   0.000000
     6  H    1.092732   2.041522   3.198269   3.332740   2.219281
     7  H    1.101742   2.069548   2.669484   2.973265   2.186392
     8  H    2.667609   2.069610   1.101775   2.186070   2.968030
     9  H    3.198776   2.041559   1.092699   2.219173   3.334477
    10  H    3.194399   3.252168   2.187695   1.093896   2.212817
    11  H    3.160698   2.909362   2.177436   1.094006   2.190526
    12  H    2.187506   3.250476   3.189261   2.212542   1.093897
    13  H    2.178211   2.915119   3.164722   2.190645   1.093973
                    6          7          8          9         10
     6  H    0.000000
     7  H    1.783366   0.000000
     8  H    3.690662   2.612955   0.000000
     9  H    3.997112   3.691709   1.783477   0.000000
    10  H    4.184373   3.453238   2.375618   2.817447   0.000000
    11  H    3.878203   3.912011   3.037028   2.403454   1.769045
    12  H    2.820190   2.373550   3.440925   4.181502   2.389571
    13  H    2.402656   3.035828   3.910799   3.886899   2.946074
                   11         12         13
    11  H    0.000000
    12  H    2.949238   0.000000
    13  H    2.326601   1.768840   0.000000
 Symmetry turned off by external request.
 Stoichiometry    C4H8O
 Framework group  C1[X(C4H8O)]
 Deg. of freedom    33
 Full point group                 C1      NOp   1
 Rotational constants (GHZ):           7.1514806           6.9425018           3.9978512
 Leave Link  202 at Mon Aug 25 14:26:10 2025, MaxMem=  4294967296 cpu:               0.0 elap:               0.0
 (Enter /opt/apps/Gaussian/G16C/g16/l301.exe)
 Standard basis: 6-31+G(d) (6D, 7F)
 Ernie: Thresh=  0.10000D-02 Tol=  0.10000D-05 Strict=F.
   111 basis functions,   192 primitive gaussians,   111 cartesian basis functions
    20 alpha electrons       20 beta electrons
       nuclear repulsion energy       190.5796301208 Hartrees.
 IExCor= 4639 DFT=T Ex+Corr=wB97XD ExCW=0 ScaHFX=  1.000000
 ScaDFX=  1.000000  1.000000  1.000000  1.000000 ScalE2=  1.000000  1.000000
 IRadAn=      5 IRanWt=     -1 IRanGd=            0 ICorTp=0 IEmpDi=121
 HFx  wShort=  0.000000 wLong=  0.200000 cFull=  0.222036 cShort=  0.000000 cLong=  0.777964
 DFx  wShort=  0.000000 wLong=  0.200000 cFull=  0.000000 cShort=  0.000000 cLong=  1.000000
 NAtoms=   13 NActive=   13 NUniq=   13 SFac= 1.00D+00 NAtFMM=   60 NAOKFM=F Big=F
 Integral buffers will be    131072 words long.
 Raffenetti 2 integral format.
 Two-electron integral symmetry is turned off.
 R6Disp:  Grimme-D2 Dispersion energy=       -0.0056519298 Hartrees.
 Nuclear repulsion after empirical dispersion term =      190.5739781910 Hartrees.
 ------------------------------------------------------------------------------
 Polarizable Continuum Model (PCM)
 =================================
 Model                : PCM.
 Atomic radii         : SMD-Coulomb.
 Polarization charges : Total charges.
 Charge compensation  : None.
 Solution method      : On-the-fly selection.
 Cavity type          : VdW (van der Waals Surface) (Alpha=1.000).
 Cavity algorithm     : GePol (No added spheres)
                        Default sphere list used, NSphG=   13.
                        Lebedev-Laikov grids with approx.  5.0 points / Ang**2.
                        Smoothing algorithm: York/Karplus (Gamma=1.0000).
                        Polarization charges: spherical gaussians, with
                                              point-specific exponents (IZeta= 3).
                        Self-potential: point-specific (ISelfS= 7).
                        Self-field    : sphere-specific E.n sum rule (ISelfD= 2).
 1st derivatives      : Analytical E(r).r(x)/FMM algorithm (CHGder, D1EAlg=3).
                        Cavity 1st derivative terms included.
 Solvent              : TetraHydroFuran, Eps=   7.425700 Eps(inf)=   1.974025
 ------------------------------------------------------------------------------
 Spheres list:
 ISph  on   Nord     Re0    Alpha      Xe            Ye            Ze
    1   C      1    1.8500  1.000     -1.750644      0.286327      0.696921
    2   O      2    2.2940  1.000     -0.921511     -0.442730     -0.198489
    3   C      3    1.8500  1.000      0.169779      0.420766     -0.488385
    4   C      4    1.8500  1.000     -0.441036      1.822232     -0.640408
    5   C      5    1.8500  1.000     -1.753699      1.731756      0.175323
    6   H      6    1.2000  1.000     -2.735331     -0.187402      0.702998
    7   H      7    1.2000  1.000     -1.328452      0.237138      1.713371
    8   H      8    1.2000  1.000      0.891245      0.395703      0.343941
    9   H      9    1.2000  1.000      0.661663      0.048394     -1.390262
   10   H     10    1.2000  1.000      0.235080      2.596088     -0.265411
   11   H     11    1.2000  1.000     -0.650548      2.039285     -1.691998
   12   H     12    1.2000  1.000     -1.788604      2.452791      0.997212
   13   H     13    1.2000  1.000     -2.622892      1.909356     -0.464786
 ------------------------------------------------------------------------------
 GePol: Number of generator spheres                  =      13
 GePol: Total number of spheres                      =      13
 GePol: Number of exposed spheres                    =      13 (100.00%)
 GePol: Number of points                             =     977
 GePol: Average weight of points                     =       0.12
 GePol: Minimum weight of points                     =   0.47D-08
 GePol: Maximum weight of points                     =    0.17992
 GePol: Number of points with low weight             =      45
 GePol: Fraction of low-weight points (<1% of avg)   =       4.61%
 GePol: Cavity surface area                          =    115.908 Ang**2
 GePol: Cavity volume                                =     98.753 Ang**3
 ------------------------------------------------------------------------------
 Atomic radii for non-electrostatic terms: SMD-CDS.
 ------------------------------------------------------------------------------
 PCM non-electrostatic energy =        -0.0025661355 Hartrees.
 Nuclear repulsion after PCM non-electrostatic terms =      190.5714120554 Hartrees.
 Leave Link  301 at Mon Aug 25 14:26:11 2025, MaxMem=  4294967296 cpu:               0.1 elap:               0.0
 (Enter /opt/apps/Gaussian/G16C/g16/l302.exe)
 NPDir=0 NMtPBC=     1 NCelOv=     1 NCel=       1 NClECP=     1 NCelD=      1
         NCelK=      1 NCelE2=     1 NClLst=     1 CellRange=     0.0.
 One-electron integrals computed using PRISM.
 NBasis=   111 RedAO= T EigKep=  2.63D-05  NBF=   111
 NBsUse=   111 1.00D-06 EigRej= -1.00D+00 NBFU=   111
 Precomputing XC quadrature grid using
 IXCGrd= 4 IRadAn=           5 IRanWt=          -1 IRanGd=           0 AccXCQ= 0.00D+00.
 Generated NRdTot=       0 NPtTot=           0 NUsed=           0 NTot=          32
 NSgBfM=   111   111   111   111   111 MxSgAt=    13 MxSgA2=    13.
 Leave Link  302 at Mon Aug 25 14:26:11 2025, MaxMem=  4294967296 cpu:               1.1 elap:               0.1
 (Enter /opt/apps/Gaussian/G16C/g16/l303.exe)
 DipDrv:  MaxL=1.
 Leave Link  303 at Mon Aug 25 14:26:11 2025, MaxMem=  4294967296 cpu:               0.1 elap:               0.0
 (Enter /opt/apps/Gaussian/G16C/g16/l401.exe)
 Initial guess from the checkpoint file:  "THF-dzpop.chk"
 B after Tr=     0.000117    0.000051   -0.000024
         Rot=    1.000000   -0.000005    0.000008   -0.000014 Ang=  -0.00 deg.
 Guess basis will be translated and rotated to current coordinates.
 JPrj=2 DoOrth=T DoCkMO=T.
 Leave Link  401 at Mon Aug 25 14:26:11 2025, MaxMem=  4294967296 cpu:               0.2 elap:               0.1
 (Enter /opt/apps/Gaussian/G16C/g16/l502.exe)
 Two-electron integral symmetry not used.
 Closed shell SCF:
 Using DIIS extrapolation, IDIIS=  1040.
 NGot=  4294967296 LenX=  4294939455 LenY=  4294926693
 Requested convergence on RMS density matrix=1.00D-08 within 128 cycles.
 Requested convergence on MAX density matrix=1.00D-06.
 Requested convergence on             energy=1.00D-06.
 No special actions if energy rises.
 Fock matrices will be formed incrementally for  20 cycles.

 Cycle   1  Pass 1  IDiag  1:
 FoFJK:  IHMeth= 1 ICntrl=       0 DoSepK=T KAlg= 0 I1Cent=           0 FoldK=F
 IRaf=         1 NMat=       1 IRICut=       1 DoRegI=T DoRafI=F ISym2E= 0 IDoP0=0 IntGTp=1.
 FoFCou: FMM=F IPFlag=           0 FMFlag=      100000 FMFlg1=           0
         NFxFlg=           0 DoJE=T BraDBF=F KetDBF=F FulRan=T
         wScrn=  0.000000 ICntrl=       500 IOpCl=  0 I1Cent=           0 NGrid=           0
         NMat0=    1 NMatS0=      1 NMatT0=    0 NMatD0=    1 NMtDS0=    0 NMtDT0=    0
 Symmetry not used in FoFCou.
 Inv3:  Mode=1 IEnd=     2863587.
 Iteration    1 A*A^-1 deviation from unit magnitude is 2.89D-15 for    962.
 Iteration    1 A*A^-1 deviation from orthogonality  is 2.04D-15 for    708    223.
 Iteration    1 A^-1*A deviation from unit magnitude is 2.66D-15 for    962.
 Iteration    1 A^-1*A deviation from orthogonality  is 1.37D-15 for    959    337.
 E= -232.393144475305    
 DIIS: error= 5.43D-05 at cycle   1 NSaved=   1.
 NSaved= 1 IEnMin= 1 EnMin= -232.393144475305     IErMin= 1 ErrMin= 5.43D-05
 ErrMax= 5.43D-05  0.00D+00 EMaxC= 1.00D-01 BMatC= 3.13D-07 BMatP= 3.13D-07
 IDIUse=1 WtCom= 1.00D+00 WtEn= 0.00D+00
 Coeff-Com:  0.100D+01
 Coeff:      0.100D+01
 Gap=     0.832 Goal=   None    Shift=    0.000
 RMSDP=1.37D-05 MaxDP=2.10D-04              OVMax= 1.75D-04

 Cycle   2  Pass 1  IDiag  1:
 RMSU=  1.37D-05    CP:  1.00D+00
 E= -232.393144980715     Delta-E=       -0.000000505410 Rises=F Damp=F
 DIIS: error= 8.55D-06 at cycle   2 NSaved=   2.
 NSaved= 2 IEnMin= 2 EnMin= -232.393144980715     IErMin= 2 ErrMin= 8.55D-06
 ErrMax= 8.55D-06  0.00D+00 EMaxC= 1.00D-01 BMatC= 1.15D-08 BMatP= 3.13D-07
 IDIUse=1 WtCom= 1.00D+00 WtEn= 0.00D+00
 Coeff-Com: -0.174D+00 0.117D+01
 Coeff:     -0.174D+00 0.117D+01
 Gap=     0.419 Goal=   None    Shift=    0.000
 RMSDP=3.15D-06 MaxDP=4.52D-05 DE=-5.05D-07 OVMax= 6.06D-05

 Cycle   3  Pass 1  IDiag  1:
 RMSU=  2.03D-06    CP:  1.00D+00  1.18D+00
 E= -232.393145011396     Delta-E=       -0.000000030681 Rises=F Damp=F
 DIIS: error= 1.43D-06 at cycle   3 NSaved=   3.
 NSaved= 3 IEnMin= 3 EnMin= -232.393145011396     IErMin= 3 ErrMin= 1.43D-06
 ErrMax= 1.43D-06  0.00D+00 EMaxC= 1.00D-01 BMatC= 2.75D-10 BMatP= 1.15D-08
 IDIUse=1 WtCom= 1.00D+00 WtEn= 0.00D+00
 Coeff-Com:  0.308D-02-0.117D+00 0.111D+01
 Coeff:      0.308D-02-0.117D+00 0.111D+01
 Gap=     0.419 Goal=   None    Shift=    0.000
 RMSDP=6.31D-07 MaxDP=6.64D-06 DE=-3.07D-08 OVMax= 1.50D-05

 Cycle   4  Pass 1  IDiag  1:
 RMSU=  3.40D-07    CP:  1.00D+00  1.19D+00  1.25D+00
 E= -232.393145012233     Delta-E=       -0.000000000837 Rises=F Damp=F
 DIIS: error= 4.92D-07 at cycle   4 NSaved=   4.
 NSaved= 4 IEnMin= 4 EnMin= -232.393145012233     IErMin= 4 ErrMin= 4.92D-07
 ErrMax= 4.92D-07  0.00D+00 EMaxC= 1.00D-01 BMatC= 5.99D-11 BMatP= 2.75D-10
 IDIUse=1 WtCom= 1.00D+00 WtEn= 0.00D+00
 Coeff-Com:  0.687D-02-0.801D-01 0.371D+00 0.702D+00
 Coeff:      0.687D-02-0.801D-01 0.371D+00 0.702D+00
 Gap=     0.419 Goal=   None    Shift=    0.000
 RMSDP=1.35D-07 MaxDP=1.52D-06 DE=-8.37D-10 OVMax= 2.71D-06

 Cycle   5  Pass 1  IDiag  1:
 RMSU=  1.16D-07    CP:  1.00D+00  1.19D+00  1.27D+00  1.12D+00
 E= -232.393145012308     Delta-E=       -0.000000000075 Rises=F Damp=F
 DIIS: error= 1.13D-07 at cycle   5 NSaved=   5.
 NSaved= 5 IEnMin= 5 EnMin= -232.393145012308     IErMin= 5 ErrMin= 1.13D-07
 ErrMax= 1.13D-07  0.00D+00 EMaxC= 1.00D-01 BMatC= 3.50D-12 BMatP= 5.99D-11
 IDIUse=1 WtCom= 1.00D+00 WtEn= 0.00D+00
 Coeff-Com:  0.659D-03 0.150D-02-0.804D-01 0.113D+00 0.965D+00
 Coeff:      0.659D-03 0.150D-02-0.804D-01 0.113D+00 0.965D+00
 Gap=     0.419 Goal=   None    Shift=    0.000
 RMSDP=7.13D-08 MaxDP=1.33D-06 DE=-7.50D-11 OVMax= 1.58D-06

 Cycle   6  Pass 1  IDiag  1:
 RMSU=  2.27D-08    CP:  1.00D+00  1.19D+00  1.28D+00  1.30D+00  1.21D+00
 E= -232.393145012314     Delta-E=       -0.000000000005 Rises=F Damp=F
 DIIS: error= 2.85D-08 at cycle   6 NSaved=   6.
 NSaved= 6 IEnMin= 6 EnMin= -232.393145012314     IErMin= 6 ErrMin= 2.85D-08
 ErrMax= 2.85D-08  0.00D+00 EMaxC= 1.00D-01 BMatC= 7.23D-14 BMatP= 3.50D-12
 IDIUse=1 WtCom= 1.00D+00 WtEn= 0.00D+00
 Coeff-Com: -0.270D-03 0.344D-02-0.175D-01-0.245D-01 0.238D-01 0.101D+01
 Coeff:     -0.270D-03 0.344D-02-0.175D-01-0.245D-01 0.238D-01 0.101D+01
 Gap=     0.419 Goal=   None    Shift=    0.000
 RMSDP=1.84D-08 MaxDP=3.79D-07 DE=-5.49D-12 OVMax= 3.58D-07

 Cycle   7  Pass 1  IDiag  1:
 RMSU=  5.02D-09    CP:  1.00D+00  1.19D+00  1.28D+00  1.34D+00  1.29D+00
                    CP:  1.31D+00
 E= -232.393145012314     Delta-E=       -0.000000000000 Rises=F Damp=F
 DIIS: error= 8.65D-09 at cycle   7 NSaved=   7.
 NSaved= 7 IEnMin= 7 EnMin= -232.393145012314     IErMin= 7 ErrMin= 8.65D-09
 ErrMax= 8.65D-09  0.00D+00 EMaxC= 1.00D-01 BMatC= 1.74D-14 BMatP= 7.23D-14
 IDIUse=1 WtCom= 1.00D+00 WtEn= 0.00D+00
 Coeff-Com: -0.126D-03 0.115D-02-0.242D-02-0.134D-01-0.352D-01 0.335D+00
 Coeff-Com:  0.715D+00
 Coeff:     -0.126D-03 0.115D-02-0.242D-02-0.134D-01-0.352D-01 0.335D+00
 Coeff:      0.715D+00
 Gap=     0.419 Goal=   None    Shift=    0.000
 RMSDP=3.61D-09 MaxDP=5.72D-08 DE=-4.55D-13 OVMax= 6.30D-08

 Error on total polarization charges =  0.02886
 SCF Done:  E(RwB97XD) =  -232.393145012     A.U. after    7 cycles
            NFock=  7  Conv=0.36D-08     -V/T= 2.0094
 KE= 2.302306179943D+02 PE=-9.218039859592D+02 EE= 2.686088108972D+02
 SMD-CDS (non-electrostatic) energy       (kcal/mol) =      -1.61
 (included in total energy above)
 Leave Link  502 at Mon Aug 25 14:26:15 2025, MaxMem=  4294967296 cpu:              53.9 elap:               3.9
 (Enter /opt/apps/Gaussian/G16C/g16/l701.exe)
 ... and contract with generalized density number  0.
 Compute integral first derivatives.
 R6Disp: Adding Grimme-D2 dispersion energy 1st derivatives to the gradient.
 D1PCM: PCM CHGder 1st derivatives, ID1Alg=3 FixD1E=F DoIter=F DoCFld=F I1PDM=0.
 GePol: Maximum number of non-zero 1st derivatives   =     304
 Leave Link  701 at Mon Aug 25 14:26:15 2025, MaxMem=  4294967296 cpu:               4.1 elap:               0.3
 (Enter /opt/apps/Gaussian/G16C/g16/l702.exe)
 L702 exits ... SP integral derivatives will be done elsewhere.
 Leave Link  702 at Mon Aug 25 14:26:15 2025, MaxMem=  4294967296 cpu:               0.0 elap:               0.0
 (Enter /opt/apps/Gaussian/G16C/g16/l703.exe)
 Integral derivatives from FoFJK, PRISM(SPDF).
 Compute integral first derivatives, UseDBF=F ICtDFT=           0.
 Calling FoFJK, ICntrl=      2127 FMM=F ISym2X=0 I1Cent= 0 IOpClX= 0 NMat=1 NMatS=1 NMatT=0.
 FoFJK:  IHMeth= 1 ICntrl=    2127 DoSepK=T KAlg= 0 I1Cent=           0 FoldK=F
 IRaf=         1 NMat=       1 IRICut=       1 DoRegI=T DoRafI=F ISym2E= 0 IDoP0=0 IntGTp=1.
 FoFCou: FMM=F IPFlag=           0 FMFlag=      100000 FMFlg1=         800
         NFxFlg=           0 DoJE=F BraDBF=F KetDBF=F FulRan=T
         wScrn=  0.000000 ICntrl=      2527 IOpCl=  0 I1Cent=           0 NGrid=           0
         NMat0=    1 NMatS0=      1 NMatT0=    0 NMatD0=    1 NMtDS0=    0 NMtDT0=    0
 Symmetry not used in FoFCou.
 Leave Link  703 at Mon Aug 25 14:26:16 2025, MaxMem=  4294967296 cpu:               9.9 elap:               0.7
 (Enter /opt/apps/Gaussian/G16C/g16/l716.exe)
 Dipole        = 7.47527299D-02 8.41594771D-01 2.16418547D-01
 -------------------------------------------------------------------
 Center     Atomic                   Forces (Hartrees/Bohr)
 Number     Number              X              Y              Z
 -------------------------------------------------------------------
      1        6          -0.000003216    0.000003591    0.000000164
      2        8          -0.000000095    0.000000413    0.000000007
      3        6          -0.000001941   -0.000004910    0.000003497
      4        6           0.000003794    0.000000225   -0.000002241
      5        6          -0.000002155    0.000000403   -0.000000288
      6        1          -0.000002861    0.000002731   -0.000000837
      7        1          -0.000003198    0.000001704    0.000000096
      8        1          -0.000001363   -0.000002792    0.000001834
      9        1           0.000000350   -0.000003374    0.000001915
     10        1           0.000002571   -0.000001910    0.000000469
     11        1           0.000003140   -0.000001024   -0.000000451
     12        1           0.000002206    0.000002470   -0.000001830
     13        1           0.000002768    0.000002473   -0.000002336
 -------------------------------------------------------------------
 Cartesian Forces:  Max     0.000004910 RMS     0.000002269
 Leave Link  716 at Mon Aug 25 14:26:16 2025, MaxMem=  4294967296 cpu:               0.0 elap:               0.0
 (Enter /opt/apps/Gaussian/G16C/g16/l103.exe)

 GradGradGradGradGradGradGradGradGradGradGradGradGradGradGradGradGradGrad
 Berny optimization.
 Using GEDIIS/GDIIS optimizer.
 FormGI is forming the generalized inverse of G from B-inverse, IUseBI=4.
 Internal  Forces:  Max     0.000001838 RMS     0.000000469
 Search for a local minimum.
 Step number  21 out of a maximum of   81
 All quantities printed in internal units (Hartrees-Bohrs-Radians)
 RMS Force = .46930D-06 SwitMx=.10000D-02 MixMth= 2
 Mixed Optimization -- En-DIIS/RFO-DIIS
 Swapping is turned off.
 Update second derivatives using D2CorX and points   13   14   15   16   17
                                                     18   19   20   21
 DE= -1.56D-09 DEPred=-1.43D-09 R= 1.10D+00
 Trust test= 1.10D+00 RLast= 5.82D-03 DXMaxT set to 1.01D+00
 ITU=  0  0  0  0  1  0  1 -1  1  1  1  1  1  1  1  1  1  1  1  1
 ITU=  0
     Eigenvalues ---    0.00003   0.00502   0.02534   0.03468   0.04775
     Eigenvalues ---    0.04904   0.05230   0.05831   0.05927   0.06255
     Eigenvalues ---    0.06907   0.07010   0.07553   0.09474   0.10616
     Eigenvalues ---    0.11159   0.11308   0.12638   0.21441   0.25231
     Eigenvalues ---    0.26171   0.28854   0.30783   0.32166   0.34074
     Eigenvalues ---    0.36716   0.37173   0.37226   0.37241   0.37284
     Eigenvalues ---    0.37330   0.37706   0.39497
 Eigenvalue     1 is   3.11D-05 Eigenvector:
                          D33       D30       D32       D29       D27
   1                    0.23827   0.23135   0.23112   0.22420   0.21588
                          D31       D26       D28       D25       D21
   1                    0.21431   0.20873   0.20739   0.19193  -0.18337
 En-DIIS/RFO-DIIS/Sim-DIIS IScMMF=       -3 using points:    21   20   19   18   17   16   15   14   13   12
 RFO step:  Lambda=-6.67136755D-11.
 NNeg= 0 NGDIIS=10 SimSw=  2.50D-01 Rises=F DC= -1.56D-09 SmlDif=  1.00D-05
 NRisDI= 0 DoIntr=F SqrtH=F CThrHd= 10.0 CDAdj=  3.0
 RMS Error=  0.8557909033D-05 NUsed=10 OKEnD=F EnDIS=F
 InvSVX:  RCond= 9.85D-12 Info=           0 Equed=N FErr=  4.26D-09 BErr=  1.07D-16
 DIIS inversion failure, remove point  10.
 InvSVX:  RCond= 1.11D-11 Info=           0 Equed=N FErr=  4.61D-09 BErr=  9.10D-17
 DIIS inversion failure, remove point   9.
 InvSVX:  RCond= 1.81D-11 Info=           0 Equed=N FErr=  2.63D-09 BErr=  7.28D-17
 DIIS inversion failure, remove point   8.
 InvSVX:  RCond= 4.12D-11 Info=           0 Equed=N FErr=  3.87D-10 BErr=  5.84D-17
 DIIS inversion failure, remove point   7.
 InvSVX:  RCond= 1.57D-10 Info=           0 Equed=N FErr=  4.38D-11 BErr=  4.03D-17
 DIIS inversion failure, remove point   6.
 InvSVX:  RCond= 4.38D-10 Info=           0 Equed=N FErr=  1.88D-12 BErr=  1.00D-16
 DIIS inversion failure, remove point   5.
 InvSVX:  RCond= 5.60D-10 Info=           0 Equed=N FErr=  6.20D-13 BErr=  1.09D-16
 DIIS inversion failure, remove point   4.
 InvSVX:  RCond= 9.51D-10 Info=           0 Equed=N FErr=  2.71D-13 BErr=  8.44D-18
 DIIS inversion failure, remove point   3.
 InvSVX:  RCond= 8.34D-07 Info=           0 Equed=N FErr=  9.94D-16 BErr=  5.69D-17
 RFO-DIIS uses    2 points instead of   10
 DidBck=F Rises=F RFO-DIIS coefs:    1.03220   -0.03220    0.00000    0.00000    0.00000
                  RFO-DIIS coefs:    0.00000    0.00000    0.00000    0.00000    0.00000
 Iteration  1 RMS(Cart)=  0.00002107 RMS(Int)=  0.00000000
 Iteration  2 RMS(Cart)=  0.00000000 RMS(Int)=  0.00000000
 ITry= 1 IFail=0 DXMaxC= 7.09D-05 DCOld= 1.00D+10 DXMaxT= 1.01D+00 DXLimC= 3.00D+00 Rises=F
 Variable       Old X    -DE/DX   Delta X   Delta X   Delta X     New X
                                 (Linear)    (Quad)   (Total)
    R1        2.68630   0.00000   0.00000   0.00001   0.00001   2.68631
    R2        2.90388  -0.00000   0.00000  -0.00000  -0.00000   2.90387
    R3        2.06496   0.00000  -0.00000   0.00000   0.00000   2.06497
    R4        2.08199  -0.00000  -0.00000  -0.00000  -0.00000   2.08199
    R5        2.68619  -0.00000  -0.00000  -0.00001  -0.00001   2.68618
    R6        2.90324   0.00000  -0.00000   0.00001   0.00000   2.90325
    R7        2.08205  -0.00000   0.00000  -0.00000   0.00000   2.08205
    R8        2.06490   0.00000   0.00000   0.00000   0.00000   2.06490
    R9        2.92553   0.00000   0.00000   0.00001   0.00001   2.92554
   R10        2.06716   0.00000  -0.00000  -0.00000  -0.00000   2.06716
   R11        2.06737   0.00000   0.00000   0.00000   0.00000   2.06737
   R12        2.06717   0.00000  -0.00000   0.00000   0.00000   2.06717
   R13        2.06731  -0.00000  -0.00000  -0.00000  -0.00000   2.06731
    A1        1.84395  -0.00000   0.00000   0.00000   0.00000   1.84395
    A2        1.88258  -0.00000  -0.00000  -0.00000  -0.00000   1.88258
    A3        1.91210  -0.00000  -0.00000  -0.00000  -0.00000   1.91210
    A4        1.99093   0.00000  -0.00000   0.00001   0.00001   1.99094
    A5        1.93469   0.00000  -0.00000   0.00000   0.00000   1.93469
    A6        1.89740  -0.00000  -0.00000  -0.00000  -0.00000   1.89740
    A7        1.83869   0.00000   0.00000   0.00000   0.00000   1.83869
    A8        1.84325   0.00000  -0.00000   0.00000  -0.00000   1.84324
    A9        1.91223  -0.00000   0.00000   0.00000   0.00000   1.91223
   A10        1.88274   0.00000   0.00000   0.00000   0.00000   1.88274
   A11        1.93462   0.00000   0.00000   0.00000   0.00000   1.93462
   A12        1.99124  -0.00000  -0.00000  -0.00000  -0.00000   1.99124
   A13        1.89757  -0.00000   0.00000  -0.00000  -0.00000   1.89757
   A14        1.80458  -0.00000  -0.00000  -0.00000  -0.00000   1.80458
   A15        1.94515   0.00000   0.00000   0.00000   0.00000   1.94515
   A16        1.93076   0.00000  -0.00000   0.00001   0.00000   1.93076
   A17        1.96577  -0.00000   0.00000  -0.00001  -0.00000   1.96577
   A18        1.93446   0.00000  -0.00000  -0.00000  -0.00000   1.93446
   A19        1.88339  -0.00000   0.00000   0.00000   0.00000   1.88339
   A20        1.80507   0.00000   0.00000   0.00000   0.00000   1.80508
   A21        1.94447   0.00000  -0.00000   0.00000  -0.00000   1.94447
   A22        1.93146   0.00000   0.00000   0.00000   0.00001   1.93147
   A23        1.96538  -0.00000  -0.00000  -0.00001  -0.00001   1.96537
   A24        1.93466  -0.00000   0.00000  -0.00000  -0.00000   1.93466
   A25        1.88311   0.00000  -0.00000   0.00000   0.00000   1.88312
    D1        0.69952   0.00000  -0.00001  -0.00001  -0.00002   0.69950
    D2        2.83522   0.00000  -0.00001   0.00000  -0.00001   2.83521
    D3       -1.38539   0.00000  -0.00001  -0.00000  -0.00002  -1.38541
    D4       -0.40969   0.00000   0.00003   0.00000   0.00004  -0.40966
    D5       -2.52511   0.00000   0.00003   0.00001   0.00005  -2.52507
    D6        1.66296   0.00000   0.00003   0.00000   0.00004   1.66300
    D7       -2.47439   0.00000   0.00003   0.00000   0.00004  -2.47436
    D8        1.69337   0.00000   0.00003   0.00001   0.00005   1.69342
    D9       -0.40174  -0.00000   0.00003   0.00000   0.00004  -0.40170
   D10        1.66023  -0.00000   0.00003   0.00000   0.00003   1.66027
   D11       -0.45519   0.00000   0.00004   0.00001   0.00005  -0.45514
   D12       -2.55030  -0.00000   0.00003   0.00000   0.00004  -2.55026
   D13       -0.70286  -0.00000  -0.00001   0.00001  -0.00001  -0.70287
   D14        1.38162   0.00000  -0.00001   0.00001  -0.00000   1.38162
   D15       -2.83862   0.00000  -0.00001   0.00001  -0.00000  -2.83863
   D16        0.41799   0.00000   0.00003  -0.00000   0.00003   0.41802
   D17        2.53393  -0.00000   0.00003  -0.00001   0.00002   2.53395
   D18       -1.65382   0.00000   0.00003  -0.00000   0.00003  -1.65379
   D19       -1.65163  -0.00000   0.00003  -0.00001   0.00002  -1.65161
   D20        0.46431  -0.00000   0.00003  -0.00001   0.00002   0.46432
   D21        2.55975  -0.00000   0.00003  -0.00001   0.00003   2.55977
   D22        2.48259   0.00000   0.00003  -0.00000   0.00003   2.48262
   D23       -1.68465  -0.00000   0.00003  -0.00001   0.00002  -1.68463
   D24        0.41079   0.00000   0.00003  -0.00000   0.00003   0.41082
   D25       -0.00486   0.00000  -0.00004   0.00000  -0.00004  -0.00490
   D26        2.09638   0.00000  -0.00004  -0.00000  -0.00004   2.09634
   D27       -2.07530  -0.00000  -0.00004  -0.00000  -0.00004  -2.07534
   D28       -2.10681   0.00000  -0.00004   0.00000  -0.00004  -2.10685
   D29       -0.00557   0.00000  -0.00004   0.00000  -0.00004  -0.00561
   D30        2.10594  -0.00000  -0.00004  -0.00000  -0.00004   2.10589
   D31        2.06438   0.00000  -0.00004   0.00001  -0.00003   2.06435
   D32       -2.11756   0.00000  -0.00004   0.00001  -0.00004  -2.11760
   D33       -0.00606   0.00000  -0.00005   0.00000  -0.00004  -0.00610
         Item               Value     Threshold  Converged?
 Maximum Force            0.000002     0.000015     YES
 RMS     Force            0.000000     0.000010     YES
 Maximum Displacement     0.000071     0.000060     NO 
 RMS     Displacement     0.000021     0.000040     YES
 Predicted change in Energy=-5.119029D-11
 Lowest energy point so far.  Saving SCF results.
 GradGradGradGradGradGradGradGradGradGradGradGradGradGradGradGradGradGrad

 Leave Link  103 at Mon Aug 25 14:26:16 2025, MaxMem=  4294967296 cpu:               0.1 elap:               0.0
 (Enter /opt/apps/Gaussian/G16C/g16/l202.exe)
                          Input orientation:                          
 ---------------------------------------------------------------------
 Center     Atomic      Atomic             Coordinates (Angstroms)
 Number     Number       Type             X           Y           Z
 ---------------------------------------------------------------------
      1          6           0       -1.750651    0.286324    0.696915
      2          8           0       -0.921501   -0.442730   -0.198487
      3          6           0        0.169784    0.420768   -0.488377
      4          6           0       -0.441040    1.822229   -0.640420
      5          6           0       -1.753695    1.731758    0.175332
      6          1           0       -2.735337   -0.187409    0.702971
      7          1           0       -1.328477    0.237123    1.713371
      8          1           0        0.891244    0.395717    0.343955
      9          1           0        0.661682    0.048394   -1.390247
     10          1           0        0.235072    2.596099   -0.265444
     11          1           0       -0.650571    2.039263   -1.692011
     12          1           0       -1.788566    2.452785    0.997230
     13          1           0       -2.622893    1.909384   -0.464760
 ---------------------------------------------------------------------
                    Distance matrix (angstroms):
                    1          2          3          4          5
     1  C    0.000000
     2  O    1.421533   0.000000
     3  C    2.260766   1.421467   0.000000
     4  C    2.421271   2.357157   1.536333   0.000000
     5  C    1.536664   2.358111   2.420532   1.548128   0.000000
     6  H    1.092733   2.041523   3.198267   3.332738   2.219285
     7  H    1.101742   2.069549   2.669495   2.973287   2.186391
     8  H    2.667613   2.069609   1.101776   2.186073   2.968019
     9  H    3.198782   2.041559   1.092700   2.219173   3.334485
    10  H    3.194416   3.252173   2.187699   1.093896   2.212818
    11  H    3.160687   2.909349   2.177440   1.094006   2.190528
    12  H    2.187505   3.250469   3.189241   2.212538   1.093897
    13  H    2.178215   2.915146   3.164740   2.190647   1.093972
                    6          7          8          9         10
     6  H    0.000000
     7  H    1.783365   0.000000
     8  H    3.690666   2.612970   0.000000
     9  H    3.997111   3.691719   1.783476   0.000000
    10  H    4.184384   3.453282   2.375628   2.817442   0.000000
    11  H    3.878177   3.912019   3.037037   2.403462   1.769046
    12  H    2.820210   2.373541   3.440884   4.181489   2.389559
    13  H    2.402661   3.035824   3.910801   3.886932   2.946060
                   11         12         13
    11  H    0.000000
    12  H    2.949246   0.000000
    13  H    2.326600   1.768841   0.000000
 Symmetry turned off by external request.
 Stoichiometry    C4H8O
 Framework group  C1[X(C4H8O)]
 Deg. of freedom    33
 Full point group                 C1      NOp   1
 Rotational constants (GHZ):           7.1514680           6.9424959           3.9978426
 Leave Link  202 at Mon Aug 25 14:26:16 2025, MaxMem=  4294967296 cpu:               0.0 elap:               0.0
 (Enter /opt/apps/Gaussian/G16C/g16/l301.exe)
 Standard basis: 6-31+G(d) (6D, 7F)
 Ernie: Thresh=  0.10000D-02 Tol=  0.10000D-05 Strict=F.
   111 basis functions,   192 primitive gaussians,   111 cartesian basis functions
    20 alpha electrons       20 beta electrons
       nuclear repulsion energy       190.5795121221 Hartrees.
 IExCor= 4639 DFT=T Ex+Corr=wB97XD ExCW=0 ScaHFX=  1.000000
 ScaDFX=  1.000000  1.000000  1.000000  1.000000 ScalE2=  1.000000  1.000000
 IRadAn=      5 IRanWt=     -1 IRanGd=            0 ICorTp=0 IEmpDi=121
 HFx  wShort=  0.000000 wLong=  0.200000 cFull=  0.222036 cShort=  0.000000 cLong=  0.777964
 DFx  wShort=  0.000000 wLong=  0.200000 cFull=  0.000000 cShort=  0.000000 cLong=  1.000000
 NAtoms=   13 NActive=   13 NUniq=   13 SFac= 1.00D+00 NAtFMM=   60 NAOKFM=F Big=F
 Integral buffers will be    131072 words long.
 Raffenetti 2 integral format.
 Two-electron integral symmetry is turned off.
 R6Disp:  Grimme-D2 Dispersion energy=       -0.0056519262 Hartrees.
 Nuclear repulsion after empirical dispersion term =      190.5738601959 Hartrees.
 ------------------------------------------------------------------------------
 Polarizable Continuum Model (PCM)
 =================================
 Model                : PCM.
 Atomic radii         : SMD-Coulomb.
 Polarization charges : Total charges.
 Charge compensation  : None.
 Solution method      : On-the-fly selection.
 Cavity type          : VdW (van der Waals Surface) (Alpha=1.000).
 Cavity algorithm     : GePol (No added spheres)
                        Default sphere list used, NSphG=   13.
                        Lebedev-Laikov grids with approx.  5.0 points / Ang**2.
                        Smoothing algorithm: York/Karplus (Gamma=1.0000).
                        Polarization charges: spherical gaussians, with
                                              point-specific exponents (IZeta= 3).
                        Self-potential: point-specific (ISelfS= 7).
                        Self-field    : sphere-specific E.n sum rule (ISelfD= 2).
 1st derivatives      : Analytical E(r).r(x)/FMM algorithm (CHGder, D1EAlg=3).
                        Cavity 1st derivative terms included.
 Solvent              : TetraHydroFuran, Eps=   7.425700 Eps(inf)=   1.974025
 ------------------------------------------------------------------------------
 Spheres list:
 ISph  on   Nord     Re0    Alpha      Xe            Ye            Ze
    1   C      1    1.8500  1.000     -1.750651      0.286324      0.696915
    2   O      2    2.2940  1.000     -0.921501     -0.442730     -0.198487
    3   C      3    1.8500  1.000      0.169784      0.420768     -0.488377
    4   C      4    1.8500  1.000     -0.441040      1.822229     -0.640420
    5   C      5    1.8500  1.000     -1.753695      1.731758      0.175332
    6   H      6    1.2000  1.000     -2.735337     -0.187409      0.702971
    7   H      7    1.2000  1.000     -1.328477      0.237123      1.713371
    8   H      8    1.2000  1.000      0.891244      0.395717      0.343955
    9   H      9    1.2000  1.000      0.661682      0.048394     -1.390247
   10   H     10    1.2000  1.000      0.235072      2.596099     -0.265444
   11   H     11    1.2000  1.000     -0.650571      2.039263     -1.692011
   12   H     12    1.2000  1.000     -1.788566      2.452785      0.997230
   13   H     13    1.2000  1.000     -2.622893      1.909384     -0.464760
 ------------------------------------------------------------------------------
 GePol: Number of generator spheres                  =      13
 GePol: Total number of spheres                      =      13
 GePol: Number of exposed spheres                    =      13 (100.00%)
 GePol: Number of points                             =     977
 GePol: Average weight of points                     =       0.12
 GePol: Minimum weight of points                     =   0.42D-08
 GePol: Maximum weight of points                     =    0.17992
 GePol: Number of points with low weight             =      45
 GePol: Fraction of low-weight points (<1% of avg)   =       4.61%
 GePol: Cavity surface area                          =    115.908 Ang**2
 GePol: Cavity volume                                =     98.753 Ang**3
 ------------------------------------------------------------------------------
 Atomic radii for non-electrostatic terms: SMD-CDS.
 ------------------------------------------------------------------------------
 PCM non-electrostatic energy =        -0.0025661306 Hartrees.
 Nuclear repulsion after PCM non-electrostatic terms =      190.5712940653 Hartrees.
 Leave Link  301 at Mon Aug 25 14:26:16 2025, MaxMem=  4294967296 cpu:               0.1 elap:               0.0
 (Enter /opt/apps/Gaussian/G16C/g16/l302.exe)
 NPDir=0 NMtPBC=     1 NCelOv=     1 NCel=       1 NClECP=     1 NCelD=      1
         NCelK=      1 NCelE2=     1 NClLst=     1 CellRange=     0.0.
 One-electron integrals computed using PRISM.
 NBasis=   111 RedAO= T EigKep=  2.63D-05  NBF=   111
 NBsUse=   111 1.00D-06 EigRej= -1.00D+00 NBFU=   111
 Precomputing XC quadrature grid using
 IXCGrd= 4 IRadAn=           5 IRanWt=          -1 IRanGd=           0 AccXCQ= 0.00D+00.
 Generated NRdTot=       0 NPtTot=           0 NUsed=           0 NTot=          32
 NSgBfM=   111   111   111   111   111 MxSgAt=    13 MxSgA2=    13.
 Leave Link  302 at Mon Aug 25 14:26:16 2025, MaxMem=  4294967296 cpu:               0.8 elap:               0.1
 (Enter /opt/apps/Gaussian/G16C/g16/l303.exe)
 DipDrv:  MaxL=1.
 Leave Link  303 at Mon Aug 25 14:26:16 2025, MaxMem=  4294967296 cpu:               0.1 elap:               0.0
 (Enter /opt/apps/Gaussian/G16C/g16/l401.exe)
 Initial guess from the checkpoint file:  "THF-dzpop.chk"
 B after Tr=     0.000005    0.000002    0.000003
         Rot=    1.000000    0.000000    0.000000   -0.000001 Ang=   0.00 deg.
 Guess basis will be translated and rotated to current coordinates.
 JPrj=2 DoOrth=T DoCkMO=T.
 Leave Link  401 at Mon Aug 25 14:26:16 2025, MaxMem=  4294967296 cpu:               0.2 elap:               0.1
 (Enter /opt/apps/Gaussian/G16C/g16/l502.exe)
 Two-electron integral symmetry not used.
 Closed shell SCF:
 Using DIIS extrapolation, IDIIS=  1040.
 NGot=  4294967296 LenX=  4294939455 LenY=  4294926693
 Requested convergence on RMS density matrix=1.00D-08 within 128 cycles.
 Requested convergence on MAX density matrix=1.00D-06.
 Requested convergence on             energy=1.00D-06.
 No special actions if energy rises.
 Fock matrices will be formed incrementally for  20 cycles.

 Cycle   1  Pass 1  IDiag  1:
 FoFJK:  IHMeth= 1 ICntrl=       0 DoSepK=T KAlg= 0 I1Cent=           0 FoldK=F
 IRaf=         1 NMat=       1 IRICut=       1 DoRegI=T DoRafI=F ISym2E= 0 IDoP0=0 IntGTp=1.
 FoFCou: FMM=F IPFlag=           0 FMFlag=      100000 FMFlg1=           0
         NFxFlg=           0 DoJE=T BraDBF=F KetDBF=F FulRan=T
         wScrn=  0.000000 ICntrl=       500 IOpCl=  0 I1Cent=           0 NGrid=           0
         NMat0=    1 NMatS0=      1 NMatT0=    0 NMatD0=    1 NMtDS0=    0 NMtDT0=    0
 Symmetry not used in FoFCou.
 Inv3:  Mode=1 IEnd=     2863587.
 Iteration    1 A*A^-1 deviation from unit magnitude is 3.55D-15 for     90.
 Iteration    1 A*A^-1 deviation from orthogonality  is 1.78D-15 for    676    255.
 Iteration    1 A^-1*A deviation from unit magnitude is 2.89D-15 for    975.
 Iteration    1 A^-1*A deviation from orthogonality  is 1.33D-15 for    977    417.
 E= -232.393145011786    
 DIIS: error= 1.77D-06 at cycle   1 NSaved=   1.
 NSaved= 1 IEnMin= 1 EnMin= -232.393145011786     IErMin= 1 ErrMin= 1.77D-06
 ErrMax= 1.77D-06  0.00D+00 EMaxC= 1.00D-01 BMatC= 3.41D-10 BMatP= 3.41D-10
 IDIUse=1 WtCom= 1.00D+00 WtEn= 0.00D+00
 Coeff-Com:  0.100D+01
 Coeff:      0.100D+01
 Gap=     0.832 Goal=   None    Shift=    0.000
 RMSDP=4.45D-07 MaxDP=6.07D-06              OVMax= 5.73D-06

 Cycle   2  Pass 1  IDiag  1:
 RMSU=  4.44D-07    CP:  1.00D+00
 E= -232.393145012335     Delta-E=       -0.000000000549 Rises=F Damp=F
 DIIS: error= 2.79D-07 at cycle   2 NSaved=   2.
 NSaved= 2 IEnMin= 2 EnMin= -232.393145012335     IErMin= 2 ErrMin= 2.79D-07
 ErrMax= 2.79D-07  0.00D+00 EMaxC= 1.00D-01 BMatC= 1.27D-11 BMatP= 3.41D-10
 IDIUse=1 WtCom= 1.00D+00 WtEn= 0.00D+00
 Coeff-Com: -0.172D+00 0.117D+01
 Coeff:     -0.172D+00 0.117D+01
 Gap=     0.419 Goal=   None    Shift=    0.000
 RMSDP=1.01D-07 MaxDP=1.28D-06 DE=-5.49D-10 OVMax= 2.01D-06

 Cycle   3  Pass 1  IDiag  1:
 RMSU=  6.89D-08    CP:  1.00D+00  1.17D+00
 E= -232.393145012369     Delta-E=       -0.000000000034 Rises=F Damp=F
 DIIS: error= 4.87D-08 at cycle   3 NSaved=   3.
 NSaved= 3 IEnMin= 3 EnMin= -232.393145012369     IErMin= 3 ErrMin= 4.87D-08
 ErrMax= 4.87D-08  0.00D+00 EMaxC= 1.00D-01 BMatC= 5.41D-13 BMatP= 1.27D-11
 IDIUse=1 WtCom= 1.00D+00 WtEn= 0.00D+00
 Coeff-Com: -0.186D-01 0.268D-01 0.992D+00
 Coeff:     -0.186D-01 0.268D-01 0.992D+00
 Gap=     0.419 Goal=   None    Shift=    0.000
 RMSDP=2.03D-08 MaxDP=2.32D-07 DE=-3.38D-11 OVMax= 4.61D-07

 Cycle   4  Pass 1  IDiag  1:
 RMSU=  1.46D-08    CP:  1.00D+00  1.18D+00  1.19D+00
 E= -232.393145012371     Delta-E=       -0.000000000002 Rises=F Damp=F
 DIIS: error= 2.40D-08 at cycle   4 NSaved=   4.
 NSaved= 4 IEnMin= 4 EnMin= -232.393145012371     IErMin= 4 ErrMin= 2.40D-08
 ErrMax= 2.40D-08  0.00D+00 EMaxC= 1.00D-01 BMatC= 1.90D-13 BMatP= 5.41D-13
 IDIUse=1 WtCom= 1.00D+00 WtEn= 0.00D+00
 Coeff-Com:  0.808D-02-0.946D-01 0.387D+00 0.700D+00
 Coeff:      0.808D-02-0.946D-01 0.387D+00 0.700D+00
 Gap=     0.419 Goal=   None    Shift=    0.000
 RMSDP=6.83D-09 MaxDP=7.94D-08 DE=-2.47D-12 OVMax= 1.39D-07

 Error on total polarization charges =  0.02886
 SCF Done:  E(RwB97XD) =  -232.393145012     A.U. after    4 cycles
            NFock=  4  Conv=0.68D-08     -V/T= 2.0094
 KE= 2.302306090547D+02 PE=-9.218037420311D+02 EE= 2.686086938987D+02
 SMD-CDS (non-electrostatic) energy       (kcal/mol) =      -1.61
 (included in total energy above)
 Leave Link  502 at Mon Aug 25 14:26:19 2025, MaxMem=  4294967296 cpu:              36.7 elap:               2.7
 (Enter /opt/apps/Gaussian/G16C/g16/l701.exe)
 ... and contract with generalized density number  0.
 Compute integral first derivatives.
 R6Disp: Adding Grimme-D2 dispersion energy 1st derivatives to the gradient.
 D1PCM: PCM CHGder 1st derivatives, ID1Alg=3 FixD1E=F DoIter=F DoCFld=F I1PDM=0.
 GePol: Maximum number of non-zero 1st derivatives   =     304
 Leave Link  701 at Mon Aug 25 14:26:19 2025, MaxMem=  4294967296 cpu:               4.0 elap:               0.3
 (Enter /opt/apps/Gaussian/G16C/g16/l702.exe)
 L702 exits ... SP integral derivatives will be done elsewhere.
 Leave Link  702 at Mon Aug 25 14:26:19 2025, MaxMem=  4294967296 cpu:               0.0 elap:               0.0
 (Enter /opt/apps/Gaussian/G16C/g16/l703.exe)
 Integral derivatives from FoFJK, PRISM(SPDF).
 Compute integral first derivatives, UseDBF=F ICtDFT=           0.
 Calling FoFJK, ICntrl=      2127 FMM=F ISym2X=0 I1Cent= 0 IOpClX= 0 NMat=1 NMatS=1 NMatT=0.
 FoFJK:  IHMeth= 1 ICntrl=    2127 DoSepK=T KAlg= 0 I1Cent=           0 FoldK=F
 IRaf=         1 NMat=       1 IRICut=       1 DoRegI=T DoRafI=F ISym2E= 0 IDoP0=0 IntGTp=1.
 FoFCou: FMM=F IPFlag=           0 FMFlag=      100000 FMFlg1=         800
         NFxFlg=           0 DoJE=F BraDBF=F KetDBF=F FulRan=T
         wScrn=  0.000000 ICntrl=      2527 IOpCl=  0 I1Cent=           0 NGrid=           0
         NMat0=    1 NMatS0=      1 NMatT0=    0 NMatD0=    1 NMtDS0=    0 NMtDT0=    0
 Symmetry not used in FoFCou.
 Leave Link  703 at Mon Aug 25 14:26:20 2025, MaxMem=  4294967296 cpu:               9.9 elap:               0.7
 (Enter /opt/apps/Gaussian/G16C/g16/l716.exe)
 Dipole        = 7.47397127D-02 8.41596561D-01 2.16419708D-01
 -------------------------------------------------------------------
 Center     Atomic                   Forces (Hartrees/Bohr)
 Number     Number              X              Y              Z
 -------------------------------------------------------------------
      1        6          -0.000001848    0.000001762   -0.000000309
      2        8          -0.000002461    0.000000114    0.000000919
      3        6          -0.000000753   -0.000002652    0.000002144
      4        6           0.000002374   -0.000001031   -0.000000574
      5        6           0.000000112    0.000001462   -0.000001354
      6        1          -0.000002785    0.000003296   -0.000001020
      7        1          -0.000003160    0.000001798    0.000000145
      8        1          -0.000001497   -0.000002518    0.000002095
      9        1          -0.000000041   -0.000003398    0.000002248
     10        1           0.000002910   -0.000002003    0.000000225
     11        1           0.000003503   -0.000001472   -0.000000356
     12        1           0.000001475    0.000002127   -0.000001865
     13        1           0.000002170    0.000002514   -0.000002299
 -------------------------------------------------------------------
 Cartesian Forces:  Max     0.000003503 RMS     0.000001979
 Leave Link  716 at Mon Aug 25 14:26:20 2025, MaxMem=  4294967296 cpu:               0.0 elap:               0.0
 (Enter /opt/apps/Gaussian/G16C/g16/l103.exe)

 GradGradGradGradGradGradGradGradGradGradGradGradGradGradGradGradGradGrad
 Berny optimization.
 Using GEDIIS/GDIIS optimizer.
 FormGI is forming the generalized inverse of G from B-inverse, IUseBI=4.
 Internal  Forces:  Max     0.000000460 RMS     0.000000112
 Search for a local minimum.
 Step number  22 out of a maximum of   81
 All quantities printed in internal units (Hartrees-Bohrs-Radians)
 RMS Force = .11166D-06 SwitMx=.10000D-02 MixMth= 2
 Mixed Optimization -- En-DIIS/RFO-DIIS
 Swapping is turned off.
 Update second derivatives using D2CorX and points   13   14   15   16   17
                                                     18   19   20   22
 DE= -5.74D-11 DEPred=-5.12D-11 R= 1.12D+00
 Trust test= 1.12D+00 RLast= 1.89D-04 DXMaxT set to 1.01D+00
 ITU=  0  0  0  0  0  1  0  1 -1  1  1  1  1  1  1  1  1  1  1  1
 ITU=  1  0
     Eigenvalues ---    0.00003   0.00504   0.02534   0.03480   0.04767
     Eigenvalues ---    0.04889   0.05208   0.05804   0.05895   0.06241
     Eigenvalues ---    0.06786   0.06971   0.07474   0.09472   0.10630
     Eigenvalues ---    0.11013   0.11318   0.12652   0.21076   0.25154
     Eigenvalues ---    0.26087   0.28686   0.31077   0.32002   0.34094
     Eigenvalues ---    0.36755   0.37170   0.37214   0.37233   0.37269
     Eigenvalues ---    0.37299   0.37567   0.39604
 Eigenvalue     1 is   3.10D-05 Eigenvector:
                          D33       D32       D30       D29       D27
   1                    0.23845   0.23143   0.23130   0.22428   0.21570
                          D31       D26       D28       D25       D21
   1                    0.21461   0.20868   0.20745   0.19185  -0.18337
 En-DIIS/RFO-DIIS/Sim-DIIS IScMMF=       -3 using points:    22   21   20   19   18   17   16   15   14   13
 RFO step:  Lambda=-4.15493638D-12.
 NNeg= 0 NGDIIS=10 SimSw=  2.50D-01 Rises=F DC= -5.74D-11 SmlDif=  1.00D-05
 NRisDI= 0 DoIntr=F SqrtH=F CThrHd= 10.0 CDAdj=  3.0
 RMS Error=  0.1078965715D-04 NUsed=10 OKEnD=F EnDIS=F
 InvSVX:  RCond= 2.13D-12 Info=           0 Equed=N FErr=  9.23D-10 BErr=  6.12D-17
 DIIS inversion failure, remove point  10.
 InvSVX:  RCond= 2.41D-12 Info=           0 Equed=N FErr=  1.74D-09 BErr=  1.02D-16
 DIIS inversion failure, remove point   9.
 InvSVX:  RCond= 1.64D-11 Info=           0 Equed=N FErr=  9.42D-11 BErr=  5.83D-17
 DIIS inversion failure, remove point   8.
 InvSVX:  RCond= 2.05D-11 Info=           0 Equed=N FErr=  4.28D-11 BErr=  5.29D-17
 DIIS inversion failure, remove point   7.
 InvSVX:  RCond= 2.71D-11 Info=           0 Equed=N FErr=  2.39D-12 BErr=  4.92D-17
 DIIS inversion failure, remove point   6.
 InvSVX:  RCond= 1.04D-10 Info=           0 Equed=N FErr=  5.24D-13 BErr=  4.91D-17
 DIIS inversion failure, remove point   5.
 InvSVX:  RCond= 1.33D-10 Info=           0 Equed=N FErr=  3.74D-13 BErr=  1.01D-16
 DIIS inversion failure, remove point   4.
 InvSVX:  RCond= 2.62D-10 Info=           0 Equed=N FErr=  1.50D-14 BErr=  9.22D-17
 DIIS inversion failure, remove point   3.
 InvSVX:  RCond= 1.49D-08 Info=           0 Equed=N FErr=  1.31D-15 BErr=  5.74D-17
 DIIS inversion failure, remove point   2.
 Use linear search instead of GDIIS.
 RFO step:  Lambda= 0.00000000D+00 EMin= 1.00000000D-04
 Skip linear search -- no minimum in search direction.
 Iteration  1 RMS(Cart)=  0.00001029 RMS(Int)=  0.00000000
 Iteration  2 RMS(Cart)=  0.00000000 RMS(Int)=  0.00000000
 ITry= 1 IFail=0 DXMaxC= 3.35D-05 DCOld= 1.00D+10 DXMaxT= 1.01D+00 DXLimC= 3.00D+00 Rises=F
 Variable       Old X    -DE/DX   Delta X   Delta X   Delta X     New X
                                 (Linear)    (Quad)   (Total)
    R1        2.68631  -0.00000   0.00000  -0.00000  -0.00000   2.68631
    R2        2.90387   0.00000   0.00000  -0.00000  -0.00000   2.90387
    R3        2.06497   0.00000   0.00000   0.00000   0.00000   2.06497
    R4        2.08199   0.00000   0.00000   0.00000   0.00000   2.08199
    R5        2.68618   0.00000   0.00000  -0.00000  -0.00000   2.68618
    R6        2.90325   0.00000   0.00000   0.00000   0.00000   2.90325
    R7        2.08205  -0.00000   0.00000  -0.00000  -0.00000   2.08205
    R8        2.06490   0.00000   0.00000   0.00000   0.00000   2.06490
    R9        2.92554   0.00000   0.00000   0.00000   0.00000   2.92554
   R10        2.06716   0.00000   0.00000   0.00000   0.00000   2.06716
   R11        2.06737  -0.00000   0.00000  -0.00000  -0.00000   2.06737
   R12        2.06717  -0.00000   0.00000  -0.00000  -0.00000   2.06717
   R13        2.06731  -0.00000   0.00000  -0.00000  -0.00000   2.06731
    A1        1.84395  -0.00000   0.00000  -0.00000  -0.00000   1.84395
    A2        1.88258  -0.00000   0.00000  -0.00000  -0.00000   1.88258
    A3        1.91210  -0.00000   0.00000   0.00000   0.00000   1.91210
    A4        1.99094   0.00000   0.00000   0.00000   0.00000   1.99094
    A5        1.93469   0.00000   0.00000   0.00000   0.00000   1.93469
    A6        1.89740  -0.00000   0.00000  -0.00000  -0.00000   1.89740
    A7        1.83869   0.00000   0.00000  -0.00000  -0.00000   1.83869
    A8        1.84324   0.00000   0.00000   0.00000   0.00000   1.84325
    A9        1.91223   0.00000   0.00000   0.00000   0.00000   1.91223
   A10        1.88274   0.00000   0.00000   0.00000   0.00000   1.88274
   A11        1.93462  -0.00000   0.00000  -0.00000  -0.00000   1.93462
   A12        1.99124  -0.00000   0.00000  -0.00000  -0.00000   1.99124
   A13        1.89757   0.00000   0.00000  -0.00000  -0.00000   1.89757
   A14        1.80458  -0.00000   0.00000  -0.00000  -0.00000   1.80457
   A15        1.94515   0.00000   0.00000  -0.00000  -0.00000   1.94515
   A16        1.93076   0.00000   0.00000   0.00000   0.00000   1.93077
   A17        1.96577   0.00000   0.00000  -0.00000  -0.00000   1.96577
   A18        1.93446   0.00000   0.00000   0.00000   0.00000   1.93446
   A19        1.88339  -0.00000   0.00000  -0.00000  -0.00000   1.88339
   A20        1.80508   0.00000   0.00000  -0.00000  -0.00000   1.80508
   A21        1.94447  -0.00000   0.00000   0.00000   0.00000   1.94447
   A22        1.93147   0.00000   0.00000  -0.00000  -0.00000   1.93147
   A23        1.96537  -0.00000   0.00000  -0.00000  -0.00000   1.96537
   A24        1.93466  -0.00000   0.00000  -0.00000  -0.00000   1.93466
   A25        1.88312   0.00000   0.00000   0.00000   0.00000   1.88312
    D1        0.69950   0.00000   0.00000   0.00001   0.00001   0.69951
    D2        2.83521   0.00000   0.00000   0.00001   0.00001   2.83522
    D3       -1.38541   0.00000   0.00000   0.00001   0.00001  -1.38540
    D4       -0.40966  -0.00000   0.00000  -0.00002  -0.00002  -0.40967
    D5       -2.52507   0.00000   0.00000  -0.00002  -0.00002  -2.52508
    D6        1.66300  -0.00000   0.00000  -0.00002  -0.00002   1.66298
    D7       -2.47436  -0.00000   0.00000  -0.00002  -0.00002  -2.47438
    D8        1.69342   0.00000   0.00000  -0.00002  -0.00002   1.69340
    D9       -0.40170  -0.00000   0.00000  -0.00002  -0.00002  -0.40172
   D10        1.66027  -0.00000   0.00000  -0.00002  -0.00002   1.66025
   D11       -0.45514   0.00000   0.00000  -0.00002  -0.00002  -0.45516
   D12       -2.55026  -0.00000   0.00000  -0.00002  -0.00002  -2.55028
   D13       -0.70287  -0.00000   0.00000   0.00000   0.00000  -0.70287
   D14        1.38162  -0.00000   0.00000   0.00000   0.00000   1.38162
   D15       -2.83863  -0.00000   0.00000   0.00000   0.00000  -2.83862
   D16        0.41802   0.00000   0.00000  -0.00001  -0.00001   0.41801
   D17        2.53395  -0.00000   0.00000  -0.00001  -0.00001   2.53394
   D18       -1.65379  -0.00000   0.00000  -0.00001  -0.00001  -1.65380
   D19       -1.65161  -0.00000   0.00000  -0.00001  -0.00001  -1.65162
   D20        0.46432  -0.00000   0.00000  -0.00002  -0.00002   0.46431
   D21        2.55977  -0.00000   0.00000  -0.00002  -0.00002   2.55976
   D22        2.48262   0.00000   0.00000  -0.00001  -0.00001   2.48261
   D23       -1.68463   0.00000   0.00000  -0.00001  -0.00001  -1.68464
   D24        0.41082   0.00000   0.00000  -0.00001  -0.00001   0.41080
   D25       -0.00490   0.00000   0.00000   0.00002   0.00002  -0.00488
   D26        2.09634  -0.00000   0.00000   0.00002   0.00002   2.09636
   D27       -2.07534  -0.00000   0.00000   0.00002   0.00002  -2.07532
   D28       -2.10685   0.00000   0.00000   0.00002   0.00002  -2.10683
   D29       -0.00561   0.00000   0.00000   0.00002   0.00002  -0.00559
   D30        2.10589  -0.00000   0.00000   0.00002   0.00002   2.10591
   D31        2.06435   0.00000   0.00000   0.00002   0.00002   2.06437
   D32       -2.11760   0.00000   0.00000   0.00002   0.00002  -2.11758
   D33       -0.00610  -0.00000   0.00000   0.00002   0.00002  -0.00608
         Item               Value     Threshold  Converged?
 Maximum Force            0.000000     0.000015     YES
 RMS     Force            0.000000     0.000010     YES
 Maximum Displacement     0.000033     0.000060     YES
 RMS     Displacement     0.000010     0.000040     YES
 Predicted change in Energy=-4.313718D-12
 Optimization completed.
    -- Stationary point found.
                           ----------------------------
                           !   Optimized Parameters   !
                           ! (Angstroms and Degrees)  !
 --------------------------                            --------------------------
 ! Name  Definition              Value          Derivative Info.                !
 --------------------------------------------------------------------------------
 ! R1    R(1,2)                  1.4215         -DE/DX =    0.0                 !
 ! R2    R(1,5)                  1.5367         -DE/DX =    0.0                 !
 ! R3    R(1,6)                  1.0927         -DE/DX =    0.0                 !
 ! R4    R(1,7)                  1.1017         -DE/DX =    0.0                 !
 ! R5    R(2,3)                  1.4215         -DE/DX =    0.0                 !
 ! R6    R(3,4)                  1.5363         -DE/DX =    0.0                 !
 ! R7    R(3,8)                  1.1018         -DE/DX =    0.0                 !
 ! R8    R(3,9)                  1.0927         -DE/DX =    0.0                 !
 ! R9    R(4,5)                  1.5481         -DE/DX =    0.0                 !
 ! R10   R(4,10)                 1.0939         -DE/DX =    0.0                 !
 ! R11   R(4,11)                 1.094          -DE/DX =    0.0                 !
 ! R12   R(5,12)                 1.0939         -DE/DX =    0.0                 !
 ! R13   R(5,13)                 1.094          -DE/DX =    0.0                 !
 ! A1    A(2,1,5)              105.6508         -DE/DX =    0.0                 !
 ! A2    A(2,1,6)              107.8637         -DE/DX =    0.0                 !
 ! A3    A(2,1,7)              109.5553         -DE/DX =    0.0                 !
 ! A4    A(5,1,6)              114.0722         -DE/DX =    0.0                 !
 ! A5    A(5,1,7)              110.8495         -DE/DX =    0.0                 !
 ! A6    A(6,1,7)              108.7129         -DE/DX =    0.0                 !
 ! A7    A(1,2,3)              105.3492         -DE/DX =    0.0                 !
 ! A8    A(2,3,4)              105.6102         -DE/DX =    0.0                 !
 ! A9    A(2,3,8)              109.5627         -DE/DX =    0.0                 !
 ! A10   A(2,3,9)              107.8729         -DE/DX =    0.0                 !
 ! A11   A(4,3,8)              110.8455         -DE/DX =    0.0                 !
 ! A12   A(4,3,9)              114.0896         -DE/DX =    0.0                 !
 ! A13   A(8,3,9)              108.7227         -DE/DX =    0.0                 !
 ! A14   A(3,4,5)              103.3946         -DE/DX =    0.0                 !
 ! A15   A(3,4,10)             111.4492         -DE/DX =    0.0                 !
 ! A16   A(3,4,11)             110.6247         -DE/DX =    0.0                 !
 ! A17   A(5,4,10)             112.6303         -DE/DX =    0.0                 !
 ! A18   A(5,4,11)             110.8362         -DE/DX =    0.0                 !
 ! A19   A(10,4,11)            107.9106         -DE/DX =    0.0                 !
 ! A20   A(1,5,4)              103.4233         -DE/DX =    0.0                 !
 ! A21   A(1,5,12)             111.4101         -DE/DX =    0.0                 !
 ! A22   A(1,5,13)             110.665          -DE/DX =    0.0                 !
 ! A23   A(4,5,12)             112.6075         -DE/DX =    0.0                 !
 ! A24   A(4,5,13)             110.8477         -DE/DX =    0.0                 !
 ! A25   A(12,5,13)            107.8947         -DE/DX =    0.0                 !
 ! D1    D(5,1,2,3)             40.0783         -DE/DX =    0.0                 !
 ! D2    D(6,1,2,3)            162.4455         -DE/DX =    0.0                 !
 ! D3    D(7,1,2,3)            -79.3779         -DE/DX =    0.0                 !
 ! D4    D(2,1,5,4)            -23.4716         -DE/DX =    0.0                 !
 ! D5    D(2,1,5,12)          -144.6757         -DE/DX =    0.0                 !
 ! D6    D(2,1,5,13)            95.2828         -DE/DX =    0.0                 !
 ! D7    D(6,1,5,4)           -141.7703         -DE/DX =    0.0                 !
 ! D8    D(6,1,5,12)            97.0256         -DE/DX =    0.0                 !
 ! D9    D(6,1,5,13)           -23.0159         -DE/DX =    0.0                 !
 ! D10   D(7,1,5,4)             95.1264         -DE/DX =    0.0                 !
 ! D11   D(7,1,5,12)           -26.0777         -DE/DX =    0.0                 !
 ! D12   D(7,1,5,13)          -146.1192         -DE/DX =    0.0                 !
 ! D13   D(1,2,3,4)            -40.2713         -DE/DX =    0.0                 !
 ! D14   D(1,2,3,8)             79.161          -DE/DX =    0.0                 !
 ! D15   D(1,2,3,9)           -162.6413         -DE/DX =    0.0                 !
 ! D16   D(2,3,4,5)             23.9507         -DE/DX =    0.0                 !
 ! D17   D(2,3,4,10)           145.1847         -DE/DX =    0.0                 !
 ! D18   D(2,3,4,11)           -94.7549         -DE/DX =    0.0                 !
 ! D19   D(8,3,4,5)            -94.6302         -DE/DX =    0.0                 !
 ! D20   D(8,3,4,10)            26.6038         -DE/DX =    0.0                 !
 ! D21   D(8,3,4,11)           146.6642         -DE/DX =    0.0                 !
 ! D22   D(9,3,4,5)            142.2437         -DE/DX =    0.0                 !
 ! D23   D(9,3,4,10)           -96.5223         -DE/DX =    0.0                 !
 ! D24   D(9,3,4,11)            23.5381         -DE/DX =    0.0                 !
 ! D25   D(3,4,5,1)             -0.2805         -DE/DX =    0.0                 !
 ! D26   D(3,4,5,12)           120.1115         -DE/DX =    0.0                 !
 ! D27   D(3,4,5,13)          -118.9084         -DE/DX =    0.0                 !
 ! D28   D(10,4,5,1)          -120.7134         -DE/DX =    0.0                 !
 ! D29   D(10,4,5,12)           -0.3214         -DE/DX =    0.0                 !
 ! D30   D(10,4,5,13)          120.6587         -DE/DX =    0.0                 !
 ! D31   D(11,4,5,1)           118.2785         -DE/DX =    0.0                 !
 ! D32   D(11,4,5,12)         -121.3295         -DE/DX =    0.0                 !
 ! D33   D(11,4,5,13)           -0.3494         -DE/DX =    0.0                 !
 --------------------------------------------------------------------------------
 Lowest energy point so far.  Saving SCF results.
 Largest change from initial coordinates is atom    6       0.408 Angstoms.
 GradGradGradGradGradGradGradGradGradGradGradGradGradGradGradGradGradGrad

 Leave Link  103 at Mon Aug 25 14:26:20 2025, MaxMem=  4294967296 cpu:               0.1 elap:               0.0
 (Enter /opt/apps/Gaussian/G16C/g16/l202.exe)
                          Input orientation:                          
 ---------------------------------------------------------------------
 Center     Atomic      Atomic             Coordinates (Angstroms)
 Number     Number       Type             X           Y           Z
 ---------------------------------------------------------------------
      1          6           0       -1.750651    0.286324    0.696915
      2          8           0       -0.921501   -0.442730   -0.198487
      3          6           0        0.169784    0.420768   -0.488377
      4          6           0       -0.441040    1.822229   -0.640420
      5          6           0       -1.753695    1.731758    0.175332
      6          1           0       -2.735337   -0.187409    0.702971
      7          1           0       -1.328477    0.237123    1.713371
      8          1           0        0.891244    0.395717    0.343955
      9          1           0        0.661682    0.048394   -1.390247
     10          1           0        0.235072    2.596099   -0.265444
     11          1           0       -0.650571    2.039263   -1.692011
     12          1           0       -1.788566    2.452785    0.997230
     13          1           0       -2.622893    1.909384   -0.464760
 ---------------------------------------------------------------------
                    Distance matrix (angstroms):
                    1          2          3          4          5
     1  C    0.000000
     2  O    1.421533   0.000000
     3  C    2.260766   1.421467   0.000000
     4  C    2.421271   2.357157   1.536333   0.000000
     5  C    1.536664   2.358111   2.420532   1.548128   0.000000
     6  H    1.092733   2.041523   3.198267   3.332738   2.219285
     7  H    1.101742   2.069549   2.669495   2.973287   2.186391
     8  H    2.667613   2.069609   1.101776   2.186073   2.968019
     9  H    3.198782   2.041559   1.092700   2.219173   3.334485
    10  H    3.194416   3.252173   2.187699   1.093896   2.212818
    11  H    3.160687   2.909349   2.177440   1.094006   2.190528
    12  H    2.187505   3.250469   3.189241   2.212538   1.093897
    13  H    2.178215   2.915146   3.164740   2.190647   1.093972
                    6          7          8          9         10
     6  H    0.000000
     7  H    1.783365   0.000000
     8  H    3.690666   2.612970   0.000000
     9  H    3.997111   3.691719   1.783476   0.000000
    10  H    4.184384   3.453282   2.375628   2.817442   0.000000
    11  H    3.878177   3.912019   3.037037   2.403462   1.769046
    12  H    2.820210   2.373541   3.440884   4.181489   2.389559
    13  H    2.402661   3.035824   3.910801   3.886932   2.946060
                   11         12         13
    11  H    0.000000
    12  H    2.949246   0.000000
    13  H    2.326600   1.768841   0.000000
 Symmetry turned off by external request.
 Stoichiometry    C4H8O
 Framework group  C1[X(C4H8O)]
 Deg. of freedom    33
 Full point group                 C1      NOp   1
 Rotational constants (GHZ):           7.1514680           6.9424959           3.9978426
 Leave Link  202 at Mon Aug 25 14:26:20 2025, MaxMem=  4294967296 cpu:               0.0 elap:               0.0
 (Enter /opt/apps/Gaussian/G16C/g16/l601.exe)
 Copying SCF densities to generalized density rwf, IOpCl= 0 IROHF=0.

 **********************************************************************

            Population analysis using the SCF Density.

 **********************************************************************

 Alpha  occ. eigenvalues --  -19.27146 -10.33119 -10.33117 -10.28818 -10.28800
 Alpha  occ. eigenvalues --   -1.13700  -0.86922  -0.82635  -0.68438  -0.67625
 Alpha  occ. eigenvalues --   -0.58326  -0.56860  -0.53048  -0.49351  -0.47356
 Alpha  occ. eigenvalues --   -0.42838  -0.42216  -0.39835  -0.39787  -0.33427
 Alpha virt. eigenvalues --    0.08474   0.09506   0.09657   0.10601   0.10981
 Alpha virt. eigenvalues --    0.12328   0.13920   0.14295   0.14397   0.17054
 Alpha virt. eigenvalues --    0.17900   0.18222   0.20049   0.20647   0.21924
 Alpha virt. eigenvalues --    0.24116   0.24358   0.25306   0.27889   0.30316
 Alpha virt. eigenvalues --    0.32660   0.32982   0.35133   0.35609   0.38530
 Alpha virt. eigenvalues --    0.39572   0.39937   0.40438   0.43355   0.43774
 Alpha virt. eigenvalues --    0.43798   0.45889   0.47766   0.72676   0.73245
 Alpha virt. eigenvalues --    0.73915   0.74786   0.77053   0.80008   0.80985
 Alpha virt. eigenvalues --    0.82719   0.85799   0.86085   0.91315   1.03020
 Alpha virt. eigenvalues --    1.04459   1.06559   1.06948   1.11553   1.18111
 Alpha virt. eigenvalues --    1.18876   1.21678   1.26057   1.31017   1.31837
 Alpha virt. eigenvalues --    1.32901   1.45874   1.46620   1.51812   1.53409
 Alpha virt. eigenvalues --    1.55835   1.74436   1.76134   1.89424   1.91773
 Alpha virt. eigenvalues --    1.95424   1.96805   2.04272   2.08709   2.10457
 Alpha virt. eigenvalues --    2.18558   2.19054   2.23778   2.25186   2.30698
 Alpha virt. eigenvalues --    2.36850   2.41736   2.54362   2.55034   2.61012
 Alpha virt. eigenvalues --    2.66922   2.76700   2.77549   2.84911   2.87305
 Alpha virt. eigenvalues --    3.09429   4.31849   4.32347   4.41740   4.58444
 Alpha virt. eigenvalues --    4.80629
          Condensed to atoms (all electrons):
               1          2          3          4          5          6
     1  C    5.575630   0.122587  -0.266504   0.122735  -0.072617   0.423157
     2  O    0.122587   8.447731   0.122853  -0.069336  -0.069100  -0.051725
     3  C   -0.266504   0.122853   5.575213  -0.072683   0.122052   0.005989
     4  C    0.122735  -0.069336  -0.072683   6.055874  -0.201728   0.016843
     5  C   -0.072617  -0.069100   0.122052  -0.201728   6.054626  -0.060457
     6  H    0.423157  -0.051725   0.005989   0.016843  -0.060457   0.488634
     7  H    0.442478  -0.056051  -0.013534   0.013224  -0.091296  -0.035820
     8  H   -0.013870  -0.055955   0.442992  -0.091872   0.013430  -0.000363
     9  H    0.006005  -0.051738   0.422803  -0.060327   0.017033  -0.000075
    10  H    0.007734   0.007420  -0.048472   0.408305  -0.047025  -0.000071
    11  H    0.007966   0.004151  -0.046120   0.418540  -0.056920  -0.000096
    12  H   -0.048885   0.007391   0.007592  -0.047196   0.409111   0.001886
    13  H   -0.046487   0.004188   0.008546  -0.057324   0.418865  -0.005124
               7          8          9         10         11         12
     1  C    0.442478  -0.013870   0.006005   0.007734   0.007966  -0.048885
     2  O   -0.056051  -0.055955  -0.051738   0.007420   0.004151   0.007391
     3  C   -0.013534   0.442992   0.422803  -0.048472  -0.046120   0.007592
     4  C    0.013224  -0.091872  -0.060327   0.408305   0.418540  -0.047196
     5  C   -0.091296   0.013430   0.017033  -0.047025  -0.056920   0.409111
     6  H   -0.035820  -0.000363  -0.000075  -0.000071  -0.000096   0.001886
     7  H    0.534285   0.005430  -0.000362   0.000304  -0.000089  -0.003690
     8  H    0.005430   0.534244  -0.035761  -0.003614   0.003317   0.000314
     9  H   -0.000362  -0.035761   0.488557   0.001860  -0.005113  -0.000071
    10  H    0.000304  -0.003614   0.001860   0.474778  -0.026848  -0.004935
    11  H   -0.000089   0.003317  -0.005113  -0.026848   0.476132   0.002380
    12  H   -0.003690   0.000314  -0.000071  -0.004935   0.002380   0.474736
    13  H    0.003313  -0.000088  -0.000098   0.002358  -0.007076  -0.026876
              13
     1  C   -0.046487
     2  O    0.004188
     3  C    0.008546
     4  C   -0.057324
     5  C    0.418865
     6  H   -0.005124
     7  H    0.003313
     8  H   -0.000088
     9  H   -0.000098
    10  H    0.002358
    11  H   -0.007076
    12  H   -0.026876
    13  H    0.476038
 Mulliken charges:
               1
     1  C   -0.259929
     2  O   -0.362417
     3  C   -0.260728
     4  C   -0.435056
     5  C   -0.435974
     6  H    0.217221
     7  H    0.201807
     8  H    0.201796
     9  H    0.217286
    10  H    0.228207
    11  H    0.229776
    12  H    0.228245
    13  H    0.229765
 Sum of Mulliken charges =  -0.00000
 Mulliken charges with hydrogens summed into heavy atoms:
               1
     1  C    0.159099
     2  O   -0.362417
     3  C    0.158355
     4  C    0.022928
     5  C    0.022036
 Electronic spatial extent (au):  <R**2>=            585.4671
 Charge=             -0.0000 electrons
 Dipole moment (field-independent basis, Debye):
    X=              0.1900    Y=              2.1391    Z=              0.5501  Tot=              2.2169
 Quadrupole moment (field-independent basis, Debye-Ang):
   XX=            -29.5517   YY=            -32.0393   ZZ=            -30.4215
   XY=             -1.6782   XZ=             -1.6137   YZ=             -0.2419
 Traceless Quadrupole moment (field-independent basis, Debye-Ang):
   XX=              1.1191   YY=             -1.3685   ZZ=              0.2493
   XY=             -1.6782   XZ=             -1.6137   YZ=             -0.2419
 Octapole moment (field-independent basis, Debye-Ang**2):
  XXX=             81.4829  YYY=            -76.2709  ZZZ=              6.3249  XYY=             30.3492
  XXY=            -24.6023  XXZ=              4.3976  XZZ=             29.3661  YZZ=            -24.7783
  YYZ=              3.4029  XYZ=              1.0246
 Hexadecapole moment (field-independent basis, Debye-Ang**3):
 XXXX=           -326.6626 YYYY=           -336.0974 ZZZZ=           -108.0863 XXXY=             79.0600
 XXXZ=             24.8594 YYYX=             80.5368 YYYZ=             21.0524 ZZZX=             25.9763
 ZZZY=             16.0190 XXYY=           -113.6271 XXZZ=            -75.9127 YYZZ=            -72.5562
 XXYZ=              3.5258 YYXZ=              8.7280 ZZXY=             23.4785
 N-N= 1.905712940653D+02 E-N=-9.218037454606D+02  KE= 2.302306090547D+02
 No NMR shielding tensors so no spin-rotation constants.
 Leave Link  601 at Mon Aug 25 14:26:20 2025, MaxMem=  4294967296 cpu:               0.7 elap:               0.1
 (Enter /opt/apps/Gaussian/G16C/g16/l9999.exe)
 Unable to Open any file for archive entry.
 1\1\GINC-NODE04\FOpt\RwB97XD\6-31+G(d)\C4H8O1\WHUGHES2\25-Aug-2025\0\\
 #p wb97xd/6-31+g* nosymm int=ultrafine opt=(tight) freq scrf=(solvent=
 tetrahydrofuran,smd)\\THF\\0,1\C,-1.7506512211,0.2863236825,0.69691501
 16\O,-0.9215009865,-0.4427304203,-0.1984870648\C,0.1697837974,0.420767
 8478,-0.488377364\C,-0.4410403343,1.8222294011,-0.6404204039\C,-1.7536
 9472,1.7317576431,0.175332306\H,-2.7353366424,-0.1874089352,0.70297089
 11\H,-1.3284767397,0.2371233421,1.71337097\H,0.8912441628,0.3957171023
 ,0.3439547808\H,0.6616816449,0.0483940961,-1.3902465352\H,0.235071837,
 2.5960987654,-0.2654436198\H,-0.6505712137,2.0392631216,-1.6920111864\
 H,-1.7885663591,2.4527846912,0.9972296858\H,-2.6228931152,1.9093839523
 ,-0.4647603012\\Version=AS64L-G16RevC.01\HF=-232.393145\RMSD=6.826e-09
 \RMSF=1.979e-06\Dipole=0.0747397,0.8415966,0.2164197\Quadrupole=0.8320
 583,-1.0174277,0.1853694,-1.2477343,-1.1997642,-0.1798491\PG=C01 [X(C4
 H8O1)]\\@
 The archive entry for this job was punched.


 NOBODY LOSES ALL THE TIME
 I HAD AN UNCLE NAMED
 SOL WHO WAS A BORN FAILURE AND
 NEARLY EVERYBODY SAID HE SHOULD HAVE GONE
 INTO VAUDEVILLE PERHAPS BECAUSE MY UNCLE SOL COULD
 SING MCCANN HE WAS A DIVER ON XMAS EVE LIKE HELL ITSELF WHICH
 MAY OR MAY NOT ACCOUNT FOR THE FACT THAT MY UNCLE
 SOL INDULGED IN THAT POSSIBLY MOST INEXCUSABLE
 OF ALL TO USE A HIGHFALOOTIN PHRASE
 LUXURIES THAT IS OR TO
 WIT FARMING AND BE
 IT NEEDLESSLY
 ADDED
 MY UNCLE SOL'S FARM     
 FAILED BECAUSE THE CHICKENS
 ATE THE VEGETABLES SO
 MY UNCLE SOL HAD A
 CHICKEN FARM TILL THE
 SKUNKS ATE THE CHICKENS WHEN 
 MY UNCLE SOL
 HAD A SKUNK FARM BUT
 THE SKUNKS CAUGHT COLD AND
 DIED AND SO
 MY UNCLE SOL IMITATED THE
 SKUNKS IN A SUBTLE MANNER
 OR BY DROWNING HIMSELF IN THE WATERTANK
 BUT SOMEBODY WHO'D GIVEN MY UNCLE SOL A VICTOR     
 VICTROLA AND RECORDS WHILE HE LIVED PRESENTED TO
 HIM UPON THE AUSPICIOUS OCCASION OF HIS DECEASE A
 SCRUMPTIOUS NOT TO MENTION SPLENDIFEROUS FUNERAL WITH
 TALL BOYS IN BLACK GLOVES AND FLOWERS AND EVERYTHING AND
 I REMEMBER WE ALL CRIED LIKE THE MISSOURI
 WHEN MY UNCLE SOL'S COFFIN LURCHED BECAUSE     
 SOMEBODY PRESSED A BUTTON
 (AND DOWN WENT
 MY UNCLE
 SOL
 AND STARTED A WORM FARM)
           E. E. CUMMINGS
 Leave Link 9999 at Mon Aug 25 14:26:20 2025, MaxMem=  4294967296 cpu:               0.0 elap:               0.0
 Job cpu time:       0 days  0 hours 32 minutes 22.0 seconds.
 Elapsed time:       0 days  0 hours  2 minutes 22.6 seconds.
 File lengths (MBytes):  RWF=     46 Int=      0 D2E=      0 Chk=      5 Scr=      1
 Normal termination of Gaussian 16 at Mon Aug 25 14:26:20 2025.
 (Enter /opt/apps/Gaussian/G16C/g16/l1.exe)
 Link1:  Proceeding to internal job step number  2.
 ----------------------------------------------------------------------
 #P Geom=AllCheck Guess=TCheck SCRF=Check GenChk RwB97XD/6-31+G(d) Freq
 ----------------------------------------------------------------------
 1/7=10,10=4,29=7,30=1,38=1,40=1/1,3;
 2/12=2,15=1,40=1/2;
 3/5=1,6=6,7=11,11=2,14=-4,25=1,30=1,70=2,71=2,74=-58,75=-5,116=1,140=1/1,2,3;
 4/5=101/1;
 5/5=2,38=6,98=1/2;
 8/6=4,10=90,11=11/1;
 11/6=1,8=1,9=11,15=111,16=1,31=1/1,2,10;
 10/6=1,31=1/2;
 6/7=2,8=2,9=2,10=2,28=1/1;
 7/8=1,10=1,25=1,30=1/1,2,3,16;
 1/7=10,10=4,30=1/3;
 99//99;
 Leave Link    1 at Mon Aug 25 14:26:20 2025, MaxMem=  4294967296 cpu:               0.0 elap:               0.0
 (Enter /opt/apps/Gaussian/G16C/g16/l101.exe)
 Structure from the checkpoint file:  "THF-dzpop.chk"
 ---
 THF
 ---
 Charge =  0 Multiplicity = 1
 Redundant internal coordinates found in file.  (old form).
 C,0,-1.7506512211,0.2863236825,0.6969150116
 O,0,-0.9215009865,-0.4427304203,-0.1984870648
 C,0,0.1697837974,0.4207678478,-0.488377364
 C,0,-0.4410403343,1.8222294011,-0.6404204039
 C,0,-1.75369472,1.7317576431,0.175332306
 H,0,-2.7353366424,-0.1874089352,0.7029708911
 H,0,-1.3284767397,0.2371233421,1.71337097
 H,0,0.8912441628,0.3957171023,0.3439547808
 H,0,0.6616816449,0.0483940961,-1.3902465352
 H,0,0.235071837,2.5960987654,-0.2654436198
 H,0,-0.6505712137,2.0392631216,-1.6920111864
 H,0,-1.7885663591,2.4527846912,0.9972296858
 H,0,-2.6228931152,1.9093839523,-0.4647603012
 Recover connectivity data from disk.
 ITRead=  0  0  0  0  0  0  0  0  0  0  0  0  0
 MicOpt= -1 -1 -1 -1 -1 -1 -1 -1 -1 -1 -1 -1 -1
 NAtoms=     13 NQM=       13 NQMF=       0 NMMI=      0 NMMIF=      0
                NMic=       0 NMicF=      0.
                    Isotopes and Nuclear Properties:
 (Nuclear quadrupole moments (NQMom) in fm**2, nuclear magnetic moments (NMagM)
  in nuclear magnetons)

  Atom         1           2           3           4           5           6           7           8           9          10
 IAtWgt=          12          16          12          12          12           1           1           1           1           1
 AtmWgt=  12.0000000  15.9949146  12.0000000  12.0000000  12.0000000   1.0078250   1.0078250   1.0078250   1.0078250   1.0078250
 NucSpn=           0           0           0           0           0           1           1           1           1           1
 AtZEff=   3.6000000   5.6000000   3.6000000   3.6000000   3.6000000   1.0000000   1.0000000   1.0000000   1.0000000   1.0000000
 NQMom=    0.0000000   0.0000000   0.0000000   0.0000000   0.0000000   0.0000000   0.0000000   0.0000000   0.0000000   0.0000000
 NMagM=    0.0000000   0.0000000   0.0000000   0.0000000   0.0000000   2.7928460   2.7928460   2.7928460   2.7928460   2.7928460
 AtZNuc=   6.0000000   8.0000000   6.0000000   6.0000000   6.0000000   1.0000000   1.0000000   1.0000000   1.0000000   1.0000000

  Atom        11          12          13
 IAtWgt=           1           1           1
 AtmWgt=   1.0078250   1.0078250   1.0078250
 NucSpn=           1           1           1
 AtZEff=   1.0000000   1.0000000   1.0000000
 NQMom=    0.0000000   0.0000000   0.0000000
 NMagM=    2.7928460   2.7928460   2.7928460
 AtZNuc=   1.0000000   1.0000000   1.0000000
 Leave Link  101 at Mon Aug 25 14:26:20 2025, MaxMem=  4294967296 cpu:               0.2 elap:               0.2
 (Enter /opt/apps/Gaussian/G16C/g16/l103.exe)

 GradGradGradGradGradGradGradGradGradGradGradGradGradGradGradGradGradGrad
 Berny optimization.
 Initialization pass.
                           ----------------------------
                           !    Initial Parameters    !
                           ! (Angstroms and Degrees)  !
 --------------------------                            --------------------------
 ! Name  Definition              Value          Derivative Info.                !
 --------------------------------------------------------------------------------
 ! R1    R(1,2)                  1.4215         calculate D2E/DX2 analytically  !
 ! R2    R(1,5)                  1.5367         calculate D2E/DX2 analytically  !
 ! R3    R(1,6)                  1.0927         calculate D2E/DX2 analytically  !
 ! R4    R(1,7)                  1.1017         calculate D2E/DX2 analytically  !
 ! R5    R(2,3)                  1.4215         calculate D2E/DX2 analytically  !
 ! R6    R(3,4)                  1.5363         calculate D2E/DX2 analytically  !
 ! R7    R(3,8)                  1.1018         calculate D2E/DX2 analytically  !
 ! R8    R(3,9)                  1.0927         calculate D2E/DX2 analytically  !
 ! R9    R(4,5)                  1.5481         calculate D2E/DX2 analytically  !
 ! R10   R(4,10)                 1.0939         calculate D2E/DX2 analytically  !
 ! R11   R(4,11)                 1.094          calculate D2E/DX2 analytically  !
 ! R12   R(5,12)                 1.0939         calculate D2E/DX2 analytically  !
 ! R13   R(5,13)                 1.094          calculate D2E/DX2 analytically  !
 ! A1    A(2,1,5)              105.6508         calculate D2E/DX2 analytically  !
 ! A2    A(2,1,6)              107.8637         calculate D2E/DX2 analytically  !
 ! A3    A(2,1,7)              109.5553         calculate D2E/DX2 analytically  !
 ! A4    A(5,1,6)              114.0722         calculate D2E/DX2 analytically  !
 ! A5    A(5,1,7)              110.8495         calculate D2E/DX2 analytically  !
 ! A6    A(6,1,7)              108.7129         calculate D2E/DX2 analytically  !
 ! A7    A(1,2,3)              105.3492         calculate D2E/DX2 analytically  !
 ! A8    A(2,3,4)              105.6102         calculate D2E/DX2 analytically  !
 ! A9    A(2,3,8)              109.5627         calculate D2E/DX2 analytically  !
 ! A10   A(2,3,9)              107.8729         calculate D2E/DX2 analytically  !
 ! A11   A(4,3,8)              110.8455         calculate D2E/DX2 analytically  !
 ! A12   A(4,3,9)              114.0896         calculate D2E/DX2 analytically  !
 ! A13   A(8,3,9)              108.7227         calculate D2E/DX2 analytically  !
 ! A14   A(3,4,5)              103.3946         calculate D2E/DX2 analytically  !
 ! A15   A(3,4,10)             111.4492         calculate D2E/DX2 analytically  !
 ! A16   A(3,4,11)             110.6247         calculate D2E/DX2 analytically  !
 ! A17   A(5,4,10)             112.6303         calculate D2E/DX2 analytically  !
 ! A18   A(5,4,11)             110.8362         calculate D2E/DX2 analytically  !
 ! A19   A(10,4,11)            107.9106         calculate D2E/DX2 analytically  !
 ! A20   A(1,5,4)              103.4233         calculate D2E/DX2 analytically  !
 ! A21   A(1,5,12)             111.4101         calculate D2E/DX2 analytically  !
 ! A22   A(1,5,13)             110.665          calculate D2E/DX2 analytically  !
 ! A23   A(4,5,12)             112.6075         calculate D2E/DX2 analytically  !
 ! A24   A(4,5,13)             110.8477         calculate D2E/DX2 analytically  !
 ! A25   A(12,5,13)            107.8947         calculate D2E/DX2 analytically  !
 ! D1    D(5,1,2,3)             40.0783         calculate D2E/DX2 analytically  !
 ! D2    D(6,1,2,3)            162.4455         calculate D2E/DX2 analytically  !
 ! D3    D(7,1,2,3)            -79.3779         calculate D2E/DX2 analytically  !
 ! D4    D(2,1,5,4)            -23.4716         calculate D2E/DX2 analytically  !
 ! D5    D(2,1,5,12)          -144.6757         calculate D2E/DX2 analytically  !
 ! D6    D(2,1,5,13)            95.2828         calculate D2E/DX2 analytically  !
 ! D7    D(6,1,5,4)           -141.7703         calculate D2E/DX2 analytically  !
 ! D8    D(6,1,5,12)            97.0256         calculate D2E/DX2 analytically  !
 ! D9    D(6,1,5,13)           -23.0159         calculate D2E/DX2 analytically  !
 ! D10   D(7,1,5,4)             95.1264         calculate D2E/DX2 analytically  !
 ! D11   D(7,1,5,12)           -26.0777         calculate D2E/DX2 analytically  !
 ! D12   D(7,1,5,13)          -146.1192         calculate D2E/DX2 analytically  !
 ! D13   D(1,2,3,4)            -40.2713         calculate D2E/DX2 analytically  !
 ! D14   D(1,2,3,8)             79.161          calculate D2E/DX2 analytically  !
 ! D15   D(1,2,3,9)           -162.6413         calculate D2E/DX2 analytically  !
 ! D16   D(2,3,4,5)             23.9507         calculate D2E/DX2 analytically  !
 ! D17   D(2,3,4,10)           145.1847         calculate D2E/DX2 analytically  !
 ! D18   D(2,3,4,11)           -94.7549         calculate D2E/DX2 analytically  !
 ! D19   D(8,3,4,5)            -94.6302         calculate D2E/DX2 analytically  !
 ! D20   D(8,3,4,10)            26.6038         calculate D2E/DX2 analytically  !
 ! D21   D(8,3,4,11)           146.6642         calculate D2E/DX2 analytically  !
 ! D22   D(9,3,4,5)            142.2437         calculate D2E/DX2 analytically  !
 ! D23   D(9,3,4,10)           -96.5223         calculate D2E/DX2 analytically  !
 ! D24   D(9,3,4,11)            23.5381         calculate D2E/DX2 analytically  !
 ! D25   D(3,4,5,1)             -0.2805         calculate D2E/DX2 analytically  !
 ! D26   D(3,4,5,12)           120.1115         calculate D2E/DX2 analytically  !
 ! D27   D(3,4,5,13)          -118.9084         calculate D2E/DX2 analytically  !
 ! D28   D(10,4,5,1)          -120.7134         calculate D2E/DX2 analytically  !
 ! D29   D(10,4,5,12)           -0.3214         calculate D2E/DX2 analytically  !
 ! D30   D(10,4,5,13)          120.6587         calculate D2E/DX2 analytically  !
 ! D31   D(11,4,5,1)           118.2785         calculate D2E/DX2 analytically  !
 ! D32   D(11,4,5,12)         -121.3295         calculate D2E/DX2 analytically  !
 ! D33   D(11,4,5,13)           -0.3494         calculate D2E/DX2 analytically  !
 --------------------------------------------------------------------------------
 Trust Radius=3.00D-01 FncErr=1.00D-07 GrdErr=1.00D-07 EigMax=2.50D+02 EigMin=1.00D-04
 Number of steps in this run=      2 maximum allowed number of steps=      2.
 GradGradGradGradGradGradGradGradGradGradGradGradGradGradGradGradGradGrad

 Leave Link  103 at Mon Aug 25 14:26:20 2025, MaxMem=  4294967296 cpu:               0.0 elap:               0.0
 (Enter /opt/apps/Gaussian/G16C/g16/l202.exe)
                          Input orientation:                          
 ---------------------------------------------------------------------
 Center     Atomic      Atomic             Coordinates (Angstroms)
 Number     Number       Type             X           Y           Z
 ---------------------------------------------------------------------
      1          6           0       -1.750651    0.286324    0.696915
      2          8           0       -0.921501   -0.442730   -0.198487
      3          6           0        0.169784    0.420768   -0.488377
      4          6           0       -0.441040    1.822229   -0.640420
      5          6           0       -1.753695    1.731758    0.175332
      6          1           0       -2.735337   -0.187409    0.702971
      7          1           0       -1.328477    0.237123    1.713371
      8          1           0        0.891244    0.395717    0.343955
      9          1           0        0.661682    0.048394   -1.390247
     10          1           0        0.235072    2.596099   -0.265444
     11          1           0       -0.650571    2.039263   -1.692011
     12          1           0       -1.788566    2.452785    0.997230
     13          1           0       -2.622893    1.909384   -0.464760
 ---------------------------------------------------------------------
                    Distance matrix (angstroms):
                    1          2          3          4          5
     1  C    0.000000
     2  O    1.421533   0.000000
     3  C    2.260766   1.421467   0.000000
     4  C    2.421271   2.357157   1.536333   0.000000
     5  C    1.536664   2.358111   2.420532   1.548128   0.000000
     6  H    1.092733   2.041523   3.198267   3.332738   2.219285
     7  H    1.101742   2.069549   2.669495   2.973287   2.186391
     8  H    2.667613   2.069609   1.101776   2.186073   2.968019
     9  H    3.198782   2.041559   1.092700   2.219173   3.334485
    10  H    3.194416   3.252173   2.187699   1.093896   2.212818
    11  H    3.160687   2.909349   2.177440   1.094006   2.190528
    12  H    2.187505   3.250469   3.189241   2.212538   1.093897
    13  H    2.178215   2.915146   3.164740   2.190647   1.093972
                    6          7          8          9         10
     6  H    0.000000
     7  H    1.783365   0.000000
     8  H    3.690666   2.612970   0.000000
     9  H    3.997111   3.691719   1.783476   0.000000
    10  H    4.184384   3.453282   2.375628   2.817442   0.000000
    11  H    3.878177   3.912019   3.037037   2.403462   1.769046
    12  H    2.820210   2.373541   3.440884   4.181489   2.389559
    13  H    2.402661   3.035824   3.910801   3.886932   2.946060
                   11         12         13
    11  H    0.000000
    12  H    2.949246   0.000000
    13  H    2.326600   1.768841   0.000000
 Symmetry turned off by external request.
 Stoichiometry    C4H8O
 Framework group  C1[X(C4H8O)]
 Deg. of freedom    33
 Full point group                 C1      NOp   1
 Rotational constants (GHZ):           7.1514680           6.9424959           3.9978426
 Leave Link  202 at Mon Aug 25 14:26:20 2025, MaxMem=  4294967296 cpu:               0.0 elap:               0.0
 (Enter /opt/apps/Gaussian/G16C/g16/l301.exe)
 Standard basis: 6-31+G(d) (6D, 7F)
 Ernie: Thresh=  0.10000D-02 Tol=  0.10000D-05 Strict=F.
   111 basis functions,   192 primitive gaussians,   111 cartesian basis functions
    20 alpha electrons       20 beta electrons
       nuclear repulsion energy       190.5795121221 Hartrees.
 IExCor= 4639 DFT=T Ex+Corr=wB97XD ExCW=0 ScaHFX=  1.000000
 ScaDFX=  1.000000  1.000000  1.000000  1.000000 ScalE2=  1.000000  1.000000
 IRadAn=      5 IRanWt=     -1 IRanGd=            0 ICorTp=0 IEmpDi=121
 HFx  wShort=  0.000000 wLong=  0.200000 cFull=  0.222036 cShort=  0.000000 cLong=  0.777964
 DFx  wShort=  0.000000 wLong=  0.200000 cFull=  0.000000 cShort=  0.000000 cLong=  1.000000
 NAtoms=   13 NActive=   13 NUniq=   13 SFac= 1.00D+00 NAtFMM=   60 NAOKFM=F Big=F
 Integral buffers will be    131072 words long.
 Raffenetti 2 integral format.
 Two-electron integral symmetry is turned off.
 R6Disp:  Grimme-D2 Dispersion energy=       -0.0056519262 Hartrees.
 Nuclear repulsion after empirical dispersion term =      190.5738601959 Hartrees.
 Force inversion solution in PCM.
 ------------------------------------------------------------------------------
 Polarizable Continuum Model (PCM)
 =================================
 Model                : PCM.
 Atomic radii         : SMD-Coulomb.
 Polarization charges : Total charges.
 Charge compensation  : None.
 Solution method      : Matrix inversion.
 Cavity type          : VdW (van der Waals Surface) (Alpha=1.000).
 Cavity algorithm     : GePol (No added spheres)
                        Default sphere list used, NSphG=   13.
                        Lebedev-Laikov grids with approx.  5.0 points / Ang**2.
                        Smoothing algorithm: York/Karplus (Gamma=1.0000).
                        Polarization charges: spherical gaussians, with
                                              point-specific exponents (IZeta= 3).
                        Self-potential: point-specific (ISelfS= 7).
                        Self-field    : sphere-specific E.n sum rule (ISelfD= 2).
 1st derivatives      : Analytical E(r).r(x)/FMM algorithm (CHGder, D1EAlg=3).
                        Cavity 1st derivative terms included.
 2nd derivatives      : Analytical E(r).r(xy)/FMM algorithm (CHGder, D2EAlg=3).
                        Cavity 2nd derivative terms included.
 Solvent              : TetraHydroFuran, Eps=   7.425700 Eps(inf)=   1.974025
 ------------------------------------------------------------------------------
 Spheres list:
 ISph  on   Nord     Re0    Alpha      Xe            Ye            Ze
    1   C      1    1.8500  1.000     -1.750651      0.286324      0.696915
    2   O      2    2.2940  1.000     -0.921501     -0.442730     -0.198487
    3   C      3    1.8500  1.000      0.169784      0.420768     -0.488377
    4   C      4    1.8500  1.000     -0.441040      1.822229     -0.640420
    5   C      5    1.8500  1.000     -1.753695      1.731758      0.175332
    6   H      6    1.2000  1.000     -2.735337     -0.187409      0.702971
    7   H      7    1.2000  1.000     -1.328477      0.237123      1.713371
    8   H      8    1.2000  1.000      0.891244      0.395717      0.343955
    9   H      9    1.2000  1.000      0.661682      0.048394     -1.390247
   10   H     10    1.2000  1.000      0.235072      2.596099     -0.265444
   11   H     11    1.2000  1.000     -0.650571      2.039263     -1.692011
   12   H     12    1.2000  1.000     -1.788566      2.452785      0.997230
   13   H     13    1.2000  1.000     -2.622893      1.909384     -0.464760
 ------------------------------------------------------------------------------
 GePol: Number of generator spheres                  =      13
 GePol: Total number of spheres                      =      13
 GePol: Number of exposed spheres                    =      13 (100.00%)
 GePol: Number of points                             =     977
 GePol: Average weight of points                     =       0.12
 GePol: Minimum weight of points                     =   0.42D-08
 GePol: Maximum weight of points                     =    0.17992
 GePol: Number of points with low weight             =      45
 GePol: Fraction of low-weight points (<1% of avg)   =       4.61%
 GePol: Cavity surface area                          =    115.908 Ang**2
 GePol: Cavity volume                                =     98.753 Ang**3
 ------------------------------------------------------------------------------
 Atomic radii for non-electrostatic terms: SMD-CDS.
 ------------------------------------------------------------------------------
 PCM non-electrostatic energy =        -0.0025661306 Hartrees.
 Nuclear repulsion after PCM non-electrostatic terms =      190.5712940653 Hartrees.
 Leave Link  301 at Mon Aug 25 14:26:20 2025, MaxMem=  4294967296 cpu:               0.1 elap:               0.0
 (Enter /opt/apps/Gaussian/G16C/g16/l302.exe)
 NPDir=0 NMtPBC=     1 NCelOv=     1 NCel=       1 NClECP=     1 NCelD=      1
         NCelK=      1 NCelE2=     1 NClLst=     1 CellRange=     0.0.
 One-electron integrals computed using PRISM.
 NBasis=   111 RedAO= T EigKep=  2.63D-05  NBF=   111
 NBsUse=   111 1.00D-06 EigRej= -1.00D+00 NBFU=   111
 Precomputing XC quadrature grid using
 IXCGrd= 4 IRadAn=           5 IRanWt=          -1 IRanGd=           0 AccXCQ= 0.00D+00.
 Generated NRdTot=       0 NPtTot=           0 NUsed=           0 NTot=          32
 NSgBfM=   111   111   111   111   111 MxSgAt=    13 MxSgA2=    13.
 Leave Link  302 at Mon Aug 25 14:26:20 2025, MaxMem=  4294967296 cpu:               1.0 elap:               0.1
 (Enter /opt/apps/Gaussian/G16C/g16/l303.exe)
 DipDrv:  MaxL=1.
 Leave Link  303 at Mon Aug 25 14:26:20 2025, MaxMem=  4294967296 cpu:               0.0 elap:               0.0
 (Enter /opt/apps/Gaussian/G16C/g16/l401.exe)
 Initial guess from the checkpoint file:  "THF-dzpop.chk"
 B after Tr=     0.000000    0.000000    0.000000
         Rot=    1.000000    0.000000    0.000000    0.000000 Ang=   0.00 deg.
 Guess basis will be translated and rotated to current coordinates.
 JPrj=2 DoOrth=T DoCkMO=T.
 Leave Link  401 at Mon Aug 25 14:26:20 2025, MaxMem=  4294967296 cpu:               0.2 elap:               0.1
 (Enter /opt/apps/Gaussian/G16C/g16/l502.exe)
 Two-electron integral symmetry not used.
 Closed shell SCF:
 Using DIIS extrapolation, IDIIS=  1040.
 NGot=  4294967296 LenX=  4294939455 LenY=  4294926693
 Requested convergence on RMS density matrix=1.00D-08 within 128 cycles.
 Requested convergence on MAX density matrix=1.00D-06.
 Requested convergence on             energy=1.00D-06.
 No special actions if energy rises.
 Fock matrices will be formed incrementally for  20 cycles.

 Cycle   1  Pass 1  IDiag  1:
 FoFJK:  IHMeth= 1 ICntrl=       0 DoSepK=T KAlg= 0 I1Cent=           0 FoldK=F
 IRaf=         1 NMat=       1 IRICut=       1 DoRegI=T DoRafI=F ISym2E= 0 IDoP0=0 IntGTp=1.
 FoFCou: FMM=F IPFlag=           0 FMFlag=      100000 FMFlg1=           0
         NFxFlg=           0 DoJE=T BraDBF=F KetDBF=F FulRan=T
         wScrn=  0.000000 ICntrl=       500 IOpCl=  0 I1Cent=           0 NGrid=           0
         NMat0=    1 NMatS0=      1 NMatT0=    0 NMatD0=    1 NMtDS0=    0 NMtDT0=    0
 Symmetry not used in FoFCou.
 Inv3:  Mode=1 IEnd=     2863587.
 Iteration    1 A*A^-1 deviation from unit magnitude is 3.55D-15 for     90.
 Iteration    1 A*A^-1 deviation from orthogonality  is 1.78D-15 for    676    255.
 Iteration    1 A^-1*A deviation from unit magnitude is 2.89D-15 for    975.
 Iteration    1 A^-1*A deviation from orthogonality  is 1.33D-15 for    977    417.
 E= -232.393145012371    
 DIIS: error= 3.82D-09 at cycle   1 NSaved=   1.
 NSaved= 1 IEnMin= 1 EnMin= -232.393145012371     IErMin= 1 ErrMin= 3.82D-09
 ErrMax= 3.82D-09  0.00D+00 EMaxC= 1.00D-01 BMatC= 3.49D-15 BMatP= 3.49D-15
 IDIUse=1 WtCom= 1.00D+00 WtEn= 0.00D+00
 Coeff-Com:  0.100D+01
 Coeff:      0.100D+01
 Gap=     0.419 Goal=   None    Shift=    0.000
 RMSDP=2.26D-09 MaxDP=4.44D-08              OVMax= 4.66D-08

 Error on total polarization charges =  0.02886
 SCF Done:  E(RwB97XD) =  -232.393145012     A.U. after    1 cycles
            NFock=  1  Conv=0.23D-08     -V/T= 2.0094
 KE= 2.302306092148D+02 PE=-9.218037456207D+02 EE= 2.686086973282D+02
 SMD-CDS (non-electrostatic) energy       (kcal/mol) =      -1.61
 (included in total energy above)
 Leave Link  502 at Mon Aug 25 14:26:22 2025, MaxMem=  4294967296 cpu:              20.7 elap:               1.6
 (Enter /opt/apps/Gaussian/G16C/g16/l801.exe)
 DoSCS=F DFT=T ScalE2(SS,OS)=  1.000000  1.000000
 Range of M.O.s used for correlation:     1   111
 NBasis=   111 NAE=    20 NBE=    20 NFC=     0 NFV=     0
 NROrb=    111 NOA=    20 NOB=    20 NVA=    91 NVB=    91

 **** Warning!!: The largest alpha MO coefficient is  0.67954940D+02

 Leave Link  801 at Mon Aug 25 14:26:22 2025, MaxMem=  4294967296 cpu:               0.0 elap:               0.0
 (Enter /opt/apps/Gaussian/G16C/g16/l1101.exe)
 Using compressed storage, NAtomX=    13.
 Will process     14 centers per pass.
 R6Disp: Adding Grimme-D2 dispersion energy 1st derivatives to the gradient.
 Leave Link 1101 at Mon Aug 25 14:26:22 2025, MaxMem=  4294967296 cpu:               1.0 elap:               0.1
 (Enter /opt/apps/Gaussian/G16C/g16/l1102.exe)
 Symmetrizing basis deriv contribution to polar:
 IMax=3 JMax=2 DiffMx= 0.00D+00
 Leave Link 1102 at Mon Aug 25 14:26:22 2025, MaxMem=  4294967296 cpu:               0.1 elap:               0.0
 (Enter /opt/apps/Gaussian/G16C/g16/l1110.exe)
 Forming Gx(P) for the SCF density, NAtomX=    13.
 Integral derivatives from FoFJK, PRISM(SPDF).
 Do as many integral derivatives as possible in FoFJK.
 G2DrvN: MDV=    4294965821.
 G2DrvN: will do    14 centers at a time, making    1 passes.
 Calling FoFCou, ICntrl=  3107 FMM=F I1Cent=   0 AccDes= 0.00D+00.
 FoFJK:  IHMeth= 1 ICntrl=    3107 DoSepK=T KAlg= 0 I1Cent=           0 FoldK=F
 IRaf=         1 NMat=       1 IRICut=       1 DoRegI=T DoRafI=F ISym2E= 0 IDoP0=0 IntGTp=1.
 FoFCou: FMM=F IPFlag=           0 FMFlag=      100000 FMFlg1=           0
         NFxFlg=           0 DoJE=F BraDBF=F KetDBF=F FulRan=T
         wScrn=  0.000000 ICntrl=      3507 IOpCl=  0 I1Cent=           0 NGrid=           0
         NMat0=    1 NMatS0=      1 NMatT0=    0 NMatD0=    1 NMtDS0=    0 NMtDT0=    0
 Symmetry not used in FoFCou.
 NEqPCM:  Using equilibrium solvation (IEInf=0, Eps=   7.4257, EpsInf=   1.9740)
 G2PCM: DoFxE=T DoFxN=T DoGrad=T DoDP/DQ/DG/TGxP=FFFF NFrqRd=   0 IEInf=0 SqF1=F DoCFld=F IF1Alg=4.
 GePol: Maximum number of non-zero 1st derivatives   =     304
 End of G2Drv F.D. properties file   721 does not exist.
 End of G2Drv F.D. properties file   722 does not exist.
 End of G2Drv F.D. properties file   788 does not exist.
 Leave Link 1110 at Mon Aug 25 14:26:27 2025, MaxMem=  4294967296 cpu:              68.3 elap:               4.4
 (Enter /opt/apps/Gaussian/G16C/g16/l1002.exe)
 Minotr:  Closed shell wavefunction.
          IDoAtm=1111111111111
 NEqPCM:  Using equilibrium solvation (IEInf=0, Eps=   7.4257, EpsInf=   1.9740)
          Direct CPHF calculation.
          Differentiating once with respect to electric field.
                with respect to dipole field.
          Differentiating once with respect to nuclear coordinates.
          Requested convergence is 1.0D-08 RMS, and 1.0D-07 maximum.
          Secondary convergence is 1.0D-12 RMS, and 1.0D-12 maximum.
          NewPWx=T KeepS1=F KeepF1=F KeepIn=T MapXYZ=F SortEE=F KeepMc=T.
         3973 words used for storage of precomputed grid.
 Keep R1 ints in memory in canonical form, NReq=54266407.
 FoFCou: FMM=F IPFlag=           0 FMFlag=           0 FMFlg1=           0
         NFxFlg=           0 DoJE=F BraDBF=F KetDBF=F FulRan=T
         wScrn=  0.000000 ICntrl=       600 IOpCl=  0 I1Cent=           0 NGrid=           0
         NMat0=    1 NMatS0=   6216 NMatT0=    0 NMatD0=    1 NMtDS0=    0 NMtDT0=    0
 Symmetry not used in FoFCou.
 Two-electron integral symmetry not used.
          MDV=    4294967296 using IRadAn=       1.
          Solving linear equations simultaneously, MaxMat=       0.
          There are    42 degrees of freedom in the 1st order CPHF.  IDoFFX=6 NUNeed=     3.
     39 vectors produced by pass  0 Test12= 4.33D-15 2.38D-09 XBig12= 1.66D+01 1.13D+00.
 AX will form    39 AO Fock derivatives at one time.
     39 vectors produced by pass  1 Test12= 4.33D-15 2.38D-09 XBig12= 1.31D+00 2.66D-01.
     39 vectors produced by pass  2 Test12= 4.33D-15 2.38D-09 XBig12= 4.22D-02 3.94D-02.
     39 vectors produced by pass  3 Test12= 4.33D-15 2.38D-09 XBig12= 2.30D-04 2.92D-03.
     39 vectors produced by pass  4 Test12= 4.33D-15 2.38D-09 XBig12= 1.15D-06 2.11D-04.
     39 vectors produced by pass  5 Test12= 4.33D-15 2.38D-09 XBig12= 6.70D-09 1.47D-05.
     24 vectors produced by pass  6 Test12= 4.33D-15 2.38D-09 XBig12= 3.14D-11 9.07D-07.
      3 vectors produced by pass  7 Test12= 4.33D-15 2.38D-09 XBig12= 1.50D-13 6.58D-08.
      1 vectors produced by pass  8 Test12= 4.33D-15 2.38D-09 XBig12= 7.29D-16 4.82D-09.
 InvSVY:  IOpt=1 It=  1 EMax= 1.33D-15
 Solved reduced A of dimension   262 with    42 vectors.
 FullF1:  Do perturbations      1 to       3.
 Isotropic polarizability for W=    0.000000       59.70 Bohr**3.
 End of Minotr F.D. properties file   721 does not exist.
 End of Minotr F.D. properties file   722 does not exist.
 End of Minotr F.D. properties file   788 does not exist.
 Leave Link 1002 at Mon Aug 25 14:26:34 2025, MaxMem=  4294967296 cpu:             122.4 elap:               7.9
 (Enter /opt/apps/Gaussian/G16C/g16/l601.exe)
 Copying SCF densities to generalized density rwf, IOpCl= 0 IROHF=0.

 **********************************************************************

            Population analysis using the SCF Density.

 **********************************************************************

 Alpha  occ. eigenvalues --  -19.27146 -10.33119 -10.33117 -10.28818 -10.28800
 Alpha  occ. eigenvalues --   -1.13700  -0.86922  -0.82635  -0.68438  -0.67625
 Alpha  occ. eigenvalues --   -0.58326  -0.56860  -0.53048  -0.49351  -0.47356
 Alpha  occ. eigenvalues --   -0.42838  -0.42216  -0.39835  -0.39787  -0.33427
 Alpha virt. eigenvalues --    0.08474   0.09506   0.09657   0.10601   0.10981
 Alpha virt. eigenvalues --    0.12328   0.13920   0.14295   0.14397   0.17054
 Alpha virt. eigenvalues --    0.17900   0.18222   0.20049   0.20647   0.21924
 Alpha virt. eigenvalues --    0.24116   0.24358   0.25306   0.27889   0.30316
 Alpha virt. eigenvalues --    0.32660   0.32982   0.35133   0.35609   0.38530
 Alpha virt. eigenvalues --    0.39572   0.39937   0.40438   0.43355   0.43774
 Alpha virt. eigenvalues --    0.43798   0.45889   0.47766   0.72676   0.73245
 Alpha virt. eigenvalues --    0.73915   0.74786   0.77053   0.80008   0.80985
 Alpha virt. eigenvalues --    0.82719   0.85799   0.86085   0.91315   1.03020
 Alpha virt. eigenvalues --    1.04459   1.06559   1.06948   1.11553   1.18111
 Alpha virt. eigenvalues --    1.18876   1.21678   1.26057   1.31017   1.31837
 Alpha virt. eigenvalues --    1.32901   1.45874   1.46620   1.51812   1.53409
 Alpha virt. eigenvalues --    1.55835   1.74436   1.76134   1.89424   1.91773
 Alpha virt. eigenvalues --    1.95424   1.96805   2.04272   2.08709   2.10457
 Alpha virt. eigenvalues --    2.18558   2.19054   2.23778   2.25186   2.30698
 Alpha virt. eigenvalues --    2.36850   2.41736   2.54362   2.55034   2.61012
 Alpha virt. eigenvalues --    2.66922   2.76700   2.77549   2.84911   2.87305
 Alpha virt. eigenvalues --    3.09429   4.31849   4.32347   4.41740   4.58444
 Alpha virt. eigenvalues --    4.80629
          Condensed to atoms (all electrons):
               1          2          3          4          5          6
     1  C    5.575630   0.122587  -0.266504   0.122735  -0.072617   0.423157
     2  O    0.122587   8.447731   0.122853  -0.069336  -0.069100  -0.051725
     3  C   -0.266504   0.122853   5.575213  -0.072682   0.122052   0.005989
     4  C    0.122735  -0.069336  -0.072682   6.055874  -0.201728   0.016843
     5  C   -0.072617  -0.069100   0.122052  -0.201728   6.054626  -0.060457
     6  H    0.423157  -0.051725   0.005989   0.016843  -0.060457   0.488634
     7  H    0.442478  -0.056051  -0.013534   0.013224  -0.091296  -0.035820
     8  H   -0.013870  -0.055955   0.442992  -0.091872   0.013430  -0.000363
     9  H    0.006005  -0.051738   0.422803  -0.060327   0.017033  -0.000075
    10  H    0.007734   0.007420  -0.048472   0.408305  -0.047025  -0.000071
    11  H    0.007966   0.004151  -0.046120   0.418540  -0.056920  -0.000096
    12  H   -0.048885   0.007391   0.007592  -0.047196   0.409111   0.001886
    13  H   -0.046487   0.004188   0.008546  -0.057324   0.418865  -0.005124
               7          8          9         10         11         12
     1  C    0.442478  -0.013870   0.006005   0.007734   0.007966  -0.048885
     2  O   -0.056051  -0.055955  -0.051738   0.007420   0.004151   0.007391
     3  C   -0.013534   0.442992   0.422803  -0.048472  -0.046120   0.007592
     4  C    0.013224  -0.091872  -0.060327   0.408305   0.418540  -0.047196
     5  C   -0.091296   0.013430   0.017033  -0.047025  -0.056920   0.409111
     6  H   -0.035820  -0.000363  -0.000075  -0.000071  -0.000096   0.001886
     7  H    0.534285   0.005430  -0.000362   0.000304  -0.000089  -0.003690
     8  H    0.005430   0.534244  -0.035761  -0.003614   0.003317   0.000314
     9  H   -0.000362  -0.035761   0.488557   0.001860  -0.005113  -0.000071
    10  H    0.000304  -0.003614   0.001860   0.474778  -0.026848  -0.004935
    11  H   -0.000089   0.003317  -0.005113  -0.026848   0.476132   0.002380
    12  H   -0.003690   0.000314  -0.000071  -0.004935   0.002380   0.474736
    13  H    0.003313  -0.000088  -0.000098   0.002358  -0.007076  -0.026876
              13
     1  C   -0.046487
     2  O    0.004188
     3  C    0.008546
     4  C   -0.057324
     5  C    0.418865
     6  H   -0.005124
     7  H    0.003313
     8  H   -0.000088
     9  H   -0.000098
    10  H    0.002358
    11  H   -0.007076
    12  H   -0.026876
    13  H    0.476038
 Mulliken charges:
               1
     1  C   -0.259929
     2  O   -0.362417
     3  C   -0.260728
     4  C   -0.435056
     5  C   -0.435974
     6  H    0.217221
     7  H    0.201807
     8  H    0.201796
     9  H    0.217286
    10  H    0.228207
    11  H    0.229776
    12  H    0.228245
    13  H    0.229765
 Sum of Mulliken charges =  -0.00000
 Mulliken charges with hydrogens summed into heavy atoms:
               1
     1  C    0.159099
     2  O   -0.362417
     3  C    0.158355
     4  C    0.022928
     5  C    0.022036
 APT charges:
               1
     1  C    0.609489
     2  O   -0.915242
     3  C    0.609301
     4  C    0.039227
     5  C    0.037533
     6  H   -0.036014
     7  H   -0.096949
     8  H   -0.097806
     9  H   -0.036738
    10  H   -0.020469
    11  H   -0.036026
    12  H   -0.020459
    13  H   -0.035846
 Sum of APT charges =  -0.00000
 APT charges with hydrogens summed into heavy atoms:
               1
     1  C    0.476526
     2  O   -0.915242
     3  C    0.474757
     4  C   -0.017269
     5  C   -0.018773
 Electronic spatial extent (au):  <R**2>=            585.4671
 Charge=              0.0000 electrons
 Dipole moment (field-independent basis, Debye):
    X=              0.1900    Y=              2.1391    Z=              0.5501  Tot=              2.2169
 Quadrupole moment (field-independent basis, Debye-Ang):
   XX=            -29.5517   YY=            -32.0393   ZZ=            -30.4215
   XY=             -1.6782   XZ=             -1.6137   YZ=             -0.2419
 Traceless Quadrupole moment (field-independent basis, Debye-Ang):
   XX=              1.1191   YY=             -1.3685   ZZ=              0.2493
   XY=             -1.6782   XZ=             -1.6137   YZ=             -0.2419
 Octapole moment (field-independent basis, Debye-Ang**2):
  XXX=             81.4829  YYY=            -76.2709  ZZZ=              6.3249  XYY=             30.3492
  XXY=            -24.6023  XXZ=              4.3976  XZZ=             29.3661  YZZ=            -24.7783
  YYZ=              3.4029  XYZ=              1.0246
 Hexadecapole moment (field-independent basis, Debye-Ang**3):
 XXXX=           -326.6626 YYYY=           -336.0974 ZZZZ=           -108.0863 XXXY=             79.0600
 XXXZ=             24.8594 YYYX=             80.5368 YYYZ=             21.0524 ZZZX=             25.9763
 ZZZY=             16.0190 XXYY=           -113.6271 XXZZ=            -75.9127 YYZZ=            -72.5562
 XXYZ=              3.5258 YYXZ=              8.7280 ZZXY=             23.4785
 N-N= 1.905712940653D+02 E-N=-9.218037456208D+02  KE= 2.302306092148D+02
  Exact polarizability:      62.396      -0.145      57.173      -2.740      -1.017      59.544
 Approx polarizability:      49.145       0.499      46.707      -0.974       0.461      48.259
 No NMR shielding tensors so no spin-rotation constants.
 Leave Link  601 at Mon Aug 25 14:26:35 2025, MaxMem=  4294967296 cpu:               0.9 elap:               0.1
 (Enter /opt/apps/Gaussian/G16C/g16/l701.exe)
 ... and contract with generalized density number  0.
 Compute integral second derivatives.
 R6Disp: Adding Grimme-D2 dispersion energy 2nd derivatives to the Hessian.
 D2PCM: PCM CHGder 2nd derivatives, FixD1E=F FixD2E=F DoIter=F DoCFld=F I1PDM=0
 GePol: Maximum number of non-zero 2nd derivatives   =     304
 Leave Link  701 at Mon Aug 25 14:26:36 2025, MaxMem=  4294967296 cpu:              13.0 elap:               1.5
 (Enter /opt/apps/Gaussian/G16C/g16/l702.exe)
 L702 exits ... SP integral derivatives will be done elsewhere.
 Leave Link  702 at Mon Aug 25 14:26:36 2025, MaxMem=  4294967296 cpu:               0.0 elap:               0.0
 (Enter /opt/apps/Gaussian/G16C/g16/l703.exe)
 Integral derivatives from FoFJK, PRISM(SPDF).
 Compute integral second derivatives, UseDBF=F ICtDFT=           0.
 Calling FoFJK, ICntrl=    100127 FMM=F ISym2X=0 I1Cent= 0 IOpClX= 0 NMat=1 NMatS=1 NMatT=0.
 FoFJK:  IHMeth= 1 ICntrl=  100127 DoSepK=T KAlg= 0 I1Cent=           0 FoldK=F
 IRaf=         1 NMat=       1 IRICut=       1 DoRegI=T DoRafI=F ISym2E= 0 IDoP0=0 IntGTp=1.
 FoFCou: FMM=F IPFlag=           0 FMFlag=      100000 FMFlg1=         800
         NFxFlg=           0 DoJE=F BraDBF=F KetDBF=F FulRan=T
         wScrn=  0.000000 ICntrl=    100527 IOpCl=  0 I1Cent=           0 NGrid=           0
         NMat0=    1 NMatS0=      1 NMatT0=    0 NMatD0=    1 NMtDS0=    0 NMtDT0=    0
 Symmetry not used in FoFCou.
 Leave Link  703 at Mon Aug 25 14:26:41 2025, MaxMem=  4294967296 cpu:              78.3 elap:               5.2
 (Enter /opt/apps/Gaussian/G16C/g16/l716.exe)
 Dipole        = 7.47397039D-02 8.41596676D-01 2.16419781D-01
 Polarizability= 6.23961211D+01-1.45058076D-01 5.71727595D+01
                -2.73958662D+00-1.01746698D+00 5.95436253D+01
 Full mass-weighted force constant matrix:
 Low frequencies ---  -11.7500   -6.8584   -0.0009   -0.0008   -0.0007    6.4912
 Low frequencies ---   23.3545  288.0793  656.8844
 Diagonal vibrational polarizability:
        7.6580543       4.4545323       5.5000995
 Harmonic frequencies (cm**-1), IR intensities (KM/Mole), Raman scattering
 activities (A**4/AMU), depolarization ratios for plane and unpolarized
 incident light, reduced masses (AMU), force constants (mDyne/A),
 and normal coordinates:
                      1                      2                      3
                      A                      A                      A
 Frequencies --     22.6769               288.0768               656.8841
 Red. masses --      1.5918                 2.0990                 2.4719
 Frc consts  --      0.0005                 0.1026                 0.6284
 IR Inten    --      0.0705                14.6349                 8.6354
  Atom  AN      X      Y      Z        X      Y      Z        X      Y      Z
     1   6     0.06   0.03   0.06    -0.13  -0.01  -0.07    -0.06   0.02   0.06
     2   8    -0.03  -0.00   0.02     0.11  -0.04   0.17    -0.02   0.21  -0.05
     3   6    -0.03  -0.03  -0.08    -0.00  -0.00  -0.14     0.16  -0.04  -0.02
     4   6     0.06   0.04   0.11     0.01   0.02   0.02     0.02  -0.14   0.05
     5   6    -0.07  -0.04  -0.10     0.01   0.02   0.02    -0.06  -0.05   0.05
     6   1     0.08  -0.01   0.25    -0.14   0.01  -0.40    -0.03  -0.05  -0.13
     7   1     0.20   0.17   0.01    -0.47  -0.07   0.07    -0.18  -0.11   0.10
     8   1     0.10  -0.15  -0.19     0.28  -0.02  -0.39     0.37  -0.27  -0.21
     9   1    -0.18   0.00  -0.18    -0.30   0.00  -0.31    -0.14  -0.00  -0.20
    10   1     0.05  -0.09   0.40     0.04  -0.05   0.11    -0.10   0.12  -0.28
    11   1     0.24   0.30   0.13     0.01   0.17   0.05    -0.17  -0.48   0.02
    12   1    -0.34   0.07  -0.21     0.08  -0.05   0.08    -0.21   0.10  -0.10
    13   1     0.02  -0.29  -0.29     0.03   0.17   0.04     0.03  -0.23  -0.12
                      4                      5                      6
                      A                      A                      A
 Frequencies --    659.8702               815.8236               883.2912
 Red. masses --      2.6962                 1.4526                 1.5129
 Frc consts  --      0.6917                 0.5696                 0.6954
 IR Inten    --      1.1397                 8.4906                 5.7118
  Atom  AN      X      Y      Z        X      Y      Z        X      Y      Z
     1   6    -0.06  -0.12   0.13    -0.03  -0.02   0.02    -0.04  -0.06  -0.03
     2   8    -0.08   0.08   0.03    -0.00   0.12   0.01    -0.06  -0.01   0.03
     3   6    -0.07   0.10  -0.02     0.04  -0.01  -0.02    -0.00   0.06   0.05
     4   6     0.10   0.10  -0.12     0.00  -0.06  -0.07     0.07   0.09   0.02
     5   6     0.16  -0.16  -0.01    -0.06  -0.07  -0.03     0.03  -0.08  -0.08
     6   1    -0.16   0.07  -0.19     0.05  -0.19   0.11     0.00  -0.15   0.32
     7   1    -0.30  -0.39   0.22     0.04   0.10   0.01     0.18   0.23  -0.10
     8   1    -0.17   0.22   0.07    -0.01   0.09   0.04     0.19  -0.21  -0.13
     9   1     0.01  -0.09   0.11     0.09  -0.18   0.08    -0.31   0.14  -0.14
    10   1     0.11   0.04  -0.02    -0.11  -0.20   0.41    -0.08   0.34  -0.23
    11   1     0.06   0.23  -0.09     0.32   0.30  -0.05     0.01  -0.28  -0.05
    12   1    -0.09   0.04  -0.20     0.44  -0.17   0.07     0.20  -0.32   0.14
    13   1     0.18  -0.47  -0.13    -0.22   0.27   0.28     0.02   0.28   0.03
                      7                      8                      9
                      A                      A                      A
 Frequencies --    927.9010               961.0743               962.6518
 Red. masses --      3.0911                 2.2164                 2.5874
 Frc consts  --      1.5681                 1.2062                 1.4127
 IR Inten    --      7.7499                 1.9540                49.4473
  Atom  AN      X      Y      Z        X      Y      Z        X      Y      Z
     1   6     0.05   0.13  -0.06     0.04   0.14  -0.07     0.12  -0.01  -0.18
     2   8    -0.00   0.02  -0.00    -0.07  -0.02   0.03     0.03   0.17   0.09
     3   6    -0.08   0.12   0.02     0.14  -0.12  -0.02    -0.18  -0.07   0.02
     4   6    -0.15  -0.17   0.13    -0.05   0.14  -0.02     0.03  -0.02   0.01
     5   6     0.20  -0.15  -0.09     0.01  -0.13   0.04     0.00  -0.06   0.05
     6   1    -0.08   0.42  -0.12    -0.09   0.41  -0.13     0.20  -0.19  -0.14
     7   1    -0.04   0.10  -0.03    -0.07   0.08  -0.03     0.12   0.14  -0.16
     8   1    -0.02   0.10  -0.04     0.05  -0.10   0.06    -0.20   0.09   0.06
     9   1    -0.11   0.41  -0.10     0.16  -0.36   0.09    -0.17  -0.31   0.13
    10   1    -0.28  -0.15   0.27    -0.31   0.33   0.06     0.33  -0.18  -0.19
    11   1    -0.08  -0.10   0.14    -0.19   0.22   0.02    -0.21  -0.03   0.06
    12   1     0.37  -0.11  -0.14    -0.09  -0.29   0.17    -0.32  -0.31   0.25
    13   1     0.17  -0.09  -0.02    -0.11  -0.23   0.18     0.12  -0.06  -0.12
                     10                     11                     12
                      A                      A                      A
 Frequencies --    985.5944              1072.2209              1133.5839
 Red. masses --      1.8431                 1.8291                 5.7844
 Frc consts  --      1.0549                 1.2390                 4.3794
 IR Inten    --     18.8239                 6.2044               130.3156
  Atom  AN      X      Y      Z        X      Y      Z        X      Y      Z
     1   6     0.14  -0.08  -0.00     0.05   0.10  -0.02    -0.16   0.19   0.22
     2   8    -0.00   0.04   0.00    -0.00  -0.05  -0.01     0.30   0.02  -0.18
     3   6    -0.06  -0.09   0.11    -0.05   0.09   0.05    -0.25  -0.22   0.03
     4   6    -0.08   0.07  -0.01     0.12  -0.04  -0.08     0.05   0.13   0.05
     5   6     0.02   0.08  -0.07    -0.12  -0.06   0.07    -0.00  -0.13  -0.08
     6   1     0.09   0.02  -0.36    -0.06   0.33  -0.17    -0.02  -0.07  -0.04
     7   1    -0.11  -0.36   0.08    -0.08  -0.10   0.02    -0.21   0.20   0.20
     8   1     0.15  -0.34  -0.08     0.06  -0.09  -0.06    -0.25  -0.23   0.08
     9   1    -0.35  -0.02  -0.08    -0.16   0.32  -0.11     0.02   0.07   0.04
    10   1    -0.25   0.16   0.13     0.21  -0.14  -0.02     0.10   0.23  -0.23
    11   1     0.25  -0.06  -0.10     0.42  -0.18  -0.17    -0.23  -0.08   0.05
    12   1     0.21   0.20  -0.17    -0.10  -0.16   0.16     0.27  -0.20  -0.00
    13   1    -0.20  -0.10   0.17    -0.32  -0.23   0.29    -0.15   0.06   0.18
                     13                     14                     15
                      A                      A                      A
 Frequencies --   1165.2687              1232.3692              1248.9818
 Red. masses --      1.9098                 1.3888                 1.1388
 Frc consts  --      1.5279                 1.2427                 1.0467
 IR Inten    --     13.9772                10.7846                 8.1369
  Atom  AN      X      Y      Z        X      Y      Z        X      Y      Z
     1   6    -0.12   0.02  -0.06     0.03  -0.02   0.08     0.01   0.02   0.00
     2   8     0.07   0.00  -0.04    -0.02   0.01  -0.03    -0.03  -0.00   0.02
     3   6     0.00  -0.03   0.14     0.06  -0.02   0.07     0.01  -0.02  -0.01
     4   6    -0.06  -0.00  -0.12    -0.09   0.02  -0.03    -0.03   0.01  -0.06
     5   6     0.08   0.00   0.11     0.01   0.02  -0.09     0.04  -0.01   0.05
     6   1    -0.11  -0.01   0.37    -0.07   0.18  -0.06     0.23  -0.43  -0.15
     7   1     0.29   0.08  -0.23    -0.13  -0.05   0.15    -0.21   0.35   0.12
     8   1     0.35  -0.04  -0.16     0.20  -0.02  -0.06    -0.16  -0.37   0.11
     9   1    -0.38  -0.02  -0.07    -0.05   0.16  -0.07     0.20   0.46  -0.11
    10   1    -0.05  -0.16   0.20     0.43  -0.39  -0.10    -0.11   0.00   0.09
    11   1     0.10   0.28  -0.09    -0.14   0.23   0.03     0.15   0.05  -0.09
    12   1    -0.21   0.14  -0.03    -0.22  -0.43   0.30    -0.13  -0.03   0.07
    13   1     0.15  -0.27  -0.07     0.05   0.24  -0.09     0.15  -0.03  -0.10
                     16                     17                     18
                      A                      A                      A
 Frequencies --   1274.3992              1287.7123              1332.6986
 Red. masses --      1.1344                 1.4238                 1.2012
 Frc consts  --      1.0855                 1.3911                 1.2570
 IR Inten    --     13.4255                14.2457                 6.8394
  Atom  AN      X      Y      Z        X      Y      Z        X      Y      Z
     1   6    -0.01   0.00  -0.05    -0.07  -0.05  -0.03    -0.02   0.01   0.01
     2   8    -0.03  -0.00   0.02     0.03   0.05   0.06    -0.02  -0.02  -0.04
     3   6     0.04  -0.01   0.03     0.01  -0.05  -0.08     0.01   0.01  -0.01
     4   6    -0.01   0.04   0.02    -0.06   0.03   0.03    -0.05   0.02   0.06
     5   6    -0.01  -0.04  -0.01     0.06   0.04  -0.04     0.07   0.04  -0.02
     6   1     0.07  -0.16   0.00    -0.22   0.25   0.31     0.12  -0.29  -0.06
     7   1     0.01   0.10  -0.05     0.22  -0.20  -0.15    -0.18   0.36   0.10
     8   1     0.05  -0.10   0.01    -0.21  -0.21   0.11     0.13   0.39  -0.10
     9   1     0.04   0.17  -0.05     0.34   0.27  -0.04    -0.09  -0.29   0.06
    10   1     0.45  -0.24  -0.20     0.11  -0.08  -0.06     0.12  -0.08  -0.03
    11   1    -0.30   0.18   0.11     0.31  -0.23  -0.10     0.30  -0.28  -0.08
    12   1     0.35   0.30  -0.30    -0.13  -0.12   0.10    -0.10  -0.11   0.11
    13   1    -0.23  -0.25   0.23    -0.18  -0.25   0.20    -0.19  -0.33   0.24
                     19                     20                     21
                      A                      A                      A
 Frequencies --   1338.7690              1389.0246              1421.4565
 Red. masses --      1.3594                 1.2893                 1.3503
 Frc consts  --      1.4355                 1.4656                 1.6074
 IR Inten    --      2.0975                 0.0288                 8.4966
  Atom  AN      X      Y      Z        X      Y      Z        X      Y      Z
     1   6     0.02  -0.02  -0.00    -0.01   0.09  -0.00     0.03  -0.11  -0.02
     2   8     0.02   0.00  -0.01    -0.04  -0.00   0.02    -0.01   0.03  -0.01
     3   6     0.01   0.03  -0.02     0.01  -0.09   0.01    -0.02  -0.11   0.02
     4   6    -0.10   0.07   0.02    -0.03   0.05   0.01     0.04   0.00  -0.00
     5   6    -0.04  -0.08   0.07    -0.02  -0.06   0.02    -0.02  -0.00   0.03
     6   1    -0.10   0.25   0.00     0.16  -0.27  -0.08    -0.19   0.37   0.03
     7   1    -0.09   0.24   0.05     0.20  -0.49  -0.13    -0.14   0.49   0.08
     8   1    -0.05  -0.21   0.03     0.15   0.51  -0.09     0.09   0.52  -0.06
     9   1    -0.02  -0.28   0.08     0.11   0.27  -0.09     0.08   0.40  -0.14
    10   1     0.27  -0.19  -0.09     0.08  -0.01  -0.05    -0.10   0.13  -0.02
    11   1     0.41  -0.25  -0.15     0.24  -0.15  -0.09     0.00   0.04   0.00
    12   1     0.17   0.21  -0.18     0.08   0.02  -0.05     0.02   0.14  -0.08
    13   1     0.28   0.26  -0.26     0.17   0.17  -0.17     0.00   0.04   0.01
                     22                     23                     24
                      A                      A                      A
 Frequencies --   1505.1125              1522.5126              1531.1841
 Red. masses --      1.0839                 1.1003                 1.0870
 Frc consts  --      1.4467                 1.5027                 1.5016
 IR Inten    --      1.9829                10.9072                 0.2109
  Atom  AN      X      Y      Z        X      Y      Z        X      Y      Z
     1   6    -0.00  -0.00   0.00     0.01  -0.00  -0.02     0.03   0.03  -0.04
     2   8    -0.00  -0.00   0.00    -0.00   0.00  -0.00     0.01   0.00  -0.01
     3   6    -0.00   0.00  -0.00    -0.02  -0.00   0.00     0.05  -0.02  -0.01
     4   6     0.02   0.04  -0.03     0.02   0.05  -0.03     0.00   0.01  -0.00
     5   6     0.04  -0.04  -0.01    -0.04   0.04   0.01     0.00  -0.01  -0.00
     6   1     0.00  -0.00  -0.09    -0.00   0.02   0.18     0.05  -0.05   0.48
     7   1     0.08   0.03  -0.03    -0.16  -0.04   0.06    -0.42  -0.20   0.15
     8   1     0.05  -0.02  -0.05     0.15  -0.03  -0.14    -0.35   0.15   0.33
     9   1     0.07   0.00   0.03     0.18   0.03   0.09    -0.41   0.03  -0.26
    10   1     0.02  -0.20   0.43     0.01  -0.18   0.44     0.02  -0.04   0.08
    11   1    -0.28  -0.38  -0.04    -0.29  -0.38  -0.04    -0.05  -0.08  -0.01
    12   1    -0.42   0.19  -0.21     0.38  -0.15   0.18    -0.04   0.03  -0.04
    13   1    -0.13   0.38   0.31     0.12  -0.32  -0.29    -0.01   0.06   0.03
                     25                     26                     27
                      A                      A                      A
 Frequencies --   1546.1791              3016.9575              3019.4011
 Red. masses --      1.1097                 1.0706                 1.0721
 Frc consts  --      1.5630                 5.7414                 5.7588
 IR Inten    --      0.6437                64.1842               164.9616
  Atom  AN      X      Y      Z        X      Y      Z        X      Y      Z
     1   6     0.04   0.02  -0.05    -0.01   0.01  -0.06    -0.01   0.01  -0.04
     2   8    -0.00   0.00  -0.01     0.00  -0.00  -0.00    -0.00  -0.00  -0.00
     3   6    -0.06   0.01   0.01     0.03  -0.01   0.03    -0.05   0.01  -0.04
     4   6    -0.00  -0.02   0.01    -0.00  -0.00  -0.00     0.00   0.00   0.00
     5   6     0.01  -0.02   0.00     0.00   0.00   0.00    -0.00   0.00   0.00
     6   1     0.06  -0.04   0.46    -0.15  -0.07  -0.01    -0.10  -0.04  -0.01
     7   1    -0.43  -0.16   0.15     0.31  -0.04   0.71     0.23  -0.02   0.55
     8   1     0.32  -0.10  -0.31    -0.38   0.02  -0.46     0.50  -0.02   0.59
     9   1     0.37  -0.02   0.25    -0.05   0.04   0.11     0.05  -0.04  -0.13
    10   1    -0.02   0.09  -0.17     0.02   0.02   0.01    -0.04  -0.04  -0.02
    11   1     0.10   0.15   0.02     0.00  -0.00   0.02    -0.00   0.00  -0.01
    12   1    -0.15   0.08  -0.09     0.00  -0.03  -0.03     0.00  -0.03  -0.04
    13   1    -0.04   0.14   0.11    -0.02   0.00  -0.01    -0.00   0.00  -0.00
                     28                     29                     30
                      A                      A                      A
 Frequencies --   3091.0394              3102.9390              3134.0911
 Red. masses --      1.0606                 1.0631                 1.1029
 Frc consts  --      5.9703                 6.0305                 6.3830
 IR Inten    --     38.2717                51.9741                26.8524
  Atom  AN      X      Y      Z        X      Y      Z        X      Y      Z
     1   6    -0.00  -0.00  -0.00     0.01   0.00   0.00     0.03   0.01   0.00
     2   8     0.00   0.00  -0.00    -0.00  -0.00  -0.00     0.00   0.00  -0.00
     3   6    -0.00   0.00   0.00    -0.00   0.00   0.01     0.01  -0.01  -0.02
     4   6     0.01   0.04  -0.03     0.02   0.04  -0.03     0.03   0.02   0.04
     5   6     0.04  -0.03   0.00    -0.04   0.03   0.00    -0.02  -0.02  -0.05
     6   1     0.04   0.02  -0.00    -0.09  -0.04  -0.00    -0.31  -0.15  -0.00
     7   1     0.00  -0.00   0.01    -0.01   0.00  -0.04    -0.01   0.00  -0.02
     8   1    -0.01   0.00  -0.01    -0.03   0.00  -0.03     0.01  -0.00   0.01
     9   1     0.02  -0.01  -0.04     0.04  -0.03  -0.08    -0.13   0.10   0.24
    10   1    -0.27  -0.30  -0.16    -0.28  -0.31  -0.17    -0.30  -0.35  -0.17
    11   1     0.11  -0.10   0.53     0.11  -0.10   0.52    -0.07   0.08  -0.35
    12   1    -0.00   0.29   0.33     0.00  -0.29  -0.34    -0.01   0.34   0.39
    13   1    -0.44   0.08  -0.33     0.42  -0.08   0.32     0.30  -0.06   0.22
                     31                     32                     33
                      A                      A                      A
 Frequencies --   3145.5896              3148.6073              3157.7910
 Red. masses --      1.0959                 1.0977                 1.1054
 Frc consts  --      6.3891                 6.4118                 6.4944
 IR Inten    --      2.8044                43.7560               109.4113
  Atom  AN      X      Y      Z        X      Y      Z        X      Y      Z
     1   6    -0.06  -0.03  -0.01     0.04   0.02   0.01    -0.03  -0.01  -0.01
     2   8     0.00  -0.00   0.00     0.00   0.00  -0.00     0.00   0.00   0.00
     3   6     0.02  -0.01  -0.03     0.02  -0.02  -0.06     0.01  -0.01  -0.03
     4   6     0.02   0.02   0.03    -0.01  -0.00  -0.02    -0.03  -0.02  -0.05
     5   6     0.00   0.01   0.02     0.02   0.01   0.03    -0.03  -0.02  -0.05
     6   1     0.65   0.31   0.00    -0.42  -0.20  -0.00     0.28   0.14   0.00
     7   1     0.03  -0.01   0.10    -0.04   0.01  -0.11     0.03  -0.01   0.08
     8   1     0.03  -0.00   0.02     0.10  -0.01   0.11     0.07  -0.01   0.07
     9   1    -0.20   0.15   0.37    -0.32   0.25   0.60    -0.16   0.13   0.31
    10   1    -0.23  -0.27  -0.13     0.07   0.08   0.04     0.27   0.31   0.15
    11   1    -0.04   0.04  -0.21     0.03  -0.03   0.15     0.08  -0.09   0.42
    12   1     0.01  -0.16  -0.18     0.01  -0.20  -0.23    -0.01   0.28   0.32
    13   1    -0.06   0.01  -0.05    -0.22   0.05  -0.16     0.33  -0.07   0.24

 -------------------
 - Thermochemistry -
 -------------------
 Temperature   298.150 Kelvin.  Pressure   1.00000 Atm.
 Atom     1 has atomic number  6 and mass  12.00000
 Atom     2 has atomic number  8 and mass  15.99491
 Atom     3 has atomic number  6 and mass  12.00000
 Atom     4 has atomic number  6 and mass  12.00000
 Atom     5 has atomic number  6 and mass  12.00000
 Atom     6 has atomic number  1 and mass   1.00783
 Atom     7 has atomic number  1 and mass   1.00783
 Atom     8 has atomic number  1 and mass   1.00783
 Atom     9 has atomic number  1 and mass   1.00783
 Atom    10 has atomic number  1 and mass   1.00783
 Atom    11 has atomic number  1 and mass   1.00783
 Atom    12 has atomic number  1 and mass   1.00783
 Atom    13 has atomic number  1 and mass   1.00783
 Molecular mass:    72.05751 amu.
 Principal axes and moments of inertia in atomic units:
                           1         2         3
     Eigenvalues --   252.35954 259.95567 451.42878
           X           -0.12258   0.84915   0.51373
           Y            0.98835   0.05737   0.14098
           Z           -0.09024  -0.52503   0.84629
 This molecule is an asymmetric top.
 Rotational symmetry number  1.
 Rotational temperatures (Kelvin)      0.34322     0.33319     0.19187
 Rotational constants (GHZ):           7.15147     6.94250     3.99784
 Zero-point vibrational energy     310919.8 (Joules/Mol)
                                   74.31162 (Kcal/Mol)
 Warning -- explicit consideration of   2 degrees of freedom as
           vibrations may cause significant error
 Vibrational temperatures:     32.63   414.48   945.11   949.41  1173.79
          (Kelvin)           1270.86  1335.04  1382.77  1385.04  1418.05
                             1542.69  1630.97  1676.56  1773.10  1797.01
                             1833.58  1852.73  1917.46  1926.19  1998.50
                             2045.16  2165.52  2190.56  2203.03  2224.61
                             4340.73  4344.24  4447.32  4464.44  4509.26
                             4525.80  4530.14  4543.36
 
 Zero-point correction=                           0.118423 (Hartree/Particle)
 Thermal correction to Energy=                    0.123323
 Thermal correction to Enthalpy=                  0.124267
 Thermal correction to Gibbs Free Energy=         0.089374
 Sum of electronic and zero-point Energies=           -232.274722
 Sum of electronic and thermal Energies=              -232.269822
 Sum of electronic and thermal Enthalpies=            -232.268878
 Sum of electronic and thermal Free Energies=         -232.303771
 
                     E (Thermal)             CV                S
                      KCal/Mol        Cal/Mol-Kelvin    Cal/Mol-Kelvin
 Total                   77.386             16.517             73.438
 Electronic               0.000              0.000              0.000
 Translational            0.889              2.981             38.741
 Rotational               0.889              2.981             24.897
 Vibrational             75.609             10.556              9.801
 Vibration     1          0.593              1.985              6.385
 Vibration     2          0.685              1.696              1.485
                       Q            Log10(Q)             Ln(Q)
 Total Bot       0.777558D-41        -41.109267        -94.657586
 Total V=0       0.229895D+14         13.361530         30.766061
 Vib (Bot)       0.525001D-53        -53.279840       -122.681364
 Vib (Bot)    1  0.913360D+01          0.960642          2.211960
 Vib (Bot)    2  0.664521D+00         -0.177491         -0.408689
 Vib (V=0)       0.155224D+02          1.190958          2.742282
 Vib (V=0)    1  0.964727D+01          0.984405          2.266675
 Vib (V=0)    2  0.133162D+01          0.124380          0.286395
 Electronic      0.100000D+01          0.000000          0.000000
 Translational   0.240421D+08          7.380973         16.995318
 Rotational      0.616027D+05          4.789600         11.028461
 
                                                                 THF
                                                             IR Spectrum
 
   333333 33                                                         1111  1 1111111  11 1                                           
   111110 00                                                         5555  4 3332222  11 0  9999 8  8    66              2           
   544309 11                                                         4320  2 8338743  63 7  8662 8  1    65              8          2
   896431 97                                                         6135  1 9938492  54 2  6318 3  6    07              8          3
 
   XXXXXX XX                                                         XXXX  X  XXXXXX  XX X  XXXX X  X    XX              X          X
   XX XXX XX                                                                    XX    XX    XX                           X           
   XX XXX XX                                                                           X     X                                       
   XX  XX XX                                                                           X     X                                       
   XX  XX XX                                                                           X     X                                       
   X   X  XX                                                                           X     X                                       
   X      XX                                                                           X                                             
   X      XX                                                                           X                                             
   X      X                                                                            X                                             
   X      X                                                                            X                                             
   X      X                                                                            X                                             
   X      X                                                                            X                                             
   X      X                                                                            X                                             
          X                                                                            X                                             
          X                                                                            X                                             
          X                                                                            X                                             
          X                                                                                                                          
          X                                                                                                                          
          X                                                                                                                          
          X                                                                                                                          
 
 -------------------------------------------------------------------
 Center     Atomic                   Forces (Hartrees/Bohr)
 Number     Number              X              Y              Z
 -------------------------------------------------------------------
      1        6          -0.000001855    0.000001762   -0.000000299
      2        8          -0.000002466    0.000000113    0.000000925
      3        6          -0.000000742   -0.000002640    0.000002141
      4        6           0.000002370   -0.000001031   -0.000000571
      5        6           0.000000118    0.000001463   -0.000001356
      6        1          -0.000002782    0.000003295   -0.000001023
      7        1          -0.000003162    0.000001796    0.000000138
      8        1          -0.000001498   -0.000002521    0.000002096
      9        1          -0.000000040   -0.000003401    0.000002246
     10        1           0.000002909   -0.000002004    0.000000223
     11        1           0.000003504   -0.000001474   -0.000000356
     12        1           0.000001476    0.000002125   -0.000001866
     13        1           0.000002169    0.000002517   -0.000002298
 -------------------------------------------------------------------
 Cartesian Forces:  Max     0.000003504 RMS     0.000001979
 Force constants in Cartesian coordinates: 
                1             2             3             4             5 
      1  0.618663D+00
      2  0.919822D-01  0.462425D+00
      3  0.237484D-01 -0.276371D-01  0.550319D+00
      4 -0.117508D+00  0.484191D-01  0.560677D-01  0.348277D+00
      5  0.135260D-01 -0.118496D+00 -0.401704D-01  0.494853D-01  0.336238D+00
      6  0.442215D-01 -0.633105D-01 -0.131275D+00 -0.132708D+00  0.688742D-01
      7 -0.450202D-01 -0.515879D-02  0.227560D-01 -0.155748D+00 -0.474902D-01
      8  0.360196D-02  0.873061D-02  0.377883D-02 -0.830451D-01 -0.131940D+00
      9  0.361314D-01  0.101037D-01 -0.147209D-01  0.140313D-01 -0.703415D-02
     10 -0.350128D-02 -0.216495D-01  0.506820D-02 -0.978974D-03 -0.221173D-01
     11 -0.219175D-01 -0.785048D-02  0.125865D-01 -0.131564D-01 -0.439636D-01
     12  0.139721D-01  0.114381D-01 -0.912542D-02  0.412938D-02 -0.173248D-03
     13 -0.779222D-01 -0.105923D-02 -0.812459D-02 -0.730590D-02  0.131269D-01
     14 -0.274871D-03 -0.161494D+00  0.405199D-01  0.183297D-01 -0.392928D-01
     15 -0.591458D-02  0.432548D-01 -0.963652D-01  0.132765D-01 -0.215757D-01
     16 -0.268256D+00 -0.107427D+00 -0.521205D-02 -0.216699D-01 -0.680758D-02
     17 -0.114769D+00 -0.106186D+00 -0.102857D-02  0.228906D-01  0.928852D-02
     18 -0.140088D-01 -0.533040D-02 -0.527376D-01  0.262619D-01  0.960247D-02
     19 -0.101562D+00  0.209237D-02 -0.952138D-01  0.693225D-02  0.216855D-02
     20  0.244363D-02 -0.515195D-01  0.177379D-01 -0.353635D-03 -0.108666D-02
     21 -0.934798D-01  0.181334D-01 -0.249253D+00  0.693361D-02 -0.110151D-01
     22  0.211742D-02 -0.247179D-02 -0.433318D-02 -0.329435D-01 -0.132721D-01
     23  0.155624D-02 -0.111048D-02 -0.261091D-02 -0.273995D-01 -0.396615D-02
     24  0.103287D-02  0.964301D-04  0.257799D-02  0.498281D-02 -0.333147D-02
     25 -0.282699D-02 -0.352857D-02  0.958075D-03 -0.199251D-01  0.715335D-02
     26 -0.187863D-02 -0.417980D-02  0.849287D-03 -0.167177D-01  0.756935D-02
     27 -0.260110D-03  0.253245D-02  0.154611D-02  0.667673D-02 -0.301074D-03
     28 -0.278456D-02  0.155076D-03  0.522107D-03  0.478842D-04  0.324164D-02
     29  0.144512D-02 -0.129028D-02 -0.164681D-02 -0.865943D-03 -0.726204D-02
     30  0.149773D-02  0.892071D-03 -0.717883D-03  0.143417D-02  0.162980D-02
     31 -0.314348D-02  0.183730D-02  0.221377D-02  0.168449D-02 -0.265001D-03
     32 -0.708788D-05 -0.134385D-02 -0.455415D-03 -0.140502D-02 -0.624549D-04
     33  0.142982D-02 -0.887238D-03 -0.543734D-03  0.768273D-03  0.625764D-03
     34 -0.450318D-03 -0.516310D-03 -0.868685D-03 -0.108035D-02  0.583691D-03
     35  0.276077D-03 -0.136135D-01 -0.239827D-01  0.361830D-02 -0.706908D-02
     36 -0.102093D-02  0.931155D-02  0.944572D-02 -0.602333D-03  0.302350D-02
     37  0.219556D-02 -0.267525D-02  0.241809D-02  0.218666D-03  0.666720D-03
     38  0.240161D-01 -0.407214D-02  0.220596D-01  0.200124D-03  0.426615D-04
     39 -0.734953D-02  0.140274D-02 -0.915045D-02 -0.125232D-02 -0.154513D-03
                6             7             8             9            10 
      6  0.226851D+00
      7  0.259646D-01  0.557434D+00
      8  0.149270D-01 -0.549632D-01  0.442839D+00
      9 -0.795719D-01 -0.233756D-01  0.573354D-01  0.632145D+00
     10  0.121102D-01 -0.954565D-01  0.467866D-01 -0.969881D-02  0.480556D+00
     11  0.108533D-01  0.440013D-01 -0.154974D+00  0.125928D-01  0.841029D-01
     12  0.270864D-02 -0.121428D-01  0.131110D-01 -0.853879D-01  0.599843D-01
     13  0.381126D-02 -0.198973D-01  0.181568D-01  0.107286D-01 -0.144991D+00
     14 -0.956930D-02  0.197170D-01 -0.225674D-02 -0.136005D-01 -0.746875D-03
     15  0.433801D-02  0.182606D-02 -0.146712D-01  0.128381D-02  0.364659D-01
     16  0.689777D-02 -0.216137D-03  0.413406D-02  0.171865D-02  0.308318D-03
     17 -0.340536D-02  0.180931D-02 -0.340312D-02 -0.124927D-02 -0.254690D-03
     18 -0.362639D-02  0.287031D-02 -0.188909D-02 -0.186795D-02  0.125250D-02
     19  0.281775D-01  0.392505D-02  0.158623D-02  0.195594D-02 -0.520734D-03
     20 -0.267656D-01 -0.229381D-02 -0.109991D-02  0.292270D-03  0.116855D-02
     21 -0.302026D-01 -0.341730D-02 -0.263814D-02  0.721640D-03 -0.228744D-03
     22 -0.143916D-01 -0.146258D+00  0.122935D-01 -0.114805D+00 -0.531459D-02
     23 -0.147828D-01  0.118978D-01 -0.497731D-01  0.777751D-02  0.178414D-01
     24  0.123937D-01 -0.116514D+00  0.743276D-02 -0.206218D+00 -0.120371D-02
     25  0.252926D-01 -0.978874D-01  0.390288D-01  0.887526D-01 -0.205487D-02
     26  0.223574D-01  0.457065D-01 -0.861296D-01 -0.860938D-01  0.123076D-01
     27 -0.344364D-02  0.974161D-01 -0.805189D-01 -0.243700D+00 -0.452058D-02
     28 -0.138647D-03  0.937286D-02  0.106340D-01  0.493175D-02 -0.150282D+00
     29  0.293599D-02 -0.194833D-01 -0.142513D-01 -0.107838D-01 -0.118023D+00
     30 -0.252248D-03  0.190577D-02  0.308594D-02  0.312961D-03 -0.623881D-01
     31 -0.549921D-03 -0.619977D-02  0.302460D-02 -0.139171D-01 -0.569501D-01
     32 -0.635803D-03  0.908764D-02 -0.456291D-02  0.299695D-01  0.641384D-02
     33  0.635440D-04 -0.436836D-03 -0.202416D-02 -0.395018D-03 -0.535079D-01
     34  0.103476D-02 -0.173174D-02  0.573457D-03  0.184645D-02 -0.593710D-03
     35  0.146765D-03 -0.218141D-02 -0.150325D-02  0.735088D-03 -0.199286D-02
     36  0.726146D-03  0.736455D-03  0.594340D-03 -0.147307D-02 -0.761877D-03
     37  0.277733D-03 -0.231619D-02 -0.181169D-02  0.169973D-02 -0.202201D-01
     38 -0.162537D-02 -0.648869D-03 -0.167670D-02 -0.447838D-04 -0.383657D-02
     39  0.129027D-02  0.241135D-02  0.147614D-02 -0.112876D-02  0.174287D-01
               11            12            13            14            15 
     11  0.532752D+00
     12 -0.146046D-01  0.580668D+00
     13 -0.779185D-02  0.462692D-01  0.523934D+00
     14 -0.718512D-01  0.214936D-02 -0.554935D-01  0.512804D+00
     15  0.598584D-02 -0.104068D+00  0.657142D-01  0.735439D-01  0.557187D+00
     16  0.148694D-02 -0.363303D-03  0.501056D-02  0.222679D-02 -0.211264D-02
     17 -0.376303D-02  0.712439D-03 -0.247881D-01 -0.823994D-02  0.300907D-03
     18  0.464139D-03 -0.826544D-03  0.851067D-02  0.513721D-02  0.138548D-02
     19  0.143674D-03 -0.600091D-03  0.993986D-03  0.236028D-04 -0.121118D-04
     20 -0.543464D-03 -0.101422D-04  0.145424D-01 -0.450185D-02  0.271671D-01
     21  0.307300D-03  0.112415D-03 -0.614948D-02  0.732612D-03 -0.758802D-02
     22  0.121214D-02 -0.108344D-01  0.347001D-03  0.290683D-03  0.866274D-04
     23 -0.403982D-02  0.242285D-01 -0.447418D-03 -0.602432D-03  0.103518D-02
     24  0.912607D-04 -0.180205D-02 -0.240634D-03  0.255168D-03 -0.619351D-03
     25  0.375416D-02  0.822115D-02 -0.104839D-02  0.980113D-05  0.627555D-03
     26 -0.552083D-02 -0.221436D-01  0.112765D-02 -0.379670D-02 -0.581219D-04
     27  0.303096D-02  0.574077D-02 -0.108397D-02  0.117945D-02  0.538490D-03
     28 -0.119957D+00 -0.604353D-01 -0.148494D-01 -0.161876D-01 -0.922857D-02
     29 -0.183714D+00 -0.665566D-01  0.326493D-02  0.152843D-02 -0.452961D-03
     30 -0.696597D-01 -0.850500D-01  0.110138D-01  0.125474D-01  0.559805D-02
     31  0.772086D-02 -0.542211D-01  0.185691D-02 -0.595132D-02  0.280134D-01
     32 -0.608323D-01  0.476881D-01  0.833877D-03  0.497221D-03 -0.358257D-03
     33  0.498198D-01 -0.301060D+00 -0.302664D-02  0.217439D-02 -0.130892D-01
     34  0.168608D-01  0.195974D-01 -0.485911D-01  0.317416D-02  0.383301D-03
     35  0.332972D-02  0.543753D-02  0.492719D-02 -0.166054D+00 -0.134493D+00
     36 -0.818566D-02 -0.104945D-01  0.271411D-02 -0.137406D+00 -0.204451D+00
     37  0.353961D-02 -0.135765D-01 -0.217537D+00  0.348824D-01 -0.129126D+00
     38  0.970998D-03 -0.127688D-02  0.336003D-01 -0.567398D-01  0.203217D-01
     39 -0.328198D-02  0.858426D-02 -0.130137D+00  0.223360D-01 -0.144150D+00
               16            17            18            19            20 
     16  0.294459D+00
     17  0.114130D+00  0.109279D+00
     18 -0.773484D-03  0.316380D-02  0.563529D-01
     19 -0.994838D-02  0.177726D-02 -0.270882D-01  0.985540D-01
     20 -0.644068D-02  0.238803D-02 -0.126912D-01 -0.906141D-02  0.589438D-01
     21 -0.122584D-02  0.778412D-03  0.128362D-02  0.947048D-01 -0.953196D-02
     22 -0.153994D-03  0.599754D-04  0.799852D-03  0.242223D-04  0.526234D-03
     23 -0.128451D-03  0.148746D-03  0.364803D-03  0.323048D-03  0.416696D-03
     24 -0.311176D-03 -0.147603D-04  0.878421D-05 -0.133131D-02  0.575150D-03
     25 -0.863833D-03  0.502400D-03  0.980218D-03 -0.250303D-03  0.291086D-03
     26 -0.638493D-03  0.760914D-03  0.498941D-03 -0.583164D-04  0.171611D-03
     27  0.359284D-03 -0.251608D-03 -0.186512D-03 -0.349181D-03  0.150885D-04
     28  0.148385D-03 -0.944971D-03  0.234405D-03  0.885526D-04 -0.182654D-03
     29 -0.180233D-03 -0.104025D-03  0.158634D-03 -0.338947D-04  0.130304D-03
     30 -0.526143D-04  0.520407D-03 -0.147554D-03 -0.639815D-04  0.140309D-03
     31  0.118008D-03 -0.643174D-03  0.115461D-03  0.157187D-03 -0.375496D-03
     32 -0.675797D-04 -0.148082D-03  0.939156D-04 -0.467634D-04  0.129317D-03
     33 -0.946515D-05  0.531315D-03 -0.155200D-03 -0.752508D-04  0.903737D-05
     34 -0.985729D-04 -0.730129D-04  0.302465D-03  0.537960D-03  0.422466D-03
     35 -0.249255D-03 -0.162710D-02  0.788764D-03  0.499804D-03  0.151993D-02
     36  0.637661D-03  0.277212D-03 -0.153378D-03 -0.378742D-04 -0.911133D-04
     37  0.116315D-02  0.303637D-03  0.542682D-03  0.106831D-02 -0.686658D-03
     38 -0.388152D-04  0.160551D-02 -0.361993D-03  0.585840D-03 -0.494831D-02
     39  0.447212D-03 -0.334930D-03  0.670345D-03 -0.664371D-04  0.315309D-02
               21            22            23            24            25 
     21  0.283595D+00
     22  0.107777D-02  0.170496D+00
     23  0.875170D-03 -0.736363D-03  0.596026D-01
     24  0.129646D-04  0.131663D+00 -0.811409D-02  0.211080D+00
     25  0.781271D-03  0.111588D-01 -0.655207D-02 -0.174593D-01  0.114389D+00
     26  0.129957D-03  0.187222D-03  0.215120D-02  0.146469D-02 -0.414372D-01
     27  0.798850D-04  0.100970D-01 -0.921848D-02 -0.196054D-01 -0.108590D+00
     28  0.972095D-04  0.127586D-02 -0.345651D-03  0.238193D-03 -0.638079D-03
     29  0.259391D-03 -0.286404D-03  0.143776D-02  0.514161D-03  0.918234D-03
     30 -0.141302D-03  0.475316D-03  0.410743D-03  0.822146D-03  0.140699D-03
     31  0.518618D-04 -0.560947D-03  0.364707D-02 -0.548894D-03  0.453331D-03
     32  0.190562D-04  0.195700D-02 -0.460839D-02  0.100379D-02 -0.442397D-03
     33 -0.675835D-04  0.140706D-03  0.455500D-03  0.121262D-02  0.108728D-03
     34  0.185045D-03 -0.152916D-03  0.187340D-03 -0.158156D-03 -0.272251D-03
     35 -0.247409D-05  0.219534D-03  0.171577D-03  0.756685D-04  0.195997D-03
     36  0.146784D-02  0.226610D-04 -0.931401D-04  0.554693D-04  0.156941D-03
     37  0.669592D-03 -0.354526D-04  0.156565D-03 -0.149837D-03 -0.233609D-03
     38  0.195237D-02  0.204197D-04  0.171819D-03 -0.487512D-04  0.106467D-03
     39 -0.203534D-04  0.000000D+00 -0.328007D-03  0.815429D-04  0.294372D-04
               26            27            28            29            30 
     26  0.889040D-01
     27  0.838454D-01  0.257124D+00
     28  0.333139D-03  0.436026D-03  0.161874D+00
     29 -0.148984D-02  0.517370D-04  0.127802D+00  0.198036D+00
     30 -0.304505D-04  0.260228D-03  0.637999D-01  0.730304D-01  0.879830D-01
     31 -0.572609D-03  0.516698D-04 -0.326243D-02  0.461571D-02 -0.190670D-01
     32  0.154746D-02 -0.204431D-03 -0.413872D-02  0.583822D-02 -0.233798D-01
     33  0.155849D-03  0.144606D-02 -0.202561D-02  0.212347D-02 -0.994638D-02
     34  0.862577D-03 -0.143018D-03  0.190026D-02  0.124841D-03 -0.283856D-03
     35  0.478763D-04 -0.118554D-03  0.429647D-03  0.100435D-02  0.243617D-03
     36 -0.610971D-03  0.116071D-03 -0.495110D-03  0.413246D-03  0.156961D-02
     37  0.778217D-03 -0.901686D-04 -0.289129D-02  0.702351D-03  0.158809D-02
     38 -0.356660D-04 -0.421194D-04 -0.839038D-03  0.137272D-03  0.569197D-03
     39 -0.364638D-03  0.840954D-04  0.206361D-02 -0.469165D-04 -0.290646D-03
               31            32            33            34            35 
     31  0.662886D-01
     32 -0.125493D-01  0.625627D-01
     33  0.549611D-01 -0.536718D-01  0.321464D+00
     34 -0.231037D-02  0.535749D-03  0.189899D-02  0.512789D-01
     35 -0.760172D-03  0.143173D-03  0.876770D-03 -0.440302D-02  0.179111D+00
     36  0.241733D-02 -0.200186D-03 -0.906028D-03 -0.447593D-02  0.145760D+00
     37  0.186864D-02 -0.171193D-03 -0.225871D-03  0.156421D-02 -0.579829D-03
     38  0.271558D-03  0.839844D-03 -0.188744D-03 -0.183327D-01  0.453924D-02
     39  0.479452D-03  0.131285D-03  0.197717D-02 -0.193188D-01  0.453316D-02
               36            37            38            39 
     36  0.217618D+00
     37  0.708900D-03  0.235155D+00
     38 -0.127927D-01 -0.351049D-01  0.591653D-01
     39 -0.135208D-01  0.135263D+00 -0.285215D-01  0.155573D+00
 FormGI is forming the generalized inverse of G from B-inverse, IUseBI=4.
 Leave Link  716 at Mon Aug 25 14:26:41 2025, MaxMem=  4294967296 cpu:               0.1 elap:               0.0
 (Enter /opt/apps/Gaussian/G16C/g16/l103.exe)

 GradGradGradGradGradGradGradGradGradGradGradGradGradGradGradGradGradGrad
 Berny optimization.
 Red2BG is reusing G-inverse.
 Internal  Forces:  Max     0.000000459 RMS     0.000000111
 Search for a local minimum.
 Step number   1 out of a maximum of    2
 All quantities printed in internal units (Hartrees-Bohrs-Radians)
 Second derivative matrix not updated -- analytic derivatives used.
 ITU=  0
     Eigenvalues ---    0.00003   0.00618   0.02366   0.03083   0.04075
     Eigenvalues ---    0.04407   0.04854   0.05054   0.05654   0.06050
     Eigenvalues ---    0.06213   0.06521   0.08042   0.09439   0.09817
     Eigenvalues ---    0.10133   0.10673   0.11202   0.22850   0.23230
     Eigenvalues ---    0.25394   0.25443   0.30513   0.30828   0.32197
     Eigenvalues ---    0.33719   0.34103   0.34195   0.34361   0.34785
     Eigenvalues ---    0.34982   0.35630   0.36658
 Angle between quadratic step and forces=  87.51 degrees.
 Linear search not attempted -- first point.
 Iteration  1 RMS(Cart)=  0.00002621 RMS(Int)=  0.00000000
 Iteration  2 RMS(Cart)=  0.00000000 RMS(Int)=  0.00000000
 ITry= 1 IFail=0 DXMaxC= 8.62D-05 DCOld= 1.00D+10 DXMaxT= 3.00D-01 DXLimC= 3.00D+00 Rises=F
 Variable       Old X    -DE/DX   Delta X   Delta X   Delta X     New X
                                 (Linear)    (Quad)   (Total)
    R1        2.68631  -0.00000   0.00000  -0.00000  -0.00000   2.68631
    R2        2.90387   0.00000   0.00000  -0.00000  -0.00000   2.90387
    R3        2.06497   0.00000   0.00000   0.00000   0.00000   2.06497
    R4        2.08199   0.00000   0.00000   0.00000   0.00000   2.08199
    R5        2.68618   0.00000   0.00000  -0.00000  -0.00000   2.68618
    R6        2.90325   0.00000   0.00000   0.00000   0.00000   2.90325
    R7        2.08205  -0.00000   0.00000  -0.00000  -0.00000   2.08205
    R8        2.06490   0.00000   0.00000   0.00000   0.00000   2.06490
    R9        2.92554   0.00000   0.00000   0.00000   0.00000   2.92554
   R10        2.06716   0.00000   0.00000   0.00000   0.00000   2.06716
   R11        2.06737  -0.00000   0.00000  -0.00000  -0.00000   2.06737
   R12        2.06717  -0.00000   0.00000  -0.00000  -0.00000   2.06717
   R13        2.06731  -0.00000   0.00000  -0.00000  -0.00000   2.06731
    A1        1.84395  -0.00000   0.00000  -0.00000  -0.00000   1.84395
    A2        1.88258  -0.00000   0.00000   0.00000   0.00000   1.88258
    A3        1.91210  -0.00000   0.00000   0.00000   0.00000   1.91210
    A4        1.99094   0.00000   0.00000   0.00000   0.00000   1.99094
    A5        1.93469   0.00000   0.00000   0.00000   0.00000   1.93469
    A6        1.89740  -0.00000   0.00000  -0.00000  -0.00000   1.89740
    A7        1.83869   0.00000   0.00000  -0.00000  -0.00000   1.83869
    A8        1.84324   0.00000   0.00000   0.00000   0.00000   1.84325
    A9        1.91223   0.00000   0.00000   0.00000   0.00000   1.91223
   A10        1.88274   0.00000   0.00000   0.00000   0.00000   1.88274
   A11        1.93462  -0.00000   0.00000  -0.00000  -0.00000   1.93462
   A12        1.99124  -0.00000   0.00000  -0.00000  -0.00000   1.99124
   A13        1.89757   0.00000   0.00000  -0.00000  -0.00000   1.89757
   A14        1.80458  -0.00000   0.00000   0.00000   0.00000   1.80458
   A15        1.94515   0.00000   0.00000  -0.00000  -0.00000   1.94515
   A16        1.93076   0.00000   0.00000   0.00000   0.00000   1.93077
   A17        1.96577   0.00000   0.00000  -0.00000  -0.00000   1.96577
   A18        1.93446   0.00000   0.00000   0.00000   0.00000   1.93446
   A19        1.88339  -0.00000   0.00000  -0.00000  -0.00000   1.88339
   A20        1.80508   0.00000   0.00000  -0.00000  -0.00000   1.80508
   A21        1.94447  -0.00000   0.00000   0.00000   0.00000   1.94448
   A22        1.93147   0.00000   0.00000  -0.00000  -0.00000   1.93147
   A23        1.96537  -0.00000   0.00000  -0.00000  -0.00000   1.96537
   A24        1.93466  -0.00000   0.00000  -0.00000  -0.00000   1.93466
   A25        1.88312   0.00000   0.00000   0.00000   0.00000   1.88312
    D1        0.69950   0.00000   0.00000   0.00002   0.00002   0.69952
    D2        2.83521   0.00000   0.00000   0.00002   0.00002   2.83523
    D3       -1.38541   0.00000   0.00000   0.00002   0.00002  -1.38539
    D4       -0.40966  -0.00000   0.00000  -0.00004  -0.00004  -0.40970
    D5       -2.52507   0.00000   0.00000  -0.00004  -0.00004  -2.52511
    D6        1.66300  -0.00000   0.00000  -0.00004  -0.00004   1.66295
    D7       -2.47436  -0.00000   0.00000  -0.00004  -0.00004  -2.47440
    D8        1.69342   0.00000   0.00000  -0.00004  -0.00004   1.69338
    D9       -0.40170  -0.00000   0.00000  -0.00004  -0.00004  -0.40175
   D10        1.66027  -0.00000   0.00000  -0.00004  -0.00004   1.66023
   D11       -0.45514   0.00000   0.00000  -0.00004  -0.00004  -0.45518
   D12       -2.55026  -0.00000   0.00000  -0.00004  -0.00004  -2.55031
   D13       -0.70287  -0.00000   0.00000   0.00001   0.00001  -0.70286
   D14        1.38162  -0.00000   0.00000   0.00001   0.00001   1.38163
   D15       -2.83863  -0.00000   0.00000   0.00001   0.00001  -2.83861
   D16        0.41802   0.00000   0.00000  -0.00004  -0.00004   0.41798
   D17        2.53395  -0.00000   0.00000  -0.00004  -0.00004   2.53391
   D18       -1.65379  -0.00000   0.00000  -0.00004  -0.00004  -1.65383
   D19       -1.65161  -0.00000   0.00000  -0.00004  -0.00004  -1.65165
   D20        0.46432  -0.00000   0.00000  -0.00004  -0.00004   0.46428
   D21        2.55977  -0.00000   0.00000  -0.00004  -0.00004   2.55973
   D22        2.48262   0.00000   0.00000  -0.00003  -0.00003   2.48259
   D23       -1.68463   0.00000   0.00000  -0.00004  -0.00004  -1.68467
   D24        0.41082   0.00000   0.00000  -0.00004  -0.00004   0.41078
   D25       -0.00490   0.00000   0.00000   0.00004   0.00004  -0.00485
   D26        2.09634  -0.00000   0.00000   0.00005   0.00005   2.09639
   D27       -2.07534  -0.00000   0.00000   0.00005   0.00005  -2.07529
   D28       -2.10685   0.00000   0.00000   0.00005   0.00005  -2.10680
   D29       -0.00561   0.00000   0.00000   0.00005   0.00005  -0.00556
   D30        2.10589  -0.00000   0.00000   0.00005   0.00005   2.10595
   D31        2.06435   0.00000   0.00000   0.00005   0.00005   2.06440
   D32       -2.11760   0.00000   0.00000   0.00005   0.00005  -2.11755
   D33       -0.00610  -0.00000   0.00000   0.00006   0.00006  -0.00604
         Item               Value     Threshold  Converged?
 Maximum Force            0.000000     0.000015     YES
 RMS     Force            0.000000     0.000010     YES
 Maximum Displacement     0.000086     0.000060     NO 
 RMS     Displacement     0.000026     0.000040     YES
 Predicted change in Energy=-4.718886D-12
                           ----------------------------
                           ! Non-Optimized Parameters !
                           ! (Angstroms and Degrees)  !
 --------------------------                            --------------------------
 ! Name  Definition              Value          Derivative Info.                !
 --------------------------------------------------------------------------------
 ! R1    R(1,2)                  1.4215         -DE/DX =    0.0                 !
 ! R2    R(1,5)                  1.5367         -DE/DX =    0.0                 !
 ! R3    R(1,6)                  1.0927         -DE/DX =    0.0                 !
 ! R4    R(1,7)                  1.1017         -DE/DX =    0.0                 !
 ! R5    R(2,3)                  1.4215         -DE/DX =    0.0                 !
 ! R6    R(3,4)                  1.5363         -DE/DX =    0.0                 !
 ! R7    R(3,8)                  1.1018         -DE/DX =    0.0                 !
 ! R8    R(3,9)                  1.0927         -DE/DX =    0.0                 !
 ! R9    R(4,5)                  1.5481         -DE/DX =    0.0                 !
 ! R10   R(4,10)                 1.0939         -DE/DX =    0.0                 !
 ! R11   R(4,11)                 1.094          -DE/DX =    0.0                 !
 ! R12   R(5,12)                 1.0939         -DE/DX =    0.0                 !
 ! R13   R(5,13)                 1.094          -DE/DX =    0.0                 !
 ! A1    A(2,1,5)              105.6505         -DE/DX =    0.0                 !
 ! A2    A(2,1,6)              107.8637         -DE/DX =    0.0                 !
 ! A3    A(2,1,7)              109.5554         -DE/DX =    0.0                 !
 ! A4    A(5,1,6)              114.0724         -DE/DX =    0.0                 !
 ! A5    A(5,1,7)              110.8496         -DE/DX =    0.0                 !
 ! A6    A(6,1,7)              108.7129         -DE/DX =    0.0                 !
 ! A7    A(1,2,3)              105.3491         -DE/DX =    0.0                 !
 ! A8    A(2,3,4)              105.6104         -DE/DX =    0.0                 !
 ! A9    A(2,3,8)              109.5627         -DE/DX =    0.0                 !
 ! A10   A(2,3,9)              107.873          -DE/DX =    0.0                 !
 ! A11   A(4,3,8)              110.8454         -DE/DX =    0.0                 !
 ! A12   A(4,3,9)              114.0895         -DE/DX =    0.0                 !
 ! A13   A(8,3,9)              108.7227         -DE/DX =    0.0                 !
 ! A14   A(3,4,5)              103.3946         -DE/DX =    0.0                 !
 ! A15   A(3,4,10)             111.449          -DE/DX =    0.0                 !
 ! A16   A(3,4,11)             110.625          -DE/DX =    0.0                 !
 ! A17   A(5,4,10)             112.6301         -DE/DX =    0.0                 !
 ! A18   A(5,4,11)             110.8363         -DE/DX =    0.0                 !
 ! A19   A(10,4,11)            107.9105         -DE/DX =    0.0                 !
 ! A20   A(1,5,4)              103.4232         -DE/DX =    0.0                 !
 ! A21   A(1,5,12)             111.4102         -DE/DX =    0.0                 !
 ! A22   A(1,5,13)             110.6648         -DE/DX =    0.0                 !
 ! A23   A(4,5,12)             112.6075         -DE/DX =    0.0                 !
 ! A24   A(4,5,13)             110.8476         -DE/DX =    0.0                 !
 ! A25   A(12,5,13)            107.8949         -DE/DX =    0.0                 !
 ! D1    D(5,1,2,3)             40.0794         -DE/DX =    0.0                 !
 ! D2    D(6,1,2,3)            162.4466         -DE/DX =    0.0                 !
 ! D3    D(7,1,2,3)            -79.3768         -DE/DX =    0.0                 !
 ! D4    D(2,1,5,4)            -23.4739         -DE/DX =    0.0                 !
 ! D5    D(2,1,5,12)          -144.678          -DE/DX =    0.0                 !
 ! D6    D(2,1,5,13)            95.2803         -DE/DX =    0.0                 !
 ! D7    D(6,1,5,4)           -141.7725         -DE/DX =    0.0                 !
 ! D8    D(6,1,5,12)            97.0234         -DE/DX =    0.0                 !
 ! D9    D(6,1,5,13)           -23.0183         -DE/DX =    0.0                 !
 ! D10   D(7,1,5,4)             95.1241         -DE/DX =    0.0                 !
 ! D11   D(7,1,5,12)           -26.08           -DE/DX =    0.0                 !
 ! D12   D(7,1,5,13)          -146.1217         -DE/DX =    0.0                 !
 ! D13   D(1,2,3,4)            -40.2707         -DE/DX =    0.0                 !
 ! D14   D(1,2,3,8)             79.1616         -DE/DX =    0.0                 !
 ! D15   D(1,2,3,9)           -162.6406         -DE/DX =    0.0                 !
 ! D16   D(2,3,4,5)             23.9486         -DE/DX =    0.0                 !
 ! D17   D(2,3,4,10)           145.1824         -DE/DX =    0.0                 !
 ! D18   D(2,3,4,11)           -94.7573         -DE/DX =    0.0                 !
 ! D19   D(8,3,4,5)            -94.6323         -DE/DX =    0.0                 !
 ! D20   D(8,3,4,10)            26.6014         -DE/DX =    0.0                 !
 ! D21   D(8,3,4,11)           146.6618         -DE/DX =    0.0                 !
 ! D22   D(9,3,4,5)            142.2418         -DE/DX =    0.0                 !
 ! D23   D(9,3,4,10)           -96.5245         -DE/DX =    0.0                 !
 ! D24   D(9,3,4,11)            23.5359         -DE/DX =    0.0                 !
 ! D25   D(3,4,5,1)             -0.2779         -DE/DX =    0.0                 !
 ! D26   D(3,4,5,12)           120.1142         -DE/DX =    0.0                 !
 ! D27   D(3,4,5,13)          -118.9056         -DE/DX =    0.0                 !
 ! D28   D(10,4,5,1)          -120.7106         -DE/DX =    0.0                 !
 ! D29   D(10,4,5,12)           -0.3184         -DE/DX =    0.0                 !
 ! D30   D(10,4,5,13)          120.6618         -DE/DX =    0.0                 !
 ! D31   D(11,4,5,1)           118.2814         -DE/DX =    0.0                 !
 ! D32   D(11,4,5,12)         -121.3264         -DE/DX =    0.0                 !
 ! D33   D(11,4,5,13)           -0.3462         -DE/DX =    0.0                 !
 --------------------------------------------------------------------------------
 GradGradGradGradGradGradGradGradGradGradGradGradGradGradGradGradGradGrad

 Leave Link  103 at Mon Aug 25 14:26:41 2025, MaxMem=  4294967296 cpu:               0.1 elap:               0.0
 (Enter /opt/apps/Gaussian/G16C/g16/l9999.exe)

 ----------------------------------------------------------------------

 Electric dipole moment (input orientation):
 (Debye = 10**-18 statcoulomb cm , SI units = C m)
                  (au)            (Debye)         (10**-30 SI)
   Tot        0.872186D+00      0.221688D+01      0.739470D+01
   x          0.747397D-01      0.189969D+00      0.633670D+00
   y          0.841597D+00      0.213913D+01      0.713535D+01
   z          0.216420D+00      0.550084D+00      0.183488D+01

 Dipole polarizability, Alpha (input orientation).
 (esu units = cm**3 , SI units = C**2 m**2 J**-1)
 Alpha(0;0):
               (au)            (10**-24 esu)      (10**-40 SI)
   iso        0.597042D+02      0.884725D+01      0.984389D+01
   aniso      0.679746D+01      0.100728D+01      0.112075D+01
   xx         0.623961D+02      0.924615D+01      0.102877D+02
   yx        -0.145058D+00     -0.214954D-01     -0.239168D-01
   yy         0.571728D+02      0.847213D+01      0.942651D+01
   zx        -0.273959D+01     -0.405965D+00     -0.451697D+00
   zy        -0.101747D+01     -0.150773D+00     -0.167758D+00
   zz         0.595436D+02      0.882345D+01      0.981742D+01

 ----------------------------------------------------------------------

 Dipole orientation:
     6         -3.43748811         -0.91418040          0.56539313
     8         -1.64357129          0.26477353         -1.04959192
     6          0.34536619          1.07125501          0.56573934
     6         -0.95296287          2.09770410          2.95102578
     6         -3.53969897          0.73112456          2.95600235
     1         -5.22899968         -1.02935227         -0.45504991
     1         -2.80282813         -2.84410650          1.02066695
     1          1.56905990         -0.54880623          1.02717669
     1          1.46211184          2.47543788         -0.45650258
     1          0.15958333          1.70078596          4.64745304
     1         -1.20347056          4.14563983          2.81974716
     1         -3.82856957         -0.41708729          4.65050523
     1         -5.09116605          2.09238230          2.83899731

 Electric dipole moment (dipole orientation):
 (Debye = 10**-18 statcoulomb cm , SI units = C m)
                  (au)            (Debye)         (10**-30 SI)
   Tot        0.872186D+00      0.221688D+01      0.739470D+01
   x          0.000000D+00      0.000000D+00      0.000000D+00
   y          0.000000D+00      0.000000D+00      0.000000D+00
   z          0.872186D+00      0.221688D+01      0.739470D+01

 Dipole polarizability, Alpha (dipole orientation).
 (esu units = cm**3 , SI units = C**2 m**2 J**-1)
 Alpha(0;0):
               (au)            (10**-24 esu)      (10**-40 SI)
   iso        0.597042D+02      0.884725D+01      0.984389D+01
   aniso      0.679746D+01      0.100728D+01      0.112075D+01
   xx         0.628266D+02      0.930994D+01      0.103587D+02
   yx         0.238427D+01      0.353313D+00      0.393114D+00
   yy         0.595566D+02      0.882537D+01      0.981955D+01
   zx        -0.298580D+00     -0.442450D-01     -0.492293D-01
   zy         0.563581D+00      0.835141D-01      0.929219D-01
   zz         0.567294D+02      0.840643D+01      0.935341D+01

 ----------------------------------------------------------------------
 Unable to Open any file for archive entry.
 1\1\GINC-NODE04\Freq\RwB97XD\6-31+G(d)\C4H8O1\WHUGHES2\25-Aug-2025\0\\
 #P Geom=AllCheck Guess=TCheck SCRF=Check GenChk RwB97XD/6-31+G(d) Freq
 \\THF\\0,1\C,-1.7506512211,0.2863236825,0.6969150116\O,-0.9215009865,-
 0.4427304203,-0.1984870648\C,0.1697837974,0.4207678478,-0.488377364\C,
 -0.4410403343,1.8222294011,-0.6404204039\C,-1.75369472,1.7317576431,0.
 175332306\H,-2.7353366424,-0.1874089352,0.7029708911\H,-1.3284767397,0
 .2371233421,1.71337097\H,0.8912441628,0.3957171023,0.3439547808\H,0.66
 16816449,0.0483940961,-1.3902465352\H,0.235071837,2.5960987654,-0.2654
 436198\H,-0.6505712137,2.0392631216,-1.6920111864\H,-1.7885663591,2.45
 27846912,0.9972296858\H,-2.6228931152,1.9093839523,-0.4647603012\\Vers
 ion=AS64L-G16RevC.01\HF=-232.393145\RMSD=2.260e-09\RMSF=1.979e-06\Zero
 Point=0.1184231\Thermal=0.123323\ETot=-232.269822\HTot=-232.2688778\GT
 ot=-232.3037708\Dipole=0.0747397,0.8415967,0.2164198\DipoleDeriv=0.578
 6016,-0.1218895,-0.1153472,-0.1845566,0.510932,0.1578926,-0.1662396,0.
 0279931,0.7389343,-1.0390198,-0.01614,0.2743626,-0.0871593,-0.9297374,
 -0.1076118,0.2660258,0.0109762,-0.7769681,0.7839246,0.1109744,-0.02978
 26,0.2509629,0.5583481,-0.0965536,0.0289154,-0.0914561,0.4856292,0.005
 3317,0.1562892,0.0517623,0.0464176,-0.0420069,0.0396056,0.0344766,0.01
 96526,0.1543555,0.0914602,-0.0423562,0.0688746,0.0243106,-0.059835,0.0
 577134,0.081119,0.1482023,0.0809745,-0.1423068,-0.0992572,0.0501249,-0
 .1129824,-0.0122981,0.0310749,0.0026363,-0.016345,0.0465619,-0.0247008
 ,0.0274926,-0.1496866,0.0473806,-0.0024945,0.0122067,-0.0250299,0.0283
 214,-0.2636504,-0.1458353,0.0037217,-0.0909619,-0.0122398,-0.0082238,0
 .0477649,-0.2144237,0.0239572,-0.1393589,-0.0231068,0.0244375,0.078280
 9,0.0694308,0.0080095,-0.0747739,0.1295001,-0.079859,-0.095116,-0.0446
 014,-0.1318777,-0.0202227,-0.1222439,-0.0667024,-0.0167958,-0.055844,-
 0.0668165,0.049896,0.0320728,0.0166274,-0.0423196,0.0112853,0.0418598,
 0.0407899,-0.0095975,0.090074,-0.182012,0.0570576,0.0090383,0.0077448,
 0.047433,-0.0444657,-0.1153483,0.0489912,-0.1426291,-0.0739699,-0.1288
 775,0.0629392,-0.0828296,0.0219613,0.0466145,0.0240353,-0.1205296,0.04
 79288,-0.0252763\Polar=62.3961211,-0.1450581,57.1727595,-2.7395866,-1.
 017467,59.5436253\Quadrupole=0.8320582,-1.0174277,0.1853695,-1.2477344
 ,-1.1997642,-0.1798491\PG=C01 [X(C4H8O1)]\NImag=0\\0.61866306,0.091982
 21,0.46242530,0.02374839,-0.02763713,0.55031929,-0.11750839,0.04841914
 ,0.05606769,0.34827722,0.01352601,-0.11849640,-0.04017044,0.04948534,0
 .33623839,0.04422150,-0.06331052,-0.13127482,-0.13270771,0.06887421,0.
 22685126,-0.04502018,-0.00515879,0.02275601,-0.15574840,-0.04749020,0.
 02596462,0.55743366,0.00360196,0.00873061,0.00377883,-0.08304505,-0.13
 193973,0.01492702,-0.05496323,0.44283931,0.03613139,0.01010371,-0.0147
 2091,0.01403131,-0.00703415,-0.07957187,-0.02337561,0.05733544,0.63214
 532,-0.00350128,-0.02164948,0.00506820,-0.00097897,-0.02211730,0.01211
 016,-0.09545649,0.04678659,-0.00969881,0.48055557,-0.02191755,-0.00785
 048,0.01258648,-0.01315635,-0.04396358,0.01085327,0.04400127,-0.154973
 55,0.01259281,0.08410288,0.53275188,0.01397207,0.01143810,-0.00912542,
 0.00412938,-0.00017325,0.00270864,-0.01214281,0.01311096,-0.08538789,0
 .05998426,-0.01460455,0.58066818,-0.07792222,-0.00105923,-0.00812459,-
 0.00730590,0.01312693,0.00381126,-0.01989731,0.01815680,0.01072858,-0.
 14499112,-0.00779185,0.04626920,0.52393386,-0.00027487,-0.16149396,0.0
 4051988,0.01832973,-0.03929282,-0.00956930,0.01971701,-0.00225674,-0.0
 1360049,-0.00074688,-0.07185117,0.00214936,-0.05549350,0.51280382,-0.0
 0591458,0.04325481,-0.09636518,0.01327651,-0.02157574,0.00433801,0.001
 82606,-0.01467119,0.00128381,0.03646592,0.00598584,-0.10406815,0.06571
 421,0.07354391,0.55718746,-0.26825649,-0.10742667,-0.00521205,-0.02166
 992,-0.00680758,0.00689777,-0.00021614,0.00413406,0.00171865,0.0003083
 2,0.00148694,-0.00036330,0.00501056,0.00222679,-0.00211264,0.29445889,
 -0.11476924,-0.10618550,-0.00102857,0.02289061,0.00928852,-0.00340536,
 0.00180931,-0.00340312,-0.00124927,-0.00025469,-0.00376303,0.00071244,
 -0.02478807,-0.00823994,0.00030091,0.11412996,0.10927908,-0.01400880,-
 0.00533040,-0.05273757,0.02626189,0.00960247,-0.00362639,0.00287031,-0
 .00188909,-0.00186795,0.00125250,0.00046414,-0.00082654,0.00851067,0.0
 0513721,0.00138548,-0.00077348,0.00316380,0.05635287,-0.10156212,0.002
 09237,-0.09521383,0.00693225,0.00216855,0.02817746,0.00392505,0.001586
 23,0.00195594,-0.00052073,0.00014367,-0.00060009,0.00099399,0.00002360
 ,-0.00001211,-0.00994838,0.00177726,-0.02708817,0.09855403,0.00244363,
 -0.05151954,0.01773789,-0.00035363,-0.00108666,-0.02676556,-0.00229381
 ,-0.00109991,0.00029227,0.00116855,-0.00054346,-0.00001014,0.01454237,
 -0.00450185,0.02716713,-0.00644068,0.00238803,-0.01269119,-0.00906141,
 0.05894384,-0.09347983,0.01813343,-0.24925314,0.00693361,-0.01101512,-
 0.03020258,-0.00341730,-0.00263814,0.00072164,-0.00022874,0.00030730,0
 .00011242,-0.00614948,0.00073261,-0.00758802,-0.00122584,0.00077841,0.
 00128362,0.09470483,-0.00953196,0.28359462,0.00211742,-0.00247179,-0.0
 0433318,-0.03294348,-0.01327214,-0.01439157,-0.14625798,0.01229350,-0.
 11480480,-0.00531459,0.00121214,-0.01083441,0.00034700,0.00029068,0.00
 008663,-0.00015399,0.00005998,0.00079985,0.00002422,0.00052623,0.00107
 777,0.17049609,0.00155624,-0.00111048,-0.00261091,-0.02739955,-0.00396
 615,-0.01478276,0.01189781,-0.04977313,0.00777751,0.01784142,-0.004039
 82,0.02422848,-0.00044742,-0.00060243,0.00103518,-0.00012845,0.0001487
 5,0.00036480,0.00032305,0.00041670,0.00087517,-0.00073636,0.05960259,0
 .00103287,0.00009643,0.00257799,0.00498281,-0.00333147,0.01239367,-0.1
 1651417,0.00743276,-0.20621839,-0.00120371,0.00009126,-0.00180205,-0.0
 0024063,0.00025517,-0.00061935,-0.00031118,-0.00001476,0.00000878,-0.0
 0133131,0.00057515,0.00001296,0.13166336,-0.00811409,0.21108002,-0.002
 82699,-0.00352857,0.00095808,-0.01992510,0.00715335,0.02529257,-0.0978
 8736,0.03902877,0.08875257,-0.00205487,0.00375416,0.00822115,-0.001048
 39,0.00000980,0.00062756,-0.00086383,0.00050240,0.00098022,-0.00025030
 ,0.00029109,0.00078127,0.01115876,-0.00655207,-0.01745934,0.11438870,-
 0.00187863,-0.00417980,0.00084929,-0.01671769,0.00756935,0.02235741,0.
 04570653,-0.08612960,-0.08609379,0.01230764,-0.00552083,-0.02214359,0.
 00112765,-0.00379670,-0.00005812,-0.00063849,0.00076091,0.00049894,-0.
 00005832,0.00017161,0.00012996,0.00018722,0.00215120,0.00146469,-0.041
 43723,0.08890402,-0.00026011,0.00253245,0.00154611,0.00667673,-0.00030
 107,-0.00344364,0.09741614,-0.08051885,-0.24369986,-0.00452058,0.00303
 096,0.00574077,-0.00108397,0.00117945,0.00053849,0.00035928,-0.0002516
 1,-0.00018651,-0.00034918,0.00001509,0.00007988,0.01009705,-0.00921848
 ,-0.01960541,-0.10858988,0.08384543,0.25712372,-0.00278456,0.00015508,
 0.00052211,0.00004788,0.00324164,-0.00013865,0.00937286,0.01063401,0.0
 0493175,-0.15028189,-0.11995660,-0.06043526,-0.01484939,-0.01618760,-0
 .00922857,0.00014838,-0.00094497,0.00023441,0.00008855,-0.00018265,0.0
 0009721,0.00127586,-0.00034565,0.00023819,-0.00063808,0.00033314,0.000
 43603,0.16187383,0.00144512,-0.00129028,-0.00164681,-0.00086594,-0.007
 26204,0.00293599,-0.01948326,-0.01425129,-0.01078383,-0.11802316,-0.18
 371443,-0.06655656,0.00326493,0.00152843,-0.00045296,-0.00018023,-0.00
 010403,0.00015863,-0.00003389,0.00013030,0.00025939,-0.00028640,0.0014
 3776,0.00051416,0.00091823,-0.00148984,0.00005174,0.12780172,0.1980355
 8,0.00149773,0.00089207,-0.00071788,0.00143417,0.00162980,-0.00025225,
 0.00190577,0.00308594,0.00031296,-0.06238807,-0.06965971,-0.08504996,0
 .01101382,0.01254737,0.00559805,-0.00005261,0.00052041,-0.00014755,-0.
 00006398,0.00014031,-0.00014130,0.00047532,0.00041074,0.00082215,0.000
 14070,-0.00003045,0.00026023,0.06379990,0.07303045,0.08798297,-0.00314
 348,0.00183730,0.00221377,0.00168449,-0.00026500,-0.00054992,-0.006199
 77,0.00302460,-0.01391715,-0.05695012,0.00772086,-0.05422106,0.0018569
 1,-0.00595132,0.02801338,0.00011801,-0.00064317,0.00011546,0.00015719,
 -0.00037550,0.00005186,-0.00056095,0.00364707,-0.00054889,0.00045333,-
 0.00057261,0.00005167,-0.00326243,0.00461571,-0.01906698,0.06628855,-0
 .00000709,-0.00134385,-0.00045541,-0.00140502,-0.00006245,-0.00063580,
 0.00908764,-0.00456291,0.02996947,0.00641384,-0.06083225,0.04768811,0.
 00083388,0.00049722,-0.00035826,-0.00006758,-0.00014808,0.00009392,-0.
 00004676,0.00012932,0.00001906,0.00195700,-0.00460839,0.00100379,-0.00
 044240,0.00154746,-0.00020443,-0.00413872,0.00583822,-0.02337975,-0.01
 254934,0.06256270,0.00142982,-0.00088724,-0.00054373,0.00076827,0.0006
 2576,0.00006354,-0.00043684,-0.00202416,-0.00039502,-0.05350793,0.0498
 1983,-0.30105979,-0.00302664,0.00217439,-0.01308919,-0.00000947,0.0005
 3131,-0.00015520,-0.00007525,0.00000904,-0.00006758,0.00014071,0.00045
 550,0.00121262,0.00010873,0.00015585,0.00144606,-0.00202561,0.00212347
 ,-0.00994638,0.05496109,-0.05367178,0.32146353,-0.00045032,-0.00051631
 ,-0.00086868,-0.00108035,0.00058369,0.00103476,-0.00173174,0.00057346,
 0.00184645,-0.00059371,0.01686080,0.01959740,-0.04859107,0.00317416,0.
 00038330,-0.00009857,-0.00007301,0.00030246,0.00053796,0.00042247,0.00
 018504,-0.00015292,0.00018734,-0.00015816,-0.00027225,0.00086258,-0.00
 014302,0.00190026,0.00012484,-0.00028386,-0.00231037,0.00053575,0.0018
 9899,0.05127888,0.00027608,-0.01361349,-0.02398268,0.00361830,-0.00706
 908,0.00014676,-0.00218141,-0.00150325,0.00073509,-0.00199286,0.003329
 72,0.00543753,0.00492719,-0.16605405,-0.13449319,-0.00024926,-0.001627
 10,0.00078876,0.00049980,0.00151993,-0.00000247,0.00021953,0.00017158,
 0.00007567,0.00019600,0.00004788,-0.00011855,0.00042965,0.00100435,0.0
 0024362,-0.00076017,0.00014317,0.00087677,-0.00440302,0.17911110,-0.00
 102093,0.00931155,0.00944572,-0.00060233,0.00302350,0.00072615,0.00073
 646,0.00059434,-0.00147307,-0.00076188,-0.00818566,-0.01049447,0.00271
 411,-0.13740561,-0.20445147,0.00063766,0.00027721,-0.00015338,-0.00003
 787,-0.00009111,0.00146784,0.00002266,-0.00009314,0.00005547,0.0001569
 4,-0.00061097,0.00011607,-0.00049511,0.00041325,0.00156961,0.00241733,
 -0.00020019,-0.00090603,-0.00447593,0.14575953,0.21761835,0.00219556,-
 0.00267525,0.00241809,0.00021867,0.00066672,0.00027773,-0.00231619,-0.
 00181169,0.00169973,-0.02022010,0.00353961,-0.01357651,-0.21753693,0.0
 3488238,-0.12912566,0.00116315,0.00030364,0.00054268,0.00106831,-0.000
 68666,0.00066959,-0.00003545,0.00015656,-0.00014984,-0.00023361,0.0007
 7822,-0.00009017,-0.00289129,0.00070235,0.00158809,0.00186864,-0.00017
 119,-0.00022587,0.00156421,-0.00057983,0.00070890,0.23515503,0.0240161
 4,-0.00407214,0.02205958,0.00020012,0.00004266,-0.00162537,-0.00064887
 ,-0.00167670,-0.00004478,-0.00383657,0.00097100,-0.00127688,0.03360034
 ,-0.05673980,0.02032168,-0.00003882,0.00160551,-0.00036199,0.00058584,
 -0.00494831,0.00195237,0.00002042,0.00017182,-0.00004875,0.00010647,-0
 .00003567,-0.00004212,-0.00083904,0.00013727,0.00056920,0.00027156,0.0
 0083984,-0.00018874,-0.01833274,0.00453924,-0.01279270,-0.03510486,0.0
 5916526,-0.00734953,0.00140274,-0.00915045,-0.00125232,-0.00015451,0.0
 0129027,0.00241135,0.00147614,-0.00112876,0.01742868,-0.00328198,0.008
 58426,-0.13013653,0.02233605,-0.14414996,0.00044721,-0.00033493,0.0006
 7035,-0.00006644,0.00315309,-0.00002035,0.00000062,-0.00032801,0.00008
 154,0.00002944,-0.00036464,0.00008410,0.00206361,-0.00004692,-0.000290
 65,0.00047945,0.00013128,0.00197717,-0.01931877,0.00453316,-0.01352080
 ,0.13526323,-0.02852148,0.15557329\\0.00000186,-0.00000176,0.00000030,
 0.00000247,-0.00000011,-0.00000093,0.00000074,0.00000264,-0.00000214,-
 0.00000237,0.00000103,0.00000057,-0.00000012,-0.00000146,0.00000136,0.
 00000278,-0.00000329,0.00000102,0.00000316,-0.00000180,-0.00000014,0.0
 0000150,0.00000252,-0.00000210,0.00000004,0.00000340,-0.00000225,-0.00
 000291,0.00000200,-0.00000022,-0.00000350,0.00000147,0.00000036,-0.000
 00148,-0.00000213,0.00000187,-0.00000217,-0.00000252,0.00000230\\\@
 The archive entry for this job was punched.


 MISERY NO LONGER LOVES COMPANY.  NOWADAYS IT INSISTS ON IT.

                                              -- BAKER'S LAW
 Job cpu time:       0 days  0 hours  5 minutes  6.8 seconds.
 Elapsed time:       0 days  0 hours  0 minutes 21.3 seconds.
 File lengths (MBytes):  RWF=     46 Int=      0 D2E=      0 Chk=      6 Scr=      1
 Normal termination of Gaussian 16 at Mon Aug 25 14:26:41 2025.
