 Entering Gaussian System, Link 0=g16
 Initial command:
 /opt/packages/gaussian/g16RevC.01/g16/l1.exe "/ocean/projects/che180035p/whughes/Scratch/thf-sp-tzpop_34652392-ntQn/Gau-32106.inp" -scrdir="/ocean/projects/che180035p/whughes/Scratch/thf-sp-tzpop_34652392-ntQn/"
 Entering Link 1 = /opt/packages/gaussian/g16RevC.01/g16/l1.exe PID=     32107.
  
 Copyright (c) 1988-2019, Gaussian, Inc.  All Rights Reserved.
  
 This is part of the Gaussian(R) 16 program.  It is based on
 the Gaussian(R) 09 system (copyright 2009, Gaussian, Inc.),
 the Gaussian(R) 03 system (copyright 2003, Gaussian, Inc.),
 the Gaussian(R) 98 system (copyright 1998, Gaussian, Inc.),
 the Gaussian(R) 94 system (copyright 1995, Gaussian, Inc.),
 the Gaussian 92(TM) system (copyright 1992, Gaussian, Inc.),
 the Gaussian 90(TM) system (copyright 1990, Gaussian, Inc.),
 the Gaussian 88(TM) system (copyright 1988, Gaussian, Inc.),
 the Gaussian 86(TM) system (copyright 1986, Carnegie Mellon
 University), and the Gaussian 82(TM) system (copyright 1983,
 Carnegie Mellon University). Gaussian is a federally registered
 trademark of Gaussian, Inc.
  
 This software contains proprietary and confidential information,
 including trade secrets, belonging to Gaussian, Inc.
  
 This software is provided under written license and may be
 used, copied, transmitted, or stored only in accord with that
 written license.
  
 The following legend is applicable only to US Government
 contracts under FAR:
  
                    RESTRICTED RIGHTS LEGEND
  
 Use, reproduction and disclosure by the US Government is
 subject to restrictions as set forth in subparagraphs (a)
 and (c) of the Commercial Computer Software - Restricted
 Rights clause in FAR 52.227-19.
  
 Gaussian, Inc.
 340 Quinnipiac St., Bldg. 40, Wallingford CT 06492
  
  
 ---------------------------------------------------------------
 Warning -- This program may not be used in any manner that
 competes with the business of Gaussian, Inc. or will provide
 assistance to any competitor of Gaussian, Inc.  The licensee
 of this program is prohibited from giving any competitor of
 Gaussian, Inc. access to this program.  By using this program,
 the user acknowledges that Gaussian, Inc. is engaged in the
 business of creating and licensing software in the field of
 computational chemistry and represents and warrants to the
 licensee that it is not a competitor of Gaussian, Inc. and that
 it will not use this program in any manner prohibited above.
 ---------------------------------------------------------------
  

 Cite this work as:
 Gaussian 16, Revision C.01,
 M. J. Frisch, G. W. Trucks, H. B. Schlegel, G. E. Scuseria, 
 M. A. Robb, J. R. Cheeseman, G. Scalmani, V. Barone, 
 G. A. Petersson, H. Nakatsuji, X. Li, M. Caricato, A. V. Marenich, 
 J. Bloino, B. G. Janesko, R. Gomperts, B. Mennucci, H. P. Hratchian, 
 J. V. Ortiz, A. F. Izmaylov, J. L. Sonnenberg, D. Williams-Young, 
 F. Ding, F. Lipparini, F. Egidi, J. Goings, B. Peng, A. Petrone, 
 T. Henderson, D. Ranasinghe, V. G. Zakrzewski, J. Gao, N. Rega, 
 G. Zheng, W. Liang, M. Hada, M. Ehara, K. Toyota, R. Fukuda, 
 J. Hasegawa, M. Ishida, T. Nakajima, Y. Honda, O. Kitao, H. Nakai, 
 T. Vreven, K. Throssell, J. A. Montgomery, Jr., J. E. Peralta, 
 F. Ogliaro, M. J. Bearpark, J. J. Heyd, E. N. Brothers, K. N. Kudin, 
 V. N. Staroverov, T. A. Keith, R. Kobayashi, J. Normand, 
 K. Raghavachari, A. P. Rendell, J. C. Burant, S. S. Iyengar, 
 J. Tomasi, M. Cossi, J. M. Millam, M. Klene, C. Adamo, R. Cammi, 
 J. W. Ochterski, R. L. Martin, K. Morokuma, O. Farkas, 
 J. B. Foresman, and D. J. Fox, Gaussian, Inc., Wallingford CT, 2019.
 
 ******************************************
 Gaussian 16:  ES64L-G16RevC.01  3-Jul-2019
                 8-Sep-2025 
 ******************************************
 %nproc=16
 Will use up to   16 processors via shared memory.
 %mem=32gb
 %chk=thf-sp-tzpop.chk
 ----------------------------------------------------------------------
 #p wb97xd/6-311++g** nosymm int=ultrafine scrf=(smd,solvent=tetrahydro
 furan)
 ----------------------------------------------------------------------
 1/38=1,172=1/1;
 2/12=2,15=1,17=6,18=5,40=1/2;
 3/5=4,6=6,7=1111,11=2,25=1,30=1,70=32201,72=20,74=-58,75=-5/1,2,3;
 4//1;
 5/5=2,38=5,53=20/2;
 6/7=2,8=2,9=2,10=2,28=1/1;
 99/5=1,9=1/99;
 Leave Link    1 at Mon Sep  8 14:52:34 2025, MaxMem=  4294967296 cpu:               5.8 elap:               0.4
 (Enter /opt/packages/gaussian/g16RevC.01/g16/l101.exe)
 -----
 Title
 -----
 Symbolic Z-matrix:
 Charge =  0 Multiplicity = 1
 6                    -1.75065   0.28632   0.69692 
 8                    -0.9215   -0.44273  -0.19849 
 6                     0.16978   0.42077  -0.48838 
 6                    -0.44104   1.82223  -0.64042 
 6                    -1.7537    1.73176   0.17533 
 1                    -2.73534  -0.18741   0.70297 
 1                    -1.32848   0.23712   1.71337 
 1                     0.89124   0.39572   0.34396 
 1                     0.66168   0.04839  -1.39025 
 1                     0.23507   2.5961   -0.26544 
 1                    -0.65057   2.03926  -1.69201 
 1                    -1.78857   2.45279   0.99723 
 1                    -2.62289   1.90938  -0.46476 
 
 ITRead=  0  0  0  0  0  0  0  0  0  0  0  0  0
 MicOpt= -1 -1 -1 -1 -1 -1 -1 -1 -1 -1 -1 -1 -1
 NAtoms=     13 NQM=       13 NQMF=       0 NMMI=      0 NMMIF=      0
                NMic=       0 NMicF=      0.
                    Isotopes and Nuclear Properties:
 (Nuclear quadrupole moments (NQMom) in fm**2, nuclear magnetic moments (NMagM)
  in nuclear magnetons)

  Atom         1           2           3           4           5           6           7           8           9          10
 IAtWgt=          12          16          12          12          12           1           1           1           1           1
 AtmWgt=  12.0000000  15.9949146  12.0000000  12.0000000  12.0000000   1.0078250   1.0078250   1.0078250   1.0078250   1.0078250
 NucSpn=           0           0           0           0           0           1           1           1           1           1
 AtZEff=  -0.0000000  -0.0000000  -0.0000000  -0.0000000  -0.0000000  -0.0000000  -0.0000000  -0.0000000  -0.0000000  -0.0000000
 NQMom=    0.0000000   0.0000000   0.0000000   0.0000000   0.0000000   0.0000000   0.0000000   0.0000000   0.0000000   0.0000000
 NMagM=    0.0000000   0.0000000   0.0000000   0.0000000   0.0000000   2.7928460   2.7928460   2.7928460   2.7928460   2.7928460
 AtZNuc=   6.0000000   8.0000000   6.0000000   6.0000000   6.0000000   1.0000000   1.0000000   1.0000000   1.0000000   1.0000000

  Atom        11          12          13
 IAtWgt=           1           1           1
 AtmWgt=   1.0078250   1.0078250   1.0078250
 NucSpn=           1           1           1
 AtZEff=  -0.0000000  -0.0000000  -0.0000000
 NQMom=    0.0000000   0.0000000   0.0000000
 NMagM=    2.7928460   2.7928460   2.7928460
 AtZNuc=   1.0000000   1.0000000   1.0000000
 Leave Link  101 at Mon Sep  8 14:52:34 2025, MaxMem=  4294967296 cpu:               0.8 elap:               0.1
 (Enter /opt/packages/gaussian/g16RevC.01/g16/l202.exe)
                          Input orientation:                          
 ---------------------------------------------------------------------
 Center     Atomic      Atomic             Coordinates (Angstroms)
 Number     Number       Type             X           Y           Z
 ---------------------------------------------------------------------
      1          6           0       -1.750651    0.286324    0.696915
      2          8           0       -0.921501   -0.442730   -0.198487
      3          6           0        0.169784    0.420768   -0.488377
      4          6           0       -0.441040    1.822229   -0.640420
      5          6           0       -1.753695    1.731758    0.175332
      6          1           0       -2.735337   -0.187409    0.702971
      7          1           0       -1.328477    0.237123    1.713371
      8          1           0        0.891244    0.395717    0.343955
      9          1           0        0.661682    0.048394   -1.390247
     10          1           0        0.235072    2.596099   -0.265444
     11          1           0       -0.650571    2.039263   -1.692011
     12          1           0       -1.788566    2.452785    0.997230
     13          1           0       -2.622893    1.909384   -0.464760
 ---------------------------------------------------------------------
                    Distance matrix (angstroms):
                    1          2          3          4          5
     1  C    0.000000
     2  O    1.421532   0.000000
     3  C    2.260766   1.421467   0.000000
     4  C    2.421270   2.357157   1.536332   0.000000
     5  C    1.536664   2.358111   2.420532   1.548128   0.000000
     6  H    1.092733   2.041523   3.198268   3.332738   2.219285
     7  H    1.101742   2.069548   2.669495   2.973287   2.186392
     8  H    2.667613   2.069609   1.101775   2.186072   2.968020
     9  H    3.198782   2.041559   1.092701   2.219173   3.334486
    10  H    3.194416   3.252173   2.187699   1.093896   2.212818
    11  H    3.160686   2.909348   2.177440   1.094007   2.190528
    12  H    2.187505   3.250469   3.189241   2.212538   1.093898
    13  H    2.178215   2.915146   3.164740   2.190647   1.093972
                    6          7          8          9         10
     6  H    0.000000
     7  H    1.783365   0.000000
     8  H    3.690666   2.612970   0.000000
     9  H    3.997112   3.691720   1.783477   0.000000
    10  H    4.184385   3.453283   2.375628   2.817442   0.000000
    11  H    3.878177   3.912019   3.037037   2.403462   1.769046
    12  H    2.820211   2.373541   3.440883   4.181490   2.389560
    13  H    2.402661   3.035823   3.910801   3.886932   2.946060
                   11         12         13
    11  H    0.000000
    12  H    2.949246   0.000000
    13  H    2.326600   1.768842   0.000000
 Symmetry turned off by external request.
 Stoichiometry    C4H8O
 Framework group  C1[X(C4H8O)]
 Deg. of freedom    33
 Full point group                 C1      NOp   1
 Rotational constants (GHZ):           7.1514679           6.9424977           3.9978431
 Leave Link  202 at Mon Sep  8 14:52:34 2025, MaxMem=  4294967296 cpu:               0.2 elap:               0.0
 (Enter /opt/packages/gaussian/g16RevC.01/g16/l301.exe)
 Standard basis: 6-311++G(d,p) (5D, 7F)
 Ernie: Thresh=  0.10000D-02 Tol=  0.10000D-05 Strict=F.
   166 basis functions,   252 primitive gaussians,   171 cartesian basis functions
    20 alpha electrons       20 beta electrons
       nuclear repulsion energy       190.5795201001 Hartrees.
 IExCor= 4639 DFT=T Ex+Corr=wB97XD ExCW=0 ScaHFX=  1.000000
 ScaDFX=  1.000000  1.000000  1.000000  1.000000 ScalE2=  1.000000  1.000000
 IRadAn=      5 IRanWt=     -1 IRanGd=            0 ICorTp=0 IEmpDi=121
 HFx  wShort=  0.000000 wLong=  0.200000 cFull=  0.222036 cShort=  0.000000 cLong=  0.777964
 DFx  wShort=  0.000000 wLong=  0.200000 cFull=  0.000000 cShort=  0.000000 cLong=  1.000000
 NAtoms=   13 NActive=   13 NUniq=   13 SFac= 1.00D+00 NAtFMM=   60 NAOKFM=F Big=F
 Integral buffers will be    131072 words long.
 Raffenetti 2 integral format.
 Two-electron integral symmetry is turned off.
 R6Disp:  Grimme-D2 Dispersion energy=       -0.0056519258 Hartrees.
 Nuclear repulsion after empirical dispersion term =      190.5738681743 Hartrees.
 ------------------------------------------------------------------------------
 Polarizable Continuum Model (PCM)
 =================================
 Model                : PCM.
 Atomic radii         : SMD-Coulomb.
 Polarization charges : Total charges.
 Charge compensation  : None.
 Solution method      : On-the-fly selection.
 Cavity type          : VdW (van der Waals Surface) (Alpha=1.000).
 Cavity algorithm     : GePol (No added spheres)
                        Default sphere list used, NSphG=   13.
                        Lebedev-Laikov grids with approx.  5.0 points / Ang**2.
                        Smoothing algorithm: York/Karplus (Gamma=1.0000).
                        Polarization charges: spherical gaussians, with
                                              point-specific exponents (IZeta= 3).
                        Self-potential: point-specific (ISelfS= 7).
                        Self-field    : sphere-specific E.n sum rule (ISelfD= 2).
 Solvent              : TetraHydroFuran, Eps=   7.425700 Eps(inf)=   1.974025
 ------------------------------------------------------------------------------
 Spheres list:
 ISph  on   Nord     Re0    Alpha      Xe            Ye            Ze
    1   C      1    1.8500  1.000     -1.750651      0.286324      0.696915
    2   O      2    2.2940  1.000     -0.921501     -0.442730     -0.198487
    3   C      3    1.8500  1.000      0.169784      0.420768     -0.488377
    4   C      4    1.8500  1.000     -0.441040      1.822229     -0.640420
    5   C      5    1.8500  1.000     -1.753695      1.731758      0.175332
    6   H      6    1.2000  1.000     -2.735337     -0.187409      0.702971
    7   H      7    1.2000  1.000     -1.328477      0.237123      1.713371
    8   H      8    1.2000  1.000      0.891244      0.395717      0.343955
    9   H      9    1.2000  1.000      0.661682      0.048394     -1.390247
   10   H     10    1.2000  1.000      0.235072      2.596099     -0.265444
   11   H     11    1.2000  1.000     -0.650571      2.039263     -1.692011
   12   H     12    1.2000  1.000     -1.788566      2.452785      0.997230
   13   H     13    1.2000  1.000     -2.622893      1.909384     -0.464760
 ------------------------------------------------------------------------------
 GePol: Number of generator spheres                  =      13
 GePol: Total number of spheres                      =      13
 GePol: Number of exposed spheres                    =      13 (100.00%)
 GePol: Number of points                             =     977
 GePol: Average weight of points                     =       0.12
 GePol: Minimum weight of points                     =   0.42D-08
 GePol: Maximum weight of points                     =    0.17992
 GePol: Number of points with low weight             =      45
 GePol: Fraction of low-weight points (<1% of avg)   =       4.61%
 GePol: Cavity surface area                          =    115.908 Ang**2
 GePol: Cavity volume                                =     98.753 Ang**3
 ------------------------------------------------------------------------------
 Atomic radii for non-electrostatic terms: SMD-CDS.
 ------------------------------------------------------------------------------
 PCM non-electrostatic energy =        -0.0025661316 Hartrees.
 Nuclear repulsion after PCM non-electrostatic terms =      190.5713020427 Hartrees.
 Leave Link  301 at Mon Sep  8 14:52:34 2025, MaxMem=  4294967296 cpu:               1.2 elap:               0.1
 (Enter /opt/packages/gaussian/g16RevC.01/g16/l302.exe)
 NPDir=0 NMtPBC=     1 NCelOv=     1 NCel=       1 NClECP=     1 NCelD=      1
         NCelK=      1 NCelE2=     1 NClLst=     1 CellRange=     0.0.
 One-electron integrals computed using PRISM.
 NBasis=   166 RedAO= T EigKep=  9.60D-06  NBF=   166
 NBsUse=   166 1.00D-06 EigRej= -1.00D+00 NBFU=   166
 Precomputing XC quadrature grid using
 IXCGrd= 4 IRadAn=           5 IRanWt=          -1 IRanGd=           0 AccXCQ= 0.00D+00.
 Generated NRdTot=       0 NPtTot=           0 NUsed=           0 NTot=          32
 NSgBfM=   171   171   171   171   171 MxSgAt=    13 MxSgA2=    13.
 Leave Link  302 at Mon Sep  8 14:52:34 2025, MaxMem=  4294967296 cpu:               2.0 elap:               0.2
 (Enter /opt/packages/gaussian/g16RevC.01/g16/l303.exe)
 DipDrv:  MaxL=1.
 Leave Link  303 at Mon Sep  8 14:52:35 2025, MaxMem=  4294967296 cpu:               0.3 elap:               0.1
 (Enter /opt/packages/gaussian/g16RevC.01/g16/l401.exe)
 ExpMin= 3.60D-02 ExpMax= 8.59D+03 ExpMxC= 1.30D+03 IAcc=3 IRadAn=         5 AccDes= 0.00D+00
 Harris functional with IExCor= 4639 and IRadAn=       5 diagonalized for initial guess.
 HarFok:  IExCor= 4639 AccDes= 0.00D+00 IRadAn=         5 IDoV= 1 UseB2=F ITyADJ=14
 ICtDFT=  3500011 ScaDFX=  1.000000  1.000000  1.000000  1.000000
 FoFCou: FMM=F IPFlag=           0 FMFlag=      100000 FMFlg1=           0
         NFxFlg=           0 DoJE=T BraDBF=F KetDBF=T FulRan=T
         wScrn=  0.000000 ICntrl=       500 IOpCl=  0 I1Cent=   200000004 NGrid=           0
         NMat0=    1 NMatS0=      1 NMatT0=    0 NMatD0=    1 NMtDS0=    0 NMtDT0=    0
 Symmetry not used in FoFCou.
 Harris En= -222.109701106916    
 JPrj=0 DoOrth=F DoCkMO=F.
 Leave Link  401 at Mon Sep  8 14:52:35 2025, MaxMem=  4294967296 cpu:               4.3 elap:               0.3
 (Enter /opt/packages/gaussian/g16RevC.01/g16/l502.exe)
 Two-electron integral symmetry not used.
 Closed shell SCF:
 Using DIIS extrapolation, IDIIS=  1040.
 NGot=  4294967296 LenX=  4294904355 LenY=  4294874673
 Requested convergence on RMS density matrix=1.00D-08 within 128 cycles.
 Requested convergence on MAX density matrix=1.00D-06.
 Requested convergence on             energy=1.00D-06.
 No special actions if energy rises.
 Fock matrices will be formed incrementally for  20 cycles.

 Cycle   1  Pass 1  IDiag  1:
 FoFJK:  IHMeth= 1 ICntrl=       0 DoSepK=T KAlg= 0 I1Cent=           0 FoldK=F
 IRaf=         1 NMat=       1 IRICut=       1 DoRegI=T DoRafI=F ISym2E= 0 IDoP0=0 IntGTp=1.
 FoFCou: FMM=F IPFlag=           0 FMFlag=      100000 FMFlg1=           0
         NFxFlg=           0 DoJE=T BraDBF=F KetDBF=F FulRan=T
         wScrn=  0.000000 ICntrl=       500 IOpCl=  0 I1Cent=           0 NGrid=           0
         NMat0=    1 NMatS0=      1 NMatT0=    0 NMatD0=    1 NMtDS0=    0 NMtDT0=    0
 Symmetry not used in FoFCou.
 Inv3:  Mode=1 IEnd=     2863587.
 Iteration    1 A*A^-1 deviation from unit magnitude is 3.00D-15 for    325.
 Iteration    1 A*A^-1 deviation from orthogonality  is 1.73D-15 for    652     79.
 Iteration    1 A^-1*A deviation from unit magnitude is 2.89D-15 for    211.
 Iteration    1 A^-1*A deviation from orthogonality  is 1.38D-15 for    389    362.
 E= -232.375824391037    
 DIIS: error= 7.37D-02 at cycle   1 NSaved=   1.
 NSaved= 1 IEnMin= 1 EnMin= -232.375824391037     IErMin= 1 ErrMin= 7.37D-02
 ErrMax= 7.37D-02  0.00D+00 EMaxC= 1.00D-01 BMatC= 5.00D-01 BMatP= 5.00D-01
 IDIUse=3 WtCom= 2.63D-01 WtEn= 7.37D-01
 Coeff-Com:  0.100D+01
 Coeff-En:   0.100D+01
 Coeff:      0.100D+01
 Gap=     0.473 Goal=   None    Shift=    0.000
 GapD=    0.473 DampG=2.000 DampE=0.500 DampFc=1.0000 IDamp=-1.
 RMSDP=3.45D-03 MaxDP=8.81D-02              OVMax= 7.11D-02

 Cycle   2  Pass 1  IDiag  1:
 RMSU=  3.02D-03    CP:  8.99D-01
 E= -232.397499137846     Delta-E=       -0.021674746808 Rises=F Damp=F
 DIIS: error= 2.75D-02 at cycle   2 NSaved=   2.
 NSaved= 2 IEnMin= 2 EnMin= -232.397499137846     IErMin= 2 ErrMin= 2.75D-02
 ErrMax= 2.75D-02  0.00D+00 EMaxC= 1.00D-01 BMatC= 8.14D-02 BMatP= 5.00D-01
 IDIUse=3 WtCom= 7.25D-01 WtEn= 2.75D-01
 Coeff-Com:  0.223D+00 0.777D+00
 Coeff-En:   0.385D+00 0.615D+00
 Coeff:      0.267D+00 0.733D+00
 Gap=     0.456 Goal=   None    Shift=    0.000
 RMSDP=1.58D-03 MaxDP=7.25D-02 DE=-2.17D-02 OVMax= 8.66D-02

 Cycle   3  Pass 1  IDiag  1:
 RMSU=  1.37D-03    CP:  8.95D-01  7.42D-01
 E= -232.427347672730     Delta-E=       -0.029848534885 Rises=F Damp=F
 DIIS: error= 1.81D-02 at cycle   3 NSaved=   3.
 NSaved= 3 IEnMin= 3 EnMin= -232.427347672730     IErMin= 3 ErrMin= 1.81D-02
 ErrMax= 1.81D-02  0.00D+00 EMaxC= 1.00D-01 BMatC= 3.23D-02 BMatP= 8.14D-02
 IDIUse=3 WtCom= 8.19D-01 WtEn= 1.81D-01
 Coeff-Com:  0.233D-01 0.390D+00 0.587D+00
 Coeff-En:   0.000D+00 0.303D+00 0.697D+00
 Coeff:      0.191D-01 0.374D+00 0.607D+00
 Gap=     0.394 Goal=   None    Shift=    0.000
 RMSDP=7.10D-04 MaxDP=3.07D-02 DE=-2.98D-02 OVMax= 3.82D-02

 Cycle   4  Pass 1  IDiag  1:
 RMSU=  2.84D-04    CP:  8.86D-01  8.99D-01  6.95D-01
 E= -232.448505373689     Delta-E=       -0.021157700959 Rises=F Damp=F
 DIIS: error= 1.68D-03 at cycle   4 NSaved=   4.
 NSaved= 4 IEnMin= 4 EnMin= -232.448505373689     IErMin= 4 ErrMin= 1.68D-03
 ErrMax= 1.68D-03  0.00D+00 EMaxC= 1.00D-01 BMatC= 3.06D-04 BMatP= 3.23D-02
 IDIUse=3 WtCom= 9.83D-01 WtEn= 1.68D-02
 Coeff-Com:  0.454D-02 0.796D-01 0.180D+00 0.736D+00
 Coeff-En:   0.000D+00 0.000D+00 0.000D+00 0.100D+01
 Coeff:      0.446D-02 0.783D-01 0.177D+00 0.740D+00
 Gap=     0.387 Goal=   None    Shift=    0.000
 RMSDP=9.10D-05 MaxDP=2.39D-03 DE=-2.12D-02 OVMax= 2.77D-03

 Cycle   5  Pass 1  IDiag  1:
 RMSU=  6.37D-05    CP:  8.85D-01  9.03D-01  7.36D-01  1.04D+00
 E= -232.448703506542     Delta-E=       -0.000198132853 Rises=F Damp=F
 DIIS: error= 3.17D-04 at cycle   5 NSaved=   5.
 NSaved= 5 IEnMin= 5 EnMin= -232.448703506542     IErMin= 5 ErrMin= 3.17D-04
 ErrMax= 3.17D-04  0.00D+00 EMaxC= 1.00D-01 BMatC= 1.41D-05 BMatP= 3.06D-04
 IDIUse=3 WtCom= 9.97D-01 WtEn= 3.17D-03
 Coeff-Com: -0.122D-02-0.198D-01-0.625D-02 0.244D+00 0.784D+00
 Coeff-En:   0.000D+00 0.000D+00 0.000D+00 0.000D+00 0.100D+01
 Coeff:     -0.122D-02-0.198D-01-0.623D-02 0.243D+00 0.784D+00
 Gap=     0.386 Goal=   None    Shift=    0.000
 RMSDP=4.82D-05 MaxDP=1.34D-03 DE=-1.98D-04 OVMax= 9.55D-04

 Cycle   6  Pass 1  IDiag  1:
 RMSU=  2.19D-05    CP:  8.84D-01  9.06D-01  7.52D-01  1.15D+00  1.04D+00
 E= -232.448718660214     Delta-E=       -0.000015153671 Rises=F Damp=F
 DIIS: error= 2.87D-05 at cycle   6 NSaved=   6.
 NSaved= 6 IEnMin= 6 EnMin= -232.448718660214     IErMin= 6 ErrMin= 2.87D-05
 ErrMax= 2.87D-05  0.00D+00 EMaxC= 1.00D-01 BMatC= 1.69D-07 BMatP= 1.41D-05
 IDIUse=1 WtCom= 1.00D+00 WtEn= 0.00D+00
 Coeff-Com: -0.237D-03-0.406D-02-0.785D-02-0.223D-01 0.184D-01 0.102D+01
 Coeff:     -0.237D-03-0.406D-02-0.785D-02-0.223D-01 0.184D-01 0.102D+01
 Gap=     0.386 Goal=   None    Shift=    0.000
 RMSDP=1.65D-05 MaxDP=5.29D-04 DE=-1.52D-05 OVMax= 4.42D-04

 Cycle   7  Pass 1  IDiag  1:
 RMSU=  3.99D-06    CP:  8.83D-01  9.07D-01  7.55D-01  1.19D+00  1.13D+00
                    CP:  1.22D+00
 E= -232.448719102253     Delta-E=       -0.000000442039 Rises=F Damp=F
 DIIS: error= 8.62D-06 at cycle   7 NSaved=   7.
 NSaved= 7 IEnMin= 7 EnMin= -232.448719102253     IErMin= 7 ErrMin= 8.62D-06
 ErrMax= 8.62D-06  0.00D+00 EMaxC= 1.00D-01 BMatC= 1.18D-08 BMatP= 1.69D-07
 IDIUse=1 WtCom= 1.00D+00 WtEn= 0.00D+00
 Coeff-Com:  0.177D-04 0.331D-03-0.771D-03-0.145D-01-0.392D-01 0.115D+00
 Coeff-Com:  0.939D+00
 Coeff:      0.177D-04 0.331D-03-0.771D-03-0.145D-01-0.392D-01 0.115D+00
 Coeff:      0.939D+00
 Gap=     0.386 Goal=   None    Shift=    0.000
 RMSDP=3.74D-06 MaxDP=9.49D-05 DE=-4.42D-07 OVMax= 1.23D-04

 Cycle   8  Pass 1  IDiag  1:
 RMSU=  1.00D-06    CP:  8.83D-01  9.08D-01  7.56D-01  1.20D+00  1.14D+00
                    CP:  1.32D+00  1.33D+00
 E= -232.448719128992     Delta-E=       -0.000000026739 Rises=F Damp=F
 DIIS: error= 3.64D-06 at cycle   8 NSaved=   8.
 NSaved= 8 IEnMin= 8 EnMin= -232.448719128992     IErMin= 8 ErrMin= 3.64D-06
 ErrMax= 3.64D-06  0.00D+00 EMaxC= 1.00D-01 BMatC= 1.61D-09 BMatP= 1.18D-08
 IDIUse=1 WtCom= 1.00D+00 WtEn= 0.00D+00
 Coeff-Com:  0.140D-04 0.170D-03 0.131D-03-0.196D-02-0.920D-02-0.239D-01
 Coeff-Com:  0.233D+00 0.802D+00
 Coeff:      0.140D-04 0.170D-03 0.131D-03-0.196D-02-0.920D-02-0.239D-01
 Coeff:      0.233D+00 0.802D+00
 Gap=     0.386 Goal=   None    Shift=    0.000
 RMSDP=9.18D-07 MaxDP=2.19D-05 DE=-2.67D-08 OVMax= 2.28D-05

 Cycle   9  Pass 1  IDiag  1:
 RMSU=  3.52D-07    CP:  8.83D-01  9.07D-01  7.56D-01  1.20D+00  1.14D+00
                    CP:  1.34D+00  1.46D+00  1.16D+00
 E= -232.448719131343     Delta-E=       -0.000000002350 Rises=F Damp=F
 DIIS: error= 1.02D-06 at cycle   9 NSaved=   9.
 NSaved= 9 IEnMin= 9 EnMin= -232.448719131343     IErMin= 9 ErrMin= 1.02D-06
 ErrMax= 1.02D-06  0.00D+00 EMaxC= 1.00D-01 BMatC= 1.69D-10 BMatP= 1.61D-09
 IDIUse=1 WtCom= 1.00D+00 WtEn= 0.00D+00
 Coeff-Com: -0.361D-06 0.160D-04 0.182D-03 0.152D-02 0.288D-02-0.213D-01
 Coeff-Com: -0.859D-01 0.189D+00 0.913D+00
 Coeff:     -0.361D-06 0.160D-04 0.182D-03 0.152D-02 0.288D-02-0.213D-01
 Coeff:     -0.859D-01 0.189D+00 0.913D+00
 Gap=     0.386 Goal=   None    Shift=    0.000
 RMSDP=4.29D-07 MaxDP=7.95D-06 DE=-2.35D-09 OVMax= 1.36D-05

 Cycle  10  Pass 1  IDiag  1:
 RMSU=  1.11D-07    CP:  8.83D-01  9.07D-01  7.56D-01  1.20D+00  1.14D+00
                    CP:  1.35D+00  1.53D+00  1.34D+00  1.32D+00
 E= -232.448719131684     Delta-E=       -0.000000000342 Rises=F Damp=F
 DIIS: error= 1.19D-07 at cycle  10 NSaved=  10.
 NSaved=10 IEnMin=10 EnMin= -232.448719131684     IErMin=10 ErrMin= 1.19D-07
 ErrMax= 1.19D-07  0.00D+00 EMaxC= 1.00D-01 BMatC= 4.23D-12 BMatP= 1.69D-10
 IDIUse=1 WtCom= 1.00D+00 WtEn= 0.00D+00
 Coeff-Com: -0.455D-07-0.469D-05-0.219D-04-0.442D-04 0.942D-04 0.339D-02
 Coeff-Com: -0.241D-02-0.488D-01-0.811D-01 0.113D+01
 Coeff:     -0.455D-07-0.469D-05-0.219D-04-0.442D-04 0.942D-04 0.339D-02
 Coeff:     -0.241D-02-0.488D-01-0.811D-01 0.113D+01
 Gap=     0.386 Goal=   None    Shift=    0.000
 RMSDP=1.35D-07 MaxDP=3.12D-06 DE=-3.42D-10 OVMax= 3.02D-06

 Cycle  11  Pass 1  IDiag  1:
 RMSU=  2.00D-08    CP:  8.83D-01  9.07D-01  7.56D-01  1.20D+00  1.14D+00
                    CP:  1.36D+00  1.54D+00  1.39D+00  1.50D+00  1.39D+00
 E= -232.448719131698     Delta-E=       -0.000000000014 Rises=F Damp=F
 DIIS: error= 3.88D-08 at cycle  11 NSaved=  11.
 NSaved=11 IEnMin=11 EnMin= -232.448719131698     IErMin=11 ErrMin= 3.88D-08
 ErrMax= 3.88D-08  0.00D+00 EMaxC= 1.00D-01 BMatC= 1.87D-13 BMatP= 4.23D-12
 IDIUse=1 WtCom= 1.00D+00 WtEn= 0.00D+00
 Coeff-Com: -0.208D-07-0.113D-05-0.801D-05-0.711D-04-0.142D-03 0.888D-03
 Coeff-Com:  0.415D-02-0.825D-02-0.418D-01-0.447D-01 0.109D+01
 Coeff:     -0.208D-07-0.113D-05-0.801D-05-0.711D-04-0.142D-03 0.888D-03
 Coeff:      0.415D-02-0.825D-02-0.418D-01-0.447D-01 0.109D+01
 Gap=     0.386 Goal=   None    Shift=    0.000
 RMSDP=2.75D-08 MaxDP=6.45D-07 DE=-1.36D-11 OVMax= 7.94D-07

 Cycle  12  Pass 1  IDiag  1:
 RMSU=  4.36D-09    CP:  8.83D-01  9.07D-01  7.56D-01  1.20D+00  1.14D+00
                    CP:  1.36D+00  1.54D+00  1.39D+00  1.53D+00  1.49D+00
                    CP:  1.38D+00
 E= -232.448719131697     Delta-E=        0.000000000001 Rises=F Damp=F
 DIIS: error= 8.83D-09 at cycle  12 NSaved=  12.
 NSaved=12 IEnMin=11 EnMin= -232.448719131698     IErMin=12 ErrMin= 8.83D-09
 ErrMax= 8.83D-09  0.00D+00 EMaxC= 1.00D-01 BMatC= 1.18D-14 BMatP= 1.87D-13
 IDIUse=1 WtCom= 1.00D+00 WtEn= 0.00D+00
 Coeff-Com: -0.148D-07 0.131D-06 0.139D-05 0.412D-05 0.148D-05-0.207D-03
 Coeff-Com:  0.131D-04 0.266D-02 0.675D-02-0.593D-01-0.371D-01 0.109D+01
 Coeff:     -0.148D-07 0.131D-06 0.139D-05 0.412D-05 0.148D-05-0.207D-03
 Coeff:      0.131D-04 0.266D-02 0.675D-02-0.593D-01-0.371D-01 0.109D+01
 Gap=     0.386 Goal=   None    Shift=    0.000
 RMSDP=4.68D-09 MaxDP=1.18D-07 DE= 5.68D-13 OVMax= 1.85D-07

 Error on total polarization charges =  0.02857
 SCF Done:  E(RwB97XD) =  -232.448719132     A.U. after   12 cycles
            NFock= 12  Conv=0.47D-08     -V/T= 2.0044
 KE= 2.314264000366D+02 PE=-9.232208742837D+02 EE= 2.687744530727D+02
 SMD-CDS (non-electrostatic) energy       (kcal/mol) =      -1.61
 (included in total energy above)
 Leave Link  502 at Mon Sep  8 14:52:43 2025, MaxMem=  4294967296 cpu:             125.7 elap:               8.0
 (Enter /opt/packages/gaussian/g16RevC.01/g16/l601.exe)
 Copying SCF densities to generalized density rwf, IOpCl= 0 IROHF=0.

 **********************************************************************

            Population analysis using the SCF Density.

 **********************************************************************

 Alpha  occ. eigenvalues --  -19.24204 -10.31690 -10.31689 -10.27352 -10.27332
 Alpha  occ. eigenvalues --   -1.13821  -0.87053  -0.82724  -0.68485  -0.67701
 Alpha  occ. eigenvalues --   -0.58434  -0.57032  -0.53149  -0.49467  -0.47460
 Alpha  occ. eigenvalues --   -0.43016  -0.42378  -0.40005  -0.39811  -0.33641
 Alpha virt. eigenvalues --    0.04978   0.06311   0.06331   0.07034   0.08450
 Alpha virt. eigenvalues --    0.08909   0.09168   0.11548   0.11599   0.13211
 Alpha virt. eigenvalues --    0.15754   0.16472   0.17777   0.17918   0.18383
 Alpha virt. eigenvalues --    0.19151   0.19328   0.19718   0.20855   0.21258
 Alpha virt. eigenvalues --    0.21774   0.21830   0.22077   0.22467   0.25384
 Alpha virt. eigenvalues --    0.25416   0.27293   0.29611   0.31997   0.32790
 Alpha virt. eigenvalues --    0.34365   0.36462   0.36530   0.37726   0.38328
 Alpha virt. eigenvalues --    0.38547   0.40041   0.41790   0.43931   0.44688
 Alpha virt. eigenvalues --    0.46088   0.52706   0.56158   0.56429   0.57427
 Alpha virt. eigenvalues --    0.59780   0.62771   0.67661   0.69239   0.72842
 Alpha virt. eigenvalues --    0.73329   0.74970   0.75095   0.76154   0.76688
 Alpha virt. eigenvalues --    0.79395   0.79736   0.81172   0.83533   0.85105
 Alpha virt. eigenvalues --    0.92577   0.95962   0.98626   1.05767   1.07890
 Alpha virt. eigenvalues --    1.08129   1.24305   1.26815   1.27705   1.32760
 Alpha virt. eigenvalues --    1.33994   1.37378   1.44060   1.49415   1.53811
 Alpha virt. eigenvalues --    1.56918   1.62583   1.63123   1.64601   1.67333
 Alpha virt. eigenvalues --    1.67697   1.71309   1.71825   1.77122   1.77754
 Alpha virt. eigenvalues --    1.80946   1.83220   1.83868   1.87043   1.90190
 Alpha virt. eigenvalues --    1.90385   1.94130   1.94599   2.01951   2.05805
 Alpha virt. eigenvalues --    2.10389   2.13315   2.17837   2.23121   2.25766
 Alpha virt. eigenvalues --    2.30096   2.30433   2.39572   2.45398   2.48879
 Alpha virt. eigenvalues --    2.55380   2.57718   2.60973   2.62461   2.67579
 Alpha virt. eigenvalues --    2.69389   2.74113   2.75292   2.79260   2.79603
 Alpha virt. eigenvalues --    2.83557   2.88540   2.90325   2.93258   2.97838
 Alpha virt. eigenvalues --    3.02457   3.04860   3.10757   3.14705   3.25556
 Alpha virt. eigenvalues --    3.29913   3.30265   3.40635   3.43129   3.69626
 Alpha virt. eigenvalues --    3.84578   3.98974   4.08716   4.12018   4.17113
 Alpha virt. eigenvalues --    4.23818   4.36048   4.49512   5.20515   5.53183
 Alpha virt. eigenvalues --    5.77376  23.97770  24.01513  24.03712  24.04105
 Alpha virt. eigenvalues --   50.05409
          Condensed to atoms (all electrons):
               1          2          3          4          5          6
     1  C    5.889595   0.171322  -0.570138   0.394278  -0.316312   0.412842
     2  O    0.171322   8.196297   0.172489  -0.083197  -0.082252  -0.063466
     3  C   -0.570138   0.172489   5.888520  -0.317147   0.390771   0.038366
     4  C    0.394278  -0.083197  -0.317147   5.917722  -0.317803  -0.006850
     5  C   -0.316312  -0.082252   0.390771  -0.317803   5.913707  -0.030797
     6  H    0.412842  -0.063466   0.038366  -0.006850  -0.030797   0.492898
     7  H    0.433810  -0.061038  -0.014847   0.004918  -0.077859  -0.026225
     8  H   -0.016068  -0.060708   0.435621  -0.078787   0.005891  -0.005183
     9  H    0.038550  -0.063281   0.412320  -0.031040  -0.006764   0.002257
    10  H    0.015646   0.009403  -0.062138   0.469100  -0.071923  -0.000062
    11  H    0.002663   0.006681  -0.075914   0.489255  -0.070912  -0.000498
    12  H   -0.062995   0.009172   0.015716  -0.072314   0.471386  -0.000778
    13  H   -0.075873   0.007319   0.003609  -0.071595   0.488716  -0.000908
               7          8          9         10         11         12
     1  C    0.433810  -0.016068   0.038550   0.015646   0.002663  -0.062995
     2  O   -0.061038  -0.060708  -0.063281   0.009403   0.006681   0.009172
     3  C   -0.014847   0.435621   0.412320  -0.062138  -0.075914   0.015716
     4  C    0.004918  -0.078787  -0.031040   0.469100   0.489255  -0.072314
     5  C   -0.077859   0.005891  -0.006764  -0.071923  -0.070912   0.471386
     6  H   -0.026225  -0.005183   0.002257  -0.000062  -0.000498  -0.000778
     7  H    0.564055   0.010813  -0.005065  -0.000119   0.000750  -0.000188
     8  H    0.010813   0.562851  -0.025491   0.000364   0.001720  -0.000353
     9  H   -0.005065  -0.025491   0.492253  -0.000955  -0.000606  -0.000021
    10  H   -0.000119   0.000364  -0.000955   0.502866  -0.026941  -0.001854
    11  H    0.000750   0.001720  -0.000606  -0.026941   0.507974   0.001051
    12  H   -0.000188  -0.000353  -0.000021  -0.001854   0.001051   0.502718
    13  H    0.002105   0.000899  -0.000533   0.001081  -0.005867  -0.027126
              13
     1  C   -0.075873
     2  O    0.007319
     3  C    0.003609
     4  C   -0.071595
     5  C    0.488716
     6  H   -0.000908
     7  H    0.002105
     8  H    0.000899
     9  H   -0.000533
    10  H    0.001081
    11  H   -0.005867
    12  H   -0.027126
    13  H    0.508364
 Mulliken charges:
               1
     1  C   -0.317319
     2  O   -0.158740
     3  C   -0.317226
     4  C   -0.296539
     5  C   -0.295850
     6  H    0.188405
     7  H    0.168891
     8  H    0.168432
     9  H    0.188377
    10  H    0.165532
    11  H    0.170643
    12  H    0.165586
    13  H    0.169809
 Sum of Mulliken charges =  -0.00000
 Mulliken charges with hydrogens summed into heavy atoms:
               1
     1  C    0.039977
     2  O   -0.158740
     3  C    0.039583
     4  C    0.039636
     5  C    0.039544
 Electronic spatial extent (au):  <R**2>=            585.5733
 Charge=             -0.0000 electrons
 Dipole moment (field-independent basis, Debye):
    X=              0.1946    Y=              2.1046    Z=              0.5534  Tot=              2.1848
 Quadrupole moment (field-independent basis, Debye-Ang):
   XX=            -29.6250   YY=            -32.0866   ZZ=            -30.4438
   XY=             -1.6549   XZ=             -1.5723   YZ=             -0.2454
 Traceless Quadrupole moment (field-independent basis, Debye-Ang):
   XX=              1.0935   YY=             -1.3681   ZZ=              0.2746
   XY=             -1.6549   XZ=             -1.5723   YZ=             -0.2454
 Octapole moment (field-independent basis, Debye-Ang**2):
  XXX=             81.6498  YYY=            -76.3575  ZZZ=              6.3445  XYY=             30.4032
  XXY=            -24.7362  XXZ=              4.3378  XZZ=             29.4419  YZZ=            -24.8894
  YYZ=              3.4421  XYZ=              1.0265
 Hexadecapole moment (field-independent basis, Debye-Ang**3):
 XXXX=           -326.8653 YYYY=           -335.8051 ZZZZ=           -108.1085 XXXY=             79.5117
 XXXZ=             24.8845 YYYX=             80.6258 YYYZ=             21.1136 ZZZX=             25.8730
 ZZZY=             16.0513 XXYY=           -113.7131 XXZZ=            -76.0194 YYZZ=            -72.6528
 XXYZ=              3.5268 YYXZ=              8.6558 ZZXY=             23.4642
 N-N= 1.905713020427D+02 E-N=-9.232208741108D+02  KE= 2.314264000366D+02
 No NMR shielding tensors so no spin-rotation constants.
 Leave Link  601 at Mon Sep  8 14:52:43 2025, MaxMem=  4294967296 cpu:               1.2 elap:               0.1
 (Enter /opt/packages/gaussian/g16RevC.01/g16/l9999.exe)
 Unable to Open any file for archive entry.
 1\1\GINC-R172\SP\RwB97XD\6-311++G(d,p)\C4H8O1\WHUGHES\08-Sep-2025\0\\#
 p wb97xd/6-311++g** nosymm int=ultrafine scrf=(smd,solvent=tetrahydrof
 uran)\\Title\\0,1\C,0,-1.750651,0.286324,0.696915\O,0,-0.921501,-0.442
 73,-0.198487\C,0,0.169784,0.420768,-0.488377\C,0,-0.44104,1.822229,-0.
 64042\C,0,-1.753695,1.731758,0.175332\H,0,-2.735337,-0.187409,0.702971
 \H,0,-1.328477,0.237123,1.713371\H,0,0.891244,0.395717,0.343955\H,0,0.
 661682,0.048394,-1.390247\H,0,0.235072,2.596099,-0.265444\H,0,-0.65057
 1,2.039263,-1.692011\H,0,-1.788566,2.452785,0.99723\H,0,-2.622893,1.90
 9384,-0.46476\\Version=ES64L-G16RevC.01\HF=-232.4487191\RMSD=4.678e-09
 \Dipole=0.0765602,0.8279978,0.2177271\Quadrupole=0.8129932,-1.0171803,
 0.204187,-1.2303976,-1.1689902,-0.1824298\PG=C01 [X(C4H8O1)]\\@
 The archive entry for this job was punched.


 THE ENLIGHTENED ONE, BECAUSE HE SAW MANKIND DROWNING  
 IN THE GREAT SEA OF BIRTH, DEATH, AND SORROW, LONGED TO SAVE 
 THEM, FOR THIS HE WAS MOVED TO PITY.                         
 BECAUSE HE SAW MEN OF THE WORLD STRAYING IN FALSE PATHS, AND 
 NONE TO GUIDE THEM, FOR THIS HE WAS MOVED TO PITY.           
                     ..................                       
 BECAUSE HE SAW THE MEN OF THE WORLD PLOUGHING THEIR FIELDS,  
 SOWING THE SEED, TRAFFICKING, HUCKSTERING, BUYING, SELLING,  
 AND AT THE END WINNOWING NOTHING BUT BITTERNESS,             
 FOR THIS HE WAS MOVED TO PITY......                   
                   BUDAH'S PITY - UPSAKA SILA SUTRA           
 Job cpu time:       0 days  0 hours  2 minutes 23.1 seconds.
 Elapsed time:       0 days  0 hours  0 minutes  9.4 seconds.
 File lengths (MBytes):  RWF=     37 Int=      0 D2E=      0 Chk=      3 Scr=      1
 Normal termination of Gaussian 16 at Mon Sep  8 14:52:44 2025.
